%%MatrixMarket matrix coordinate real symmetric
%
1500 1500 7123
1 1 6.600000000000000e+01
2 1 -1.000000000000000e+00
2 2 4.500000000000000e+01
3 1 -1.000000000000000e+00
3 3 2.200000000000000e+01
4 1 -1.000000000000000e+00
4 4 7.400000000000000e+01
5 1 -1.000000000000000e+00
5 3 -1.000000000000000e+00
5 4 -1.000000000000000e+00
5 5 1.950000000000000e+02
6 1 -1.000000000000000e+00
6 2 -1.000000000000000e+00
6 5 -1.000000000000000e+00
6 6 1.210000000000000e+02
7 1 -1.000000000000000e+00
7 3 -2.000000000000000e+00
7 6 -1.000000000000000e+00
7 7 1.030000000000000e+02
8 1 -1.000000000000000e+00
8 6 -1.000000000000000e+00
8 7 -1.000000000000000e+00
8 8 1.170000000000000e+02
9 2 -1.000000000000000e+00
9 6 -2.000000000000000e+00
9 7 -1.000000000000000e+00
9 9 5.800000000000000e+01
10 5 -1.000000000000000e+00
10 6 -1.000000000000000e+00
10 8 -1.000000000000000e+00
10 10 5.100000000000000e+01
11 1 -1.000000000000000e+00
11 5 -1.000000000000000e+00
11 8 -1.000000000000000e+00
11 11 6.000000000000000e+01
12 2 -1.000000000000000e+00
12 5 -1.000000000000000e+00
12 6 -1.000000000000000e+00
12 7 -1.000000000000000e+00
12 12 2.300000000000000e+01
13 2 -1.000000000000000e+00
13 5 -1.000000000000000e+00
13 7 -1.000000000000000e+00
13 13 7.700000000000000e+01
14 1 -1.000000000000000e+00
14 4 -1.000000000000000e+00
14 7 -1.000000000000000e+00
14 14 2.700000000000000e+01
15 4 -1.000000000000000e+00
15 8 -1.000000000000000e+00
15 9 -1.000000000000000e+00
15 15 4.200000000000000e+01
16 6 -1.000000000000000e+00
16 8 -1.000000000000000e+00
16 13 -1.000000000000000e+00
16 16 2.300000000000000e+01
17 5 -1.000000000000000e+00
17 6 -1.000000000000000e+00
17 15 -1.000000000000000e+00
17 17 4.400000000000000e+01
18 6 -1.000000000000000e+00
18 11 -1.000000000000000e+00
18 15 -1.000000000000000e+00
18 18 1.200000000000000e+01
19 1 -1.000000000000000e+00
19 4 -1.000000000000000e+00
19 6 -1.000000000000000e+00
19 19 2.500000000000000e+01
20 4 -1.000000000000000e+00
20 8 -1.000000000000000e+00
20 11 -1.000000000000000e+00
20 20 2.500000000000000e+01
21 5 -1.000000000000000e+00
21 6 -1.000000000000000e+00
21 8 -1.000000000000000e+00
21 21 3.100000000000000e+01
22 1 -1.000000000000000e+00
22 5 -1.000000000000000e+00
22 8 -1.000000000000000e+00
22 22 2.200000000000000e+01
23 9 -1.000000000000000e+00
23 13 -1.000000000000000e+00
23 17 -1.000000000000000e+00
23 23 6.400000000000000e+01
24 6 -1.000000000000000e+00
24 11 -1.000000000000000e+00
24 21 -1.000000000000000e+00
24 24 3.000000000000000e+01
25 6 -2.000000000000000e+00
25 7 -1.000000000000000e+00
25 11 -1.000000000000000e+00
25 25 8.000000000000000e+00
26 1 -1.000000000000000e+00
26 5 -1.000000000000000e+00
26 8 -1.000000000000000e+00
26 17 -1.000000000000000e+00
26 26 4.400000000000000e+01
27 7 -1.000000000000000e+00
27 10 -1.000000000000000e+00
27 26 -1.000000000000000e+00
27 27 3.500000000000000e+01
28 4 -2.000000000000000e+00
28 15 -1.000000000000000e+00
28 23 -1.000000000000000e+00
28 28 2.600000000000000e+01
29 7 -1.000000000000000e+00
29 17 -1.000000000000000e+00
29 27 -1.000000000000000e+00
29 29 2.400000000000000e+01
30 4 -1.000000000000000e+00
30 5 -1.000000000000000e+00
30 13 -1.000000000000000e+00
30 30 2.600000000000000e+01
31 5 -1.000000000000000e+00
31 8 -1.000000000000000e+00
31 15 -1.000000000000000e+00
31 31 3.300000000000000e+01
32 2 -1.000000000000000e+00
32 6 -1.000000000000000e+00
32 23 -1.000000000000000e+00
32 32 2.500000000000000e+01
33 2 -1.000000000000000e+00
33 15 -1.000000000000000e+00
33 31 -1.000000000000000e+00
33 33 2.200000000000000e+01
34 6 -1.000000000000000e+00
34 8 -1.000000000000000e+00
34 20 -1.000000000000000e+00
34 34 3.500000000000000e+01
35 4 -1.000000000000000e+00
35 5 -1.000000000000000e+00
35 23 -1.000000000000000e+00
35 32 -1.000000000000000e+00
35 35 5.700000000000000e+01
36 9 -1.000000000000000e+00
36 14 -1.000000000000000e+00
36 35 -1.000000000000000e+00
36 36 1.300000000000000e+01
37 4 -1.000000000000000e+00
37 26 -1.000000000000000e+00
37 27 -1.000000000000000e+00
37 37 1.800000000000000e+01
38 5 -2.000000000000000e+00
38 28 -1.000000000000000e+00
38 35 -1.000000000000000e+00
38 38 1.500000000000000e+01
39 5 -1.000000000000000e+00
39 6 -1.000000000000000e+00
39 28 -1.000000000000000e+00
39 39 2.700000000000000e+01
40 7 -1.000000000000000e+00
40 9 -1.000000000000000e+00
40 25 -1.000000000000000e+00
40 40 1.300000000000000e+01
41 3 -1.000000000000000e+00
41 7 -1.000000000000000e+00
41 11 -1.000000000000000e+00
41 35 -1.000000000000000e+00
41 41 7.000000000000000e+00
42 1 -1.000000000000000e+00
42 8 -2.000000000000000e+00
42 40 -1.000000000000000e+00
42 42 2.300000000000000e+01
43 10 -1.000000000000000e+00
43 30 -1.000000000000000e+00
43 37 -1.000000000000000e+00
43 43 1.700000000000000e+01
44 1 -1.000000000000000e+00
44 2 -1.000000000000000e+00
44 7 -1.000000000000000e+00
44 44 2.000000000000000e+01
45 4 -1.000000000000000e+00
45 6 -1.000000000000000e+00
45 8 -1.000000000000000e+00
45 45 1.300000000000000e+01
46 7 -1.000000000000000e+00
46 23 -1.000000000000000e+00
46 26 -1.000000000000000e+00
46 46 3.000000000000000e+01
47 4 -1.000000000000000e+00
47 7 -1.000000000000000e+00
47 13 -1.000000000000000e+00
47 47 2.400000000000000e+01
48 2 -1.000000000000000e+00
48 13 -1.000000000000000e+00
48 26 -1.000000000000000e+00
48 48 3.100000000000000e+01
49 11 -1.000000000000000e+00
49 15 -1.000000000000000e+00
49 17 -1.000000000000000e+00
49 49 1.600000000000000e+01
50 1 -1.000000000000000e+00
50 8 -1.000000000000000e+00
50 42 -1.000000000000000e+00
50 50 1.800000000000000e+01
51 4 -1.000000000000000e+00
51 13 -2.000000000000000e+00
51 46 -1.000000000000000e+00
51 51 2.500000000000000e+01
52 2 -1.000000000000000e+00
52 7 -1.000000000000000e+00
52 13 -1.000000000000000e+00
52 47 -1.000000000000000e+00
52 52 2.400000000000000e+01
53 5 -2.000000000000000e+00
53 20 -1.000000000000000e+00
53 35 -1.000000000000000e+00
53 53 1.000000000000000e+01
54 1 -1.000000000000000e+00
54 11 -1.000000000000000e+00
54 17 -1.000000000000000e+00
54 54 1.600000000000000e+01
55 1 -1.000000000000000e+00
55 31 -1.000000000000000e+00
55 45 -1.000000000000000e+00
55 55 2.300000000000000e+01
56 5 -2.000000000000000e+00
56 13 -1.000000000000000e+00
56 34 -1.000000000000000e+00
56 56 1.000000000000000e+01
57 5 -2.000000000000000e+00
57 6 -1.000000000000000e+00
57 8 -1.000000000000000e+00
57 57 5.000000000000000e+01
58 7 -1.000000000000000e+00
58 10 -1.000000000000000e+00
58 23 -1.000000000000000e+00
58 24 -1.000000000000000e+00
58 58 9.000000000000000e+00
59 5 -2.000000000000000e+00
59 8 -1.000000000000000e+00
59 9 -1.000000000000000e+00
59 59 2.100000000000000e+01
60 14 -1.000000000000000e+00
60 15 -2.000000000000000e+00
60 44 -1.000000000000000e+00
60 60 2.200000000000000e+01
61 11 -1.000000000000000e+00
61 26 -1.000000000000000e+00
61 50 -1.000000000000000e+00
61 61 2.900000000000000e+01
62 9 -1.000000000000000e+00
62 17 -1.000000000000000e+00
62 55 -1.000000000000000e+00
62 62 1.300000000000000e+01
63 1 -1.000000000000000e+00
63 5 -1.000000000000000e+00
63 62 -1.000000000000000e+00
63 63 1.200000000000000e+01
64 11 -1.000000000000000e+00
64 30 -1.000000000000000e+00
64 32 -1.000000000000000e+00
64 35 -2.000000000000000e+00
64 64 5.000000000000000e+00
65 7 -1.000000000000000e+00
65 8 -1.000000000000000e+00
65 32 -1.000000000000000e+00
65 35 -2.000000000000000e+00
65 65 2.300000000000000e+01
66 4 -1.000000000000000e+00
66 26 -1.000000000000000e+00
66 42 -1.000000000000000e+00
66 66 1.900000000000000e+01
67 7 -1.000000000000000e+00
67 11 -1.000000000000000e+00
67 17 -1.000000000000000e+00
67 67 1.900000000000000e+01
68 1 -1.000000000000000e+00
68 5 -1.000000000000000e+00
68 32 -1.000000000000000e+00
68 48 -1.000000000000000e+00
68 68 1.400000000000000e+01
69 1 -1.000000000000000e+00
69 13 -2.000000000000000e+00
69 23 -1.000000000000000e+00
69 51 -1.000000000000000e+00
69 69 1.400000000000000e+01
70 2 -1.000000000000000e+00
70 5 -1.000000000000000e+00
70 22 -1.000000000000000e+00
70 61 -1.000000000000000e+00
70 70 2.900000000000000e+01
71 2 -1.000000000000000e+00
71 30 -1.000000000000000e+00
71 57 -1.000000000000000e+00
71 71 2.300000000000000e+01
72 6 -1.000000000000000e+00
72 9 -1.000000000000000e+00
72 11 -1.000000000000000e+00
72 23 -1.000000000000000e+00
72 72 3.500000000000000e+01
73 5 -1.000000000000000e+00
73 6 -1.000000000000000e+00
73 47 -2.000000000000000e+00
73 52 -1.000000000000000e+00
73 73 7.000000000000000e+00
74 21 -1.000000000000000e+00
74 27 -1.000000000000000e+00
74 50 -1.000000000000000e+00
74 74 1.900000000000000e+01
75 1 -1.000000000000000e+00
75 5 -1.000000000000000e+00
75 8 -1.000000000000000e+00
75 75 2.600000000000000e+01
76 4 -1.000000000000000e+00
76 52 -1.000000000000000e+00
76 65 -1.000000000000000e+00
76 76 1.600000000000000e+01
77 7 -1.000000000000000e+00
77 20 -1.000000000000000e+00
77 24 -1.000000000000000e+00
77 77 2.500000000000000e+01
78 7 -1.000000000000000e+00
78 70 -1.000000000000000e+00
78 72 -1.000000000000000e+00
78 78 2.400000000000000e+01
79 4 -1.000000000000000e+00
79 5 -1.000000000000000e+00
79 38 -1.000000000000000e+00
79 79 2.800000000000000e+01
80 6 -1.000000000000000e+00
80 14 -1.000000000000000e+00
80 40 -1.000000000000000e+00
80 80 1.400000000000000e+01
81 6 -1.000000000000000e+00
81 9 -1.000000000000000e+00
81 28 -1.000000000000000e+00
81 81 2.100000000000000e+01
82 4 -1.000000000000000e+00
82 43 -1.000000000000000e+00
82 77 -1.000000000000000e+00
82 82 4.900000000000000e+01
83 8 -2.000000000000000e+00
83 26 -1.000000000000000e+00
83 59 -1.000000000000000e+00
83 83 7.000000000000000e+00
84 6 -2.000000000000000e+00
84 7 -1.000000000000000e+00
84 9 -1.000000000000000e+00
84 84 8.000000000000000e+00
85 5 -1.000000000000000e+00
85 26 -1.000000000000000e+00
85 32 -1.000000000000000e+00
85 85 2.800000000000000e+01
86 5 -1.000000000000000e+00
86 6 -1.000000000000000e+00
86 77 -1.000000000000000e+00
86 86 1.900000000000000e+01
87 4 -1.000000000000000e+00
87 6 -1.000000000000000e+00
87 8 -1.000000000000000e+00
87 87 1.600000000000000e+01
88 8 -1.000000000000000e+00
88 15 -1.000000000000000e+00
88 24 -1.000000000000000e+00
88 49 -1.000000000000000e+00
88 88 1.600000000000000e+01
89 9 -1.000000000000000e+00
89 19 -1.000000000000000e+00
89 27 -1.000000000000000e+00
89 89 1.400000000000000e+01
90 16 -1.000000000000000e+00
90 46 -1.000000000000000e+00
90 82 -1.000000000000000e+00
90 90 1.100000000000000e+01
91 12 -1.000000000000000e+00
91 20 -1.000000000000000e+00
91 79 -1.000000000000000e+00
91 91 3.000000000000000e+00
92 6 -1.000000000000000e+00
92 7 -1.000000000000000e+00
92 19 -1.000000000000000e+00
92 92 2.000000000000000e+01
93 23 -1.000000000000000e+00
93 47 -1.000000000000000e+00
93 86 -1.000000000000000e+00
93 93 1.400000000000000e+01
94 3 -1.000000000000000e+00
94 5 -1.000000000000000e+00
94 7 -1.000000000000000e+00
94 23 -1.000000000000000e+00
94 94 1.300000000000000e+01
95 1 -1.000000000000000e+00
95 2 -1.000000000000000e+00
95 68 -1.000000000000000e+00
95 95 2.200000000000000e+01
96 1 -1.000000000000000e+00
96 11 -1.000000000000000e+00
96 70 -1.000000000000000e+00
96 96 3.300000000000000e+01
97 4 -2.000000000000000e+00
97 28 -1.000000000000000e+00
97 52 -1.000000000000000e+00
97 81 -1.000000000000000e+00
97 97 1.200000000000000e+01
98 13 -1.000000000000000e+00
98 14 -1.000000000000000e+00
98 54 -1.000000000000000e+00
98 55 -1.000000000000000e+00
98 98 2.800000000000000e+01
99 11 -1.000000000000000e+00
99 13 -1.000000000000000e+00
99 96 -2.000000000000000e+00
99 99 2.100000000000000e+01
100 7 -1.000000000000000e+00
100 13 -1.000000000000000e+00
100 31 -1.000000000000000e+00
100 57 -1.000000000000000e+00
100 100 3.000000000000000e+01
101 12 -1.000000000000000e+00
101 32 -1.000000000000000e+00
101 89 -1.000000000000000e+00
101 101 1.600000000000000e+01
102 13 -1.000000000000000e+00
102 30 -1.000000000000000e+00
102 94 -1.000000000000000e+00
102 102 2.200000000000000e+01
103 17 -1.000000000000000e+00
103 35 -1.000000000000000e+00
103 90 -1.000000000000000e+00
103 103 1.800000000000000e+01
104 1 -1.000000000000000e+00
104 15 -1.000000000000000e+00
104 36 -1.000000000000000e+00
104 72 -1.000000000000000e+00
104 104 2.300000000000000e+01
105 6 -1.000000000000000e+00
105 12 -1.000000000000000e+00
105 26 -1.000000000000000e+00
105 105 1.200000000000000e+01
106 6 -1.000000000000000e+00
106 10 -1.000000000000000e+00
106 102 -1.000000000000000e+00
106 106 1.500000000000000e+01
107 17 -1.000000000000000e+00
107 61 -1.000000000000000e+00
107 70 -1.000000000000000e+00
107 75 -1.000000000000000e+00
107 103 -1.000000000000000e+00
107 107 1.800000000000000e+01
108 7 -1.000000000000000e+00
108 29 -1.000000000000000e+00
108 57 -1.000000000000000e+00
108 86 -1.000000000000000e+00
108 108 1.600000000000000e+01
109 38 -1.000000000000000e+00
109 48 -1.000000000000000e+00
109 57 -1.000000000000000e+00
109 109 1.800000000000000e+01
110 11 -1.000000000000000e+00
110 44 -1.000000000000000e+00
110 71 -1.000000000000000e+00
110 110 9.000000000000000e+00
111 8 -1.000000000000000e+00
111 43 -1.000000000000000e+00
111 45 -2.000000000000000e+00
111 111 1.800000000000000e+01
112 5 -2.000000000000000e+00
112 8 -1.000000000000000e+00
112 57 -1.000000000000000e+00
112 112 7.000000000000000e+00
113 4 -1.000000000000000e+00
113 11 -1.000000000000000e+00
113 57 -1.000000000000000e+00
113 113 1.600000000000000e+01
114 5 -1.000000000000000e+00
114 16 -1.000000000000000e+00
114 95 -2.000000000000000e+00
114 114 2.500000000000000e+01
115 3 -1.000000000000000e+00
115 7 -1.000000000000000e+00
115 11 -1.000000000000000e+00
115 16 -1.000000000000000e+00
115 115 1.200000000000000e+01
116 15 -1.000000000000000e+00
116 26 -1.000000000000000e+00
116 63 -1.000000000000000e+00
116 116 2.500000000000000e+01
117 17 -1.000000000000000e+00
117 45 -2.000000000000000e+00
117 52 -1.000000000000000e+00
117 111 -1.000000000000000e+00
117 117 1.500000000000000e+01
118 30 -2.000000000000000e+00
118 78 -1.000000000000000e+00
118 96 -1.000000000000000e+00
118 118 3.900000000000000e+01
119 5 -1.000000000000000e+00
119 7 -1.000000000000000e+00
119 55 -1.000000000000000e+00
119 115 -1.000000000000000e+00
119 119 1.200000000000000e+01
120 4 -1.000000000000000e+00
120 7 -1.000000000000000e+00
120 117 -1.000000000000000e+00
120 120 9.000000000000000e+00
121 1 -1.000000000000000e+00
121 52 -1.000000000000000e+00
121 98 -1.000000000000000e+00
121 121 2.300000000000000e+01
122 17 -2.000000000000000e+00
122 21 -1.000000000000000e+00
122 26 -2.000000000000000e+00
122 122 1.000000000000000e+01
123 5 -1.000000000000000e+00
123 14 -1.000000000000000e+00
123 23 -1.000000000000000e+00
123 123 2.200000000000000e+01
124 2 -1.000000000000000e+00
124 8 -1.000000000000000e+00
124 30 -1.000000000000000e+00
124 124 1.100000000000000e+01
125 39 -1.000000000000000e+00
125 62 -1.000000000000000e+00
125 75 -2.000000000000000e+00
125 125 1.500000000000000e+01
126 5 -2.000000000000000e+00
126 38 -1.000000000000000e+00
126 98 -1.000000000000000e+00
126 126 9.000000000000000e+00
127 8 -1.000000000000000e+00
127 17 -1.000000000000000e+00
127 46 -1.000000000000000e+00
127 61 -1.000000000000000e+00
127 70 -1.000000000000000e+00
127 127 9.000000000000000e+00
128 12 -1.000000000000000e+00
128 19 -1.000000000000000e+00
128 46 -1.000000000000000e+00
128 128 1.100000000000000e+01
129 5 -1.000000000000000e+00
129 13 -1.000000000000000e+00
129 52 -1.000000000000000e+00
129 129 1.600000000000000e+01
130 2 -1.000000000000000e+00
130 11 -1.000000000000000e+00
130 60 -1.000000000000000e+00
130 61 -1.000000000000000e+00
130 70 -1.000000000000000e+00
130 130 1.100000000000000e+01
131 5 -2.000000000000000e+00
131 48 -1.000000000000000e+00
131 112 -1.000000000000000e+00
131 131 1.200000000000000e+01
132 31 -1.000000000000000e+00
132 38 -1.000000000000000e+00
132 130 -1.000000000000000e+00
132 132 2.500000000000000e+01
133 8 -1.000000000000000e+00
133 54 -1.000000000000000e+00
133 76 -1.000000000000000e+00
133 133 1.400000000000000e+01
134 5 -1.000000000000000e+00
134 9 -1.000000000000000e+00
134 99 -1.000000000000000e+00
134 134 5.000000000000000e+00
135 7 -1.000000000000000e+00
135 16 -1.000000000000000e+00
135 121 -1.000000000000000e+00
135 135 2.000000000000000e+01
136 5 -1.000000000000000e+00
136 17 -1.000000000000000e+00
136 81 -1.000000000000000e+00
136 136 7.000000000000000e+00
137 13 -1.000000000000000e+00
137 27 -1.000000000000000e+00
137 35 -1.000000000000000e+00
137 123 -1.000000000000000e+00
137 137 2.000000000000000e+01
138 1 -2.000000000000000e+00
138 24 -1.000000000000000e+00
138 25 -1.000000000000000e+00
138 138 1.900000000000000e+01
139 4 -1.000000000000000e+00
139 10 -1.000000000000000e+00
139 56 -1.000000000000000e+00
139 139 1.800000000000000e+01
140 7 -1.000000000000000e+00
140 35 -1.000000000000000e+00
140 39 -1.000000000000000e+00
140 140 1.800000000000000e+01
141 21 -2.000000000000000e+00
141 46 -1.000000000000000e+00
141 117 -1.000000000000000e+00
141 141 1.600000000000000e+01
142 30 -1.000000000000000e+00
142 35 -1.000000000000000e+00
142 99 -1.000000000000000e+00
142 142 1.200000000000000e+01
143 47 -1.000000000000000e+00
143 109 -1.000000000000000e+00
143 131 -1.000000000000000e+00
143 143 8.000000000000000e+00
144 3 -1.000000000000000e+00
144 7 -1.000000000000000e+00
144 13 -1.000000000000000e+00
144 31 -1.000000000000000e+00
144 144 6.000000000000000e+00
145 6 -1.000000000000000e+00
145 99 -1.000000000000000e+00
145 140 -1.000000000000000e+00
145 145 8.000000000000000e+00
146 6 -2.000000000000000e+00
146 21 -1.000000000000000e+00
146 34 -1.000000000000000e+00
146 146 6.000000000000000e+00
147 60 -1.000000000000000e+00
147 129 -1.000000000000000e+00
147 137 -1.000000000000000e+00
147 147 1.200000000000000e+01
148 27 -1.000000000000000e+00
148 30 -1.000000000000000e+00
148 33 -1.000000000000000e+00
148 140 -1.000000000000000e+00
148 148 1.400000000000000e+01
149 13 -1.000000000000000e+00
149 23 -1.000000000000000e+00
149 99 -1.000000000000000e+00
149 140 -1.000000000000000e+00
149 149 1.200000000000000e+01
150 15 -1.000000000000000e+00
150 24 -1.000000000000000e+00
150 49 -1.000000000000000e+00
150 150 1.400000000000000e+01
151 8 -1.000000000000000e+00
151 13 -1.000000000000000e+00
151 123 -1.000000000000000e+00
151 151 1.100000000000000e+01
152 6 -1.000000000000000e+00
152 10 -1.000000000000000e+00
152 150 -1.000000000000000e+00
152 152 2.100000000000000e+01
153 35 -1.000000000000000e+00
153 41 -1.000000000000000e+00
153 47 -1.000000000000000e+00
153 153 2.900000000000000e+01
154 34 -1.000000000000000e+00
154 63 -1.000000000000000e+00
154 82 -1.000000000000000e+00
154 154 1.500000000000000e+01
155 13 -1.000000000000000e+00
155 139 -1.000000000000000e+00
155 152 -2.000000000000000e+00
155 155 1.400000000000000e+01
156 1 -1.000000000000000e+00
156 42 -1.000000000000000e+00
156 116 -1.000000000000000e+00
156 156 1.300000000000000e+01
157 9 -1.000000000000000e+00
157 36 -1.000000000000000e+00
157 44 -2.000000000000000e+00
157 157 2.800000000000000e+01
158 5 -1.000000000000000e+00
158 15 -1.000000000000000e+00
158 51 -1.000000000000000e+00
158 151 -1.000000000000000e+00
158 158 1.300000000000000e+01
159 51 -1.000000000000000e+00
159 63 -1.000000000000000e+00
159 135 -1.000000000000000e+00
159 159 1.400000000000000e+01
160 4 -1.000000000000000e+00
160 6 -1.000000000000000e+00
160 90 -1.000000000000000e+00
160 160 8.000000000000000e+00
161 95 -1.000000000000000e+00
161 119 -1.000000000000000e+00
161 147 -1.000000000000000e+00
161 161 1.500000000000000e+01
162 8 -1.000000000000000e+00
162 23 -1.000000000000000e+00
162 60 -1.000000000000000e+00
162 162 2.000000000000000e+01
163 8 -1.000000000000000e+00
163 48 -1.000000000000000e+00
163 67 -1.000000000000000e+00
163 153 -1.000000000000000e+00
163 163 2.200000000000000e+01
164 10 -1.000000000000000e+00
164 11 -1.000000000000000e+00
164 17 -1.000000000000000e+00
164 80 -1.000000000000000e+00
164 164 1.200000000000000e+01
165 22 -1.000000000000000e+00
165 70 -1.000000000000000e+00
165 105 -1.000000000000000e+00
165 165 1.300000000000000e+01
166 1 -1.000000000000000e+00
166 46 -1.000000000000000e+00
166 62 -2.000000000000000e+00
166 166 1.100000000000000e+01
167 57 -1.000000000000000e+00
167 72 -1.000000000000000e+00
167 103 -1.000000000000000e+00
167 167 5.000000000000000e+00
168 20 -1.000000000000000e+00
168 23 -1.000000000000000e+00
168 69 -1.000000000000000e+00
168 140 -1.000000000000000e+00
168 149 -1.000000000000000e+00
168 168 1.100000000000000e+01
169 14 -1.000000000000000e+00
169 94 -1.000000000000000e+00
169 157 -1.000000000000000e+00
169 169 1.100000000000000e+01
170 7 -1.000000000000000e+00
170 11 -1.000000000000000e+00
170 124 -1.000000000000000e+00
170 170 1.400000000000000e+01
171 1 -2.000000000000000e+00
171 72 -1.000000000000000e+00
171 92 -1.000000000000000e+00
171 138 -1.000000000000000e+00
171 171 1.000000000000000e+01
172 95 -2.000000000000000e+00
172 114 -1.000000000000000e+00
172 141 -1.000000000000000e+00
172 161 -1.000000000000000e+00
172 172 8.000000000000000e+00
173 11 -1.000000000000000e+00
173 55 -1.000000000000000e+00
173 98 -2.000000000000000e+00
173 126 -1.000000000000000e+00
173 173 8.000000000000000e+00
174 96 -1.000000000000000e+00
174 129 -1.000000000000000e+00
174 130 -1.000000000000000e+00
174 174 1.100000000000000e+01
175 2 -2.000000000000000e+00
175 12 -2.000000000000000e+00
175 13 -1.000000000000000e+00
175 175 5.000000000000000e+00
176 27 -1.000000000000000e+00
176 43 -2.000000000000000e+00
176 116 -1.000000000000000e+00
176 176 8.000000000000000e+00
177 46 -1.000000000000000e+00
177 106 -1.000000000000000e+00
177 109 -2.000000000000000e+00
177 177 6.000000000000000e+00
178 16 -1.000000000000000e+00
178 21 -1.000000000000000e+00
178 46 -1.000000000000000e+00
178 47 -1.000000000000000e+00
178 141 -1.000000000000000e+00
178 178 7.000000000000000e+00
179 7 -1.000000000000000e+00
179 23 -1.000000000000000e+00
179 104 -1.000000000000000e+00
179 179 1.000000000000000e+01
180 8 -1.000000000000000e+00
180 62 -1.000000000000000e+00
180 147 -1.000000000000000e+00
180 180 9.000000000000000e+00
181 1 -1.000000000000000e+00
181 106 -1.000000000000000e+00
181 142 -1.000000000000000e+00
181 181 5.000000000000000e+00
182 75 -2.000000000000000e+00
182 101 -1.000000000000000e+00
182 107 -1.000000000000000e+00
182 125 -1.000000000000000e+00
182 182 1.000000000000000e+01
183 113 -1.000000000000000e+00
183 150 -1.000000000000000e+00
183 162 -2.000000000000000e+00
183 183 5.000000000000000e+00
184 16 -1.000000000000000e+00
184 76 -2.000000000000000e+00
184 154 -1.000000000000000e+00
184 184 1.500000000000000e+01
185 32 -1.000000000000000e+00
185 61 -1.000000000000000e+00
185 165 -2.000000000000000e+00
185 185 8.000000000000000e+00
186 93 -1.000000000000000e+00
186 96 -1.000000000000000e+00
186 100 -1.000000000000000e+00
186 179 -1.000000000000000e+00
186 186 1.200000000000000e+01
187 6 -1.000000000000000e+00
187 35 -1.000000000000000e+00
187 109 -1.000000000000000e+00
187 187 1.100000000000000e+01
188 1 -1.000000000000000e+00
188 71 -2.000000000000000e+00
188 80 -1.000000000000000e+00
188 188 7.000000000000000e+00
189 3 -1.000000000000000e+00
189 7 -1.000000000000000e+00
189 19 -1.000000000000000e+00
189 87 -1.000000000000000e+00
189 189 1.000000000000000e+01
190 28 -1.000000000000000e+00
190 46 -1.000000000000000e+00
190 135 -1.000000000000000e+00
190 190 1.400000000000000e+01
191 6 -1.000000000000000e+00
191 22 -1.000000000000000e+00
191 121 -1.000000000000000e+00
191 191 1.300000000000000e+01
192 6 -1.000000000000000e+00
192 7 -1.000000000000000e+00
192 67 -1.000000000000000e+00
192 163 -1.000000000000000e+00
192 172 -1.000000000000000e+00
192 192 1.300000000000000e+01
193 5 -1.000000000000000e+00
193 7 -1.000000000000000e+00
193 11 -1.000000000000000e+00
193 120 -1.000000000000000e+00
193 193 1.300000000000000e+01
194 35 -1.000000000000000e+00
194 78 -1.000000000000000e+00
194 99 -1.000000000000000e+00
194 194 1.400000000000000e+01
195 5 -1.000000000000000e+00
195 162 -1.000000000000000e+00
195 180 -2.000000000000000e+00
195 195 9.000000000000000e+00
196 8 -1.000000000000000e+00
196 9 -1.000000000000000e+00
196 15 -1.000000000000000e+00
196 35 -1.000000000000000e+00
196 60 -1.000000000000000e+00
196 196 8.000000000000000e+00
197 49 -1.000000000000000e+00
197 159 -1.000000000000000e+00
197 162 -1.000000000000000e+00
197 197 1.100000000000000e+01
198 5 -1.000000000000000e+00
198 61 -1.000000000000000e+00
198 194 -1.000000000000000e+00
198 198 1.200000000000000e+01
199 116 -1.000000000000000e+00
199 139 -1.000000000000000e+00
199 140 -1.000000000000000e+00
199 149 -2.000000000000000e+00
199 199 1.200000000000000e+01
200 7 -1.000000000000000e+00
200 42 -1.000000000000000e+00
200 121 -1.000000000000000e+00
200 133 -1.000000000000000e+00
200 200 2.000000000000000e+01
201 1 -1.000000000000000e+00
201 7 -1.000000000000000e+00
201 157 -1.000000000000000e+00
201 201 1.800000000000000e+01
202 8 -1.000000000000000e+00
202 98 -1.000000000000000e+00
202 181 -2.000000000000000e+00
202 202 6.000000000000000e+00
203 85 -1.000000000000000e+00
203 94 -1.000000000000000e+00
203 97 -1.000000000000000e+00
203 203 9.000000000000000e+00
204 13 -1.000000000000000e+00
204 82 -1.000000000000000e+00
204 101 -2.000000000000000e+00
204 204 1.300000000000000e+01
205 9 -1.000000000000000e+00
205 96 -1.000000000000000e+00
205 118 -1.000000000000000e+00
205 205 1.200000000000000e+01
206 31 -1.000000000000000e+00
206 57 -1.000000000000000e+00
206 80 -1.000000000000000e+00
206 206 1.100000000000000e+01
207 13 -1.000000000000000e+00
207 31 -1.000000000000000e+00
207 49 -1.000000000000000e+00
207 82 -1.000000000000000e+00
207 207 1.700000000000000e+01
208 20 -1.000000000000000e+00
208 34 -1.000000000000000e+00
208 134 -1.000000000000000e+00
208 208 1.100000000000000e+01
209 25 -1.000000000000000e+00
209 131 -1.000000000000000e+00
209 145 -1.000000000000000e+00
209 209 1.900000000000000e+01
210 19 -1.000000000000000e+00
210 116 -1.000000000000000e+00
210 153 -1.000000000000000e+00
210 191 -1.000000000000000e+00
210 210 1.400000000000000e+01
211 6 -1.000000000000000e+00
211 74 -1.000000000000000e+00
211 145 -2.000000000000000e+00
211 211 6.000000000000000e+00
212 94 -1.000000000000000e+00
212 136 -1.000000000000000e+00
212 137 -1.000000000000000e+00
212 212 8.000000000000000e+00
213 10 -1.000000000000000e+00
213 133 -2.000000000000000e+00
213 200 -2.000000000000000e+00
213 213 5.000000000000000e+00
214 1 -1.000000000000000e+00
214 2 -1.000000000000000e+00
214 166 -1.000000000000000e+00
214 214 1.800000000000000e+01
215 35 -1.000000000000000e+00
215 105 -1.000000000000000e+00
215 129 -1.000000000000000e+00
215 215 1.400000000000000e+01
216 135 -1.000000000000000e+00
216 187 -1.000000000000000e+00
216 209 -1.000000000000000e+00
216 216 4.000000000000000e+00
217 5 -1.000000000000000e+00
217 78 -1.000000000000000e+00
217 170 -1.000000000000000e+00
217 217 8.000000000000000e+00
218 81 -1.000000000000000e+00
218 152 -1.000000000000000e+00
218 169 -1.000000000000000e+00
218 218 1.900000000000000e+01
219 13 -1.000000000000000e+00
219 30 -1.000000000000000e+00
219 118 -2.000000000000000e+00
219 136 -1.000000000000000e+00
219 219 1.100000000000000e+01
220 15 -1.000000000000000e+00
220 35 -1.000000000000000e+00
220 67 -1.000000000000000e+00
220 163 -2.000000000000000e+00
220 220 8.000000000000000e+00
221 47 -1.000000000000000e+00
221 100 -1.000000000000000e+00
221 135 -1.000000000000000e+00
221 221 1.100000000000000e+01
222 5 -1.000000000000000e+00
222 24 -1.000000000000000e+00
222 57 -1.000000000000000e+00
222 102 -1.000000000000000e+00
222 222 1.400000000000000e+01
223 5 -1.000000000000000e+00
223 32 -1.000000000000000e+00
223 132 -1.000000000000000e+00
223 196 -1.000000000000000e+00
223 223 1.700000000000000e+01
224 15 -1.000000000000000e+00
224 32 -1.000000000000000e+00
224 42 -1.000000000000000e+00
224 170 -1.000000000000000e+00
224 224 1.300000000000000e+01
225 5 -1.000000000000000e+00
225 26 -1.000000000000000e+00
225 102 -1.000000000000000e+00
225 161 -1.000000000000000e+00
225 222 -1.000000000000000e+00
225 225 1.200000000000000e+01
226 8 -1.000000000000000e+00
226 92 -2.000000000000000e+00
226 115 -1.000000000000000e+00
226 226 5.000000000000000e+00
227 6 -1.000000000000000e+00
227 51 -1.000000000000000e+00
227 52 -1.000000000000000e+00
227 115 -1.000000000000000e+00
227 227 1.000000000000000e+01
228 8 -1.000000000000000e+00
228 55 -2.000000000000000e+00
228 98 -2.000000000000000e+00
228 228 9.000000000000000e+00
229 31 -1.000000000000000e+00
229 82 -1.000000000000000e+00
229 147 -2.000000000000000e+00
229 229 1.600000000000000e+01
230 1 -1.000000000000000e+00
230 10 -2.000000000000000e+00
230 164 -1.000000000000000e+00
230 230 2.200000000000000e+01
231 21 -1.000000000000000e+00
231 23 -1.000000000000000e+00
231 80 -1.000000000000000e+00
231 218 -1.000000000000000e+00
231 231 2.600000000000000e+01
232 8 -1.000000000000000e+00
232 10 -2.000000000000000e+00
232 225 -1.000000000000000e+00
232 230 -1.000000000000000e+00
232 232 7.000000000000000e+00
233 8 -1.000000000000000e+00
233 14 -1.000000000000000e+00
233 17 -1.000000000000000e+00
233 32 -1.000000000000000e+00
233 35 -1.000000000000000e+00
233 233 1.100000000000000e+01
234 9 -1.000000000000000e+00
234 10 -1.000000000000000e+00
234 201 -1.000000000000000e+00
234 209 -1.000000000000000e+00
234 234 1.300000000000000e+01
235 4 -1.000000000000000e+00
235 32 -1.000000000000000e+00
235 34 -2.000000000000000e+00
235 235 1.500000000000000e+01
236 10 -1.000000000000000e+00
236 165 -1.000000000000000e+00
236 232 -1.000000000000000e+00
236 236 7.000000000000000e+00
237 10 -1.000000000000000e+00
237 72 -1.000000000000000e+00
237 162 -1.000000000000000e+00
237 196 -1.000000000000000e+00
237 230 -1.000000000000000e+00
237 237 1.000000000000000e+01
238 11 -1.000000000000000e+00
238 79 -1.000000000000000e+00
238 129 -2.000000000000000e+00
238 238 1.000000000000000e+01
239 10 -1.000000000000000e+00
239 74 -1.000000000000000e+00
239 210 -1.000000000000000e+00
239 239 2.300000000000000e+01
240 5 -1.000000000000000e+00
240 40 -1.000000000000000e+00
240 44 -1.000000000000000e+00
240 59 -1.000000000000000e+00
240 240 6.000000000000000e+00
241 12 -1.000000000000000e+00
241 71 -1.000000000000000e+00
241 110 -1.000000000000000e+00
241 201 -1.000000000000000e+00
241 241 1.500000000000000e+01
242 4 -1.000000000000000e+00
242 130 -1.000000000000000e+00
242 200 -1.000000000000000e+00
242 242 1.600000000000000e+01
243 29 -2.000000000000000e+00
243 56 -1.000000000000000e+00
243 71 -1.000000000000000e+00
243 108 -1.000000000000000e+00
243 243 1.700000000000000e+01
244 57 -1.000000000000000e+00
244 81 -2.000000000000000e+00
244 239 -1.000000000000000e+00
244 244 1.500000000000000e+01
245 5 -1.000000000000000e+00
245 38 -1.000000000000000e+00
245 86 -1.000000000000000e+00
245 241 -1.000000000000000e+00
245 245 8.000000000000000e+00
246 106 -1.000000000000000e+00
246 208 -1.000000000000000e+00
246 237 -1.000000000000000e+00
246 246 1.100000000000000e+01
247 6 -1.000000000000000e+00
247 11 -1.000000000000000e+00
247 161 -1.000000000000000e+00
247 162 -1.000000000000000e+00
247 247 1.300000000000000e+01
248 15 -1.000000000000000e+00
248 122 -1.000000000000000e+00
248 185 -1.000000000000000e+00
248 248 1.400000000000000e+01
249 27 -1.000000000000000e+00
249 60 -1.000000000000000e+00
249 229 -1.000000000000000e+00
249 249 8.000000000000000e+00
250 3 -1.000000000000000e+00
250 7 -1.000000000000000e+00
250 161 -1.000000000000000e+00
250 176 -1.000000000000000e+00
250 250 7.000000000000000e+00
251 6 -1.000000000000000e+00
251 92 -1.000000000000000e+00
251 137 -1.000000000000000e+00
251 251 8.000000000000000e+00
252 9 -1.000000000000000e+00
252 127 -1.000000000000000e+00
252 151 -1.000000000000000e+00
252 252 9.000000000000000e+00
253 86 -1.000000000000000e+00
253 160 -2.000000000000000e+00
253 220 -1.000000000000000e+00
253 253 1.600000000000000e+01
254 5 -1.000000000000000e+00
254 35 -1.000000000000000e+00
254 152 -1.000000000000000e+00
254 254 1.100000000000000e+01
255 37 -1.000000000000000e+00
255 107 -1.000000000000000e+00
255 115 -1.000000000000000e+00
255 152 -1.000000000000000e+00
255 255 1.300000000000000e+01
256 2 -1.000000000000000e+00
256 11 -2.000000000000000e+00
256 72 -1.000000000000000e+00
256 187 -1.000000000000000e+00
256 256 2.200000000000000e+01
257 14 -1.000000000000000e+00
257 152 -2.000000000000000e+00
257 155 -1.000000000000000e+00
257 162 -1.000000000000000e+00
257 257 1.000000000000000e+01
258 8 -1.000000000000000e+00
258 31 -1.000000000000000e+00
258 95 -1.000000000000000e+00
258 253 -1.000000000000000e+00
258 258 9.000000000000000e+00
259 5 -1.000000000000000e+00
259 33 -2.000000000000000e+00
259 87 -1.000000000000000e+00
259 148 -1.000000000000000e+00
259 259 1.300000000000000e+01
260 6 -1.000000000000000e+00
260 13 -1.000000000000000e+00
260 157 -1.000000000000000e+00
260 260 8.000000000000000e+00
261 157 -1.000000000000000e+00
261 162 -1.000000000000000e+00
261 198 -1.000000000000000e+00
261 261 9.000000000000000e+00
262 8 -1.000000000000000e+00
262 94 -1.000000000000000e+00
262 225 -1.000000000000000e+00
262 262 8.000000000000000e+00
263 13 -1.000000000000000e+00
263 85 -1.000000000000000e+00
263 118 -1.000000000000000e+00
263 172 -1.000000000000000e+00
263 263 1.700000000000000e+01
264 5 -1.000000000000000e+00
264 7 -1.000000000000000e+00
264 26 -1.000000000000000e+00
264 114 -1.000000000000000e+00
264 264 9.000000000000000e+00
265 4 -1.000000000000000e+00
265 6 -1.000000000000000e+00
265 75 -2.000000000000000e+00
265 125 -1.000000000000000e+00
265 265 8.000000000000000e+00
266 31 -1.000000000000000e+00
266 96 -1.000000000000000e+00
266 117 -1.000000000000000e+00
266 266 1.000000000000000e+01
267 13 -1.000000000000000e+00
267 56 -1.000000000000000e+00
267 193 -1.000000000000000e+00
267 267 1.400000000000000e+01
268 6 -1.000000000000000e+00
268 8 -1.000000000000000e+00
268 13 -1.000000000000000e+00
268 105 -1.000000000000000e+00
268 268 9.000000000000000e+00
269 6 -2.000000000000000e+00
269 15 -1.000000000000000e+00
269 249 -1.000000000000000e+00
269 269 8.000000000000000e+00
270 142 -1.000000000000000e+00
270 170 -1.000000000000000e+00
270 193 -1.000000000000000e+00
270 270 8.000000000000000e+00
271 5 -1.000000000000000e+00
271 239 -1.000000000000000e+00
271 262 -2.000000000000000e+00
271 271 9.000000000000000e+00
272 32 -2.000000000000000e+00
272 35 -1.000000000000000e+00
272 166 -1.000000000000000e+00
272 246 -1.000000000000000e+00
272 272 7.000000000000000e+00
273 9 -1.000000000000000e+00
273 156 -1.000000000000000e+00
273 171 -1.000000000000000e+00
273 273 1.300000000000000e+01
274 35 -1.000000000000000e+00
274 72 -1.000000000000000e+00
274 75 -1.000000000000000e+00
274 79 -1.000000000000000e+00
274 125 -1.000000000000000e+00
274 274 1.200000000000000e+01
275 4 -1.000000000000000e+00
275 35 -1.000000000000000e+00
275 59 -1.000000000000000e+00
275 275 8.000000000000000e+00
276 29 -1.000000000000000e+00
276 108 -2.000000000000000e+00
276 202 -1.000000000000000e+00
276 230 -1.000000000000000e+00
276 276 6.000000000000000e+00
277 14 -1.000000000000000e+00
277 129 -1.000000000000000e+00
277 165 -1.000000000000000e+00
277 192 -1.000000000000000e+00
277 277 1.000000000000000e+01
278 13 -1.000000000000000e+00
278 52 -1.000000000000000e+00
278 61 -1.000000000000000e+00
278 278 3.000000000000000e+00
279 116 -2.000000000000000e+00
279 191 -1.000000000000000e+00
279 258 -1.000000000000000e+00
279 279 1.100000000000000e+01
280 2 -2.000000000000000e+00
280 12 -1.000000000000000e+00
280 158 -1.000000000000000e+00
280 243 -1.000000000000000e+00
280 280 1.300000000000000e+01
281 70 -1.000000000000000e+00
281 89 -1.000000000000000e+00
281 108 -1.000000000000000e+00
281 281 5.000000000000000e+00
282 6 -1.000000000000000e+00
282 7 -1.000000000000000e+00
282 82 -1.000000000000000e+00
282 266 -1.000000000000000e+00
282 282 2.100000000000000e+01
283 44 -1.000000000000000e+00
283 45 -1.000000000000000e+00
283 69 -1.000000000000000e+00
283 111 -2.000000000000000e+00
283 283 6.000000000000000e+00
284 114 -1.000000000000000e+00
284 186 -1.000000000000000e+00
284 257 -1.000000000000000e+00
284 284 8.000000000000000e+00
285 11 -1.000000000000000e+00
285 23 -1.000000000000000e+00
285 239 -1.000000000000000e+00
285 285 3.000000000000000e+00
286 44 -1.000000000000000e+00
286 77 -1.000000000000000e+00
286 157 -2.000000000000000e+00
286 187 -1.000000000000000e+00
286 286 8.000000000000000e+00
287 14 -1.000000000000000e+00
287 92 -1.000000000000000e+00
287 118 -1.000000000000000e+00
287 190 -1.000000000000000e+00
287 287 1.100000000000000e+01
288 113 -2.000000000000000e+00
288 118 -1.000000000000000e+00
288 207 -1.000000000000000e+00
288 288 9.000000000000000e+00
289 28 -1.000000000000000e+00
289 31 -1.000000000000000e+00
289 100 -2.000000000000000e+00
289 118 -1.000000000000000e+00
289 289 7.000000000000000e+00
290 5 -1.000000000000000e+00
290 26 -1.000000000000000e+00
290 81 -1.000000000000000e+00
290 290 9.000000000000000e+00
291 7 -1.000000000000000e+00
291 46 -1.000000000000000e+00
291 75 -1.000000000000000e+00
291 291 5.000000000000000e+00
292 8 -1.000000000000000e+00
292 100 -1.000000000000000e+00
292 245 -1.000000000000000e+00
292 292 1.100000000000000e+01
293 4 -1.000000000000000e+00
293 13 -1.000000000000000e+00
293 19 -1.000000000000000e+00
293 28 -1.000000000000000e+00
293 97 -1.000000000000000e+00
293 293 6.000000000000000e+00
294 22 -2.000000000000000e+00
294 103 -1.000000000000000e+00
294 192 -1.000000000000000e+00
294 294 1.100000000000000e+01
295 4 -1.000000000000000e+00
295 130 -1.000000000000000e+00
295 221 -2.000000000000000e+00
295 295 6.000000000000001e+00
296 28 -1.000000000000000e+00
296 171 -1.000000000000000e+00
296 260 -1.000000000000000e+00
296 296 8.000000000000000e+00
297 6 -1.000000000000000e+00
297 89 -1.000000000000000e+00
297 199 -1.000000000000000e+00
297 297 1.900000000000000e+01
298 10 -1.000000000000000e+00
298 34 -1.000000000000000e+00
298 72 -1.000000000000000e+00
298 298 9.000000000000000e+00
299 21 -1.000000000000000e+00
299 66 -1.000000000000000e+00
299 117 -1.000000000000000e+00
299 299 3.000000000000000e+00
300 10 -1.000000000000000e+00
300 46 -1.000000000000000e+00
300 57 -1.000000000000000e+00
300 300 8.000000000000000e+00
301 5 -2.000000000000000e+00
301 42 -1.000000000000000e+00
301 284 -1.000000000000000e+00
301 301 9.000000000000000e+00
302 27 -1.000000000000000e+00
302 140 -1.000000000000000e+00
302 171 -1.000000000000000e+00
302 302 1.600000000000000e+01
303 11 -1.000000000000000e+00
303 200 -1.000000000000000e+00
303 218 -1.000000000000000e+00
303 298 -1.000000000000000e+00
303 303 8.000000000000000e+00
304 5 -2.000000000000000e+00
304 54 -1.000000000000000e+00
304 55 -1.000000000000000e+00
304 304 9.000000000000000e+00
305 9 -1.000000000000000e+00
305 107 -1.000000000000000e+00
305 128 -1.000000000000000e+00
305 280 -1.000000000000000e+00
305 305 1.800000000000000e+01
306 2 -1.000000000000000e+00
306 7 -1.000000000000000e+00
306 88 -1.000000000000000e+00
306 150 -1.000000000000000e+00
306 306 1.400000000000000e+01
307 34 -2.000000000000000e+00
307 78 -1.000000000000000e+00
307 235 -1.000000000000000e+00
307 264 -1.000000000000000e+00
307 307 9.000000000000000e+00
308 23 -1.000000000000000e+00
308 31 -1.000000000000000e+00
308 210 -1.000000000000000e+00
308 273 -1.000000000000000e+00
308 308 8.000000000000000e+00
309 9 -1.000000000000000e+00
309 105 -2.000000000000000e+00
309 268 -2.000000000000000e+00
309 309 5.000000000000000e+00
310 75 -1.000000000000000e+00
310 133 -1.000000000000000e+00
310 157 -1.000000000000000e+00
310 310 9.000000000000000e+00
311 6 -1.000000000000000e+00
311 139 -1.000000000000000e+00
311 297 -1.000000000000000e+00
311 311 1.200000000000000e+01
312 24 -1.000000000000000e+00
312 86 -1.000000000000000e+00
312 132 -1.000000000000000e+00
312 204 -1.000000000000000e+00
312 223 -1.000000000000000e+00
312 312 9.000000000000000e+00
313 24 -1.000000000000000e+00
313 194 -1.000000000000000e+00
313 215 -1.000000000000000e+00
313 313 1.500000000000000e+01
314 11 -1.000000000000000e+00
314 37 -1.000000000000000e+00
314 72 -1.000000000000000e+00
314 137 -1.000000000000000e+00
314 256 -1.000000000000000e+00
314 314 7.000000000000000e+00
315 5 -1.000000000000000e+00
315 7 -1.000000000000000e+00
315 74 -1.000000000000000e+00
315 217 -1.000000000000000e+00
315 315 1.500000000000000e+01
316 7 -1.000000000000000e+00
316 31 -2.000000000000000e+00
316 65 -1.000000000000000e+00
316 100 -1.000000000000000e+00
316 316 8.000000000000000e+00
317 31 -1.000000000000000e+00
317 57 -1.000000000000000e+00
317 85 -2.000000000000000e+00
317 263 -1.000000000000000e+00
317 317 1.300000000000000e+01
318 5 -2.000000000000000e+00
318 7 -1.000000000000000e+00
318 29 -1.000000000000000e+00
318 318 6.000000000000000e+00
319 4 -2.000000000000000e+00
319 8 -1.000000000000000e+00
319 28 -1.000000000000000e+00
319 47 -1.000000000000000e+00
319 319 1.100000000000000e+01
320 157 -1.000000000000000e+00
320 206 -2.000000000000000e+00
320 210 -1.000000000000000e+00
320 320 1.500000000000000e+01
321 9 -1.000000000000000e+00
321 11 -1.000000000000000e+00
321 35 -1.000000000000000e+00
321 321 1.100000000000000e+01
322 26 -1.000000000000000e+00
322 38 -1.000000000000000e+00
322 94 -1.000000000000000e+00
322 322 8.000000000000000e+00
323 100 -1.000000000000000e+00
323 101 -1.000000000000000e+00
323 199 -1.000000000000000e+00
323 204 -1.000000000000000e+00
323 243 -1.000000000000000e+00
323 323 9.000000000000000e+00
324 23 -1.000000000000000e+00
324 129 -1.000000000000000e+00
324 158 -1.000000000000000e+00
324 238 -2.000000000000000e+00
324 324 1.000000000000000e+01
325 7 -1.000000000000000e+00
325 8 -1.000000000000000e+00
325 83 -1.000000000000000e+00
325 325 1.300000000000000e+01
326 32 -1.000000000000000e+00
326 35 -2.000000000000000e+00
326 78 -1.000000000000000e+00
326 272 -1.000000000000000e+00
326 326 9.000000000000000e+00
327 13 -1.000000000000000e+00
327 118 -1.000000000000000e+00
327 147 -1.000000000000000e+00
327 229 -2.000000000000000e+00
327 327 8.000000000000000e+00
328 71 -1.000000000000000e+00
328 99 -1.000000000000000e+00
328 322 -1.000000000000000e+00
328 328 6.000000000000000e+00
329 37 -1.000000000000000e+00
329 80 -2.000000000000000e+00
329 164 -1.000000000000000e+00
329 189 -1.000000000000000e+00
329 329 7.000000000000000e+00
330 54 -1.000000000000000e+00
330 137 -1.000000000000000e+00
330 161 -1.000000000000000e+00
330 330 1.400000000000000e+01
331 52 -1.000000000000000e+00
331 94 -1.000000000000000e+00
331 157 -1.000000000000000e+00
331 331 3.000000000000000e+00
332 6 -2.000000000000000e+00
332 15 -1.000000000000000e+00
332 60 -1.000000000000000e+00
332 332 8.000000000000000e+00
333 82 -1.000000000000000e+00
333 108 -1.000000000000000e+00
333 274 -1.000000000000000e+00
333 333 7.000000000000000e+00
334 23 -1.000000000000000e+00
334 33 -1.000000000000000e+00
334 61 -1.000000000000000e+00
334 148 -1.000000000000000e+00
334 259 -1.000000000000000e+00
334 334 1.100000000000000e+01
335 7 -1.000000000000000e+00
335 82 -1.000000000000000e+00
335 102 -1.000000000000000e+00
335 153 -1.000000000000000e+00
335 335 2.000000000000000e+01
336 23 -1.000000000000000e+00
336 74 -1.000000000000000e+00
336 163 -1.000000000000000e+00
336 336 3.000000000000000e+00
337 46 -1.000000000000000e+00
337 61 -1.000000000000000e+00
337 70 -1.000000000000000e+00
337 107 -1.000000000000000e+00
337 242 -1.000000000000000e+00
337 337 7.000000000000000e+00
338 96 -1.000000000000000e+00
338 174 -1.000000000000000e+00
338 325 -2.000000000000000e+00
338 338 8.000000000000000e+00
339 47 -1.000000000000000e+00
339 71 -1.000000000000000e+00
339 172 -1.000000000000000e+00
339 339 6.000000000000000e+00
340 8 -1.000000000000000e+00
340 17 -1.000000000000000e+00
340 34 -1.000000000000000e+00
340 340 9.000000000000000e+00
341 8 -1.000000000000000e+00
341 197 -1.000000000000000e+00
341 254 -1.000000000000000e+00
341 307 -1.000000000000000e+00
341 341 1.200000000000000e+01
342 5 -1.000000000000000e+00
342 27 -1.000000000000000e+00
342 153 -2.000000000000000e+00
342 342 1.900000000000000e+01
343 5 -2.000000000000000e+00
343 12 -1.000000000000000e+00
343 43 -1.000000000000000e+00
343 343 8.000000000000000e+00
344 6 -1.000000000000000e+00
344 9 -1.000000000000000e+00
344 118 -1.000000000000000e+00
344 344 9.000000000000000e+00
345 7 -1.000000000000000e+00
345 13 -1.000000000000000e+00
345 297 -1.000000000000000e+00
345 345 9.000000000000000e+00
346 8 -1.000000000000000e+00
346 11 -1.000000000000000e+00
346 187 -2.000000000000000e+00
346 346 1.000000000000000e+01
347 7 -1.000000000000000e+00
347 123 -2.000000000000000e+00
347 137 -1.000000000000000e+00
347 305 -1.000000000000000e+00
347 347 8.000000000000000e+00
348 120 -1.000000000000000e+00
348 127 -1.000000000000000e+00
348 193 -2.000000000000000e+00
348 301 -1.000000000000000e+00
348 348 9.000000000000000e+00
349 4 -1.000000000000000e+00
349 324 -1.000000000000000e+00
349 339 -1.000000000000000e+00
349 349 4.000000000000000e+00
350 231 -1.000000000000000e+00
350 241 -1.000000000000000e+00
350 282 -1.000000000000000e+00
350 350 1.800000000000000e+01
351 5 -1.000000000000000e+00
351 8 -2.000000000000000e+00
351 113 -1.000000000000000e+00
351 351 6.000000000000000e+00
352 11 -1.000000000000000e+00
352 27 -2.000000000000000e+00
352 82 -1.000000000000000e+00
352 352 6.000000000000001e+00
353 17 -1.000000000000000e+00
353 192 -1.000000000000000e+00
353 200 -1.000000000000000e+00
353 206 -1.000000000000000e+00
353 320 -1.000000000000000e+00
353 353 8.000000000000000e+00
354 35 -1.000000000000000e+00
354 218 -2.000000000000000e+00
354 231 -1.000000000000000e+00
354 256 -1.000000000000000e+00
354 354 5.000000000000000e+00
355 26 -1.000000000000000e+00
355 116 -1.000000000000000e+00
355 170 -1.000000000000000e+00
355 224 -2.000000000000000e+00
355 355 6.000000000000000e+00
356 3 -1.000000000000000e+00
356 116 -2.000000000000000e+00
356 279 -2.000000000000000e+00
356 356 5.000000000000000e+00
357 8 -1.000000000000000e+00
357 11 -1.000000000000000e+00
357 157 -1.000000000000000e+00
357 357 7.000000000000000e+00
358 130 -1.000000000000000e+00
358 250 -1.000000000000000e+00
358 357 -2.000000000000000e+00
358 358 5.000000000000000e+00
359 5 -1.000000000000000e+00
359 30 -1.000000000000000e+00
359 118 -2.000000000000000e+00
359 305 -1.000000000000000e+00
359 359 8.000000000000000e+00
360 23 -1.000000000000000e+00
360 100 -1.000000000000000e+00
360 142 -2.000000000000000e+00
360 360 8.000000000000000e+00
361 200 -1.000000000000000e+00
361 218 -1.000000000000000e+00
361 334 -1.000000000000000e+00
361 350 -1.000000000000000e+00
361 361 1.100000000000000e+01
362 23 -2.000000000000000e+00
362 72 -1.000000000000000e+00
362 86 -1.000000000000000e+00
362 362 6.000000000000000e+00
363 3 -1.000000000000000e+00
363 7 -1.000000000000000e+00
363 57 -1.000000000000000e+00
363 209 -1.000000000000000e+00
363 363 7.000000000000000e+00
364 36 -1.000000000000000e+00
364 67 -1.000000000000000e+00
364 266 -1.000000000000000e+00
364 282 -2.000000000000000e+00
364 364 9.000000000000000e+00
365 4 -1.000000000000000e+00
365 6 -1.000000000000000e+00
365 57 -1.000000000000000e+00
365 365 5.000000000000000e+00
366 8 -1.000000000000000e+00
366 50 -1.000000000000000e+00
366 85 -1.000000000000000e+00
366 118 -1.000000000000000e+00
366 366 9.000000000000000e+00
367 108 -1.000000000000000e+00
367 190 -2.000000000000000e+00
367 287 -2.000000000000000e+00
367 367 7.000000000000000e+00
368 7 -1.000000000000000e+00
368 153 -1.000000000000000e+00
368 272 -1.000000000000000e+00
368 315 -1.000000000000000e+00
368 342 -1.000000000000000e+00
368 368 8.000000000000000e+00
369 9 -1.000000000000000e+00
369 75 -1.000000000000000e+00
369 102 -1.000000000000000e+00
369 125 -1.000000000000000e+00
369 265 -1.000000000000000e+00
369 369 8.000000000000000e+00
370 4 -2.000000000000000e+00
370 28 -1.000000000000000e+00
370 51 -1.000000000000000e+00
370 350 -1.000000000000000e+00
370 370 1.100000000000000e+01
371 10 -1.000000000000000e+00
371 67 -1.000000000000000e+00
371 92 -1.000000000000000e+00
371 163 -1.000000000000000e+00
371 192 -1.000000000000000e+00
371 371 7.000000000000000e+00
372 5 -1.000000000000000e+00
372 96 -1.000000000000000e+00
372 350 -1.000000000000000e+00
372 372 1.100000000000000e+01
373 49 -2.000000000000000e+00
373 174 -1.000000000000000e+00
373 207 -2.000000000000000e+00
373 373 5.000000000000000e+00
374 6 -1.000000000000000e+00
374 23 -1.000000000000000e+00
374 308 -1.000000000000000e+00
374 371 -1.000000000000000e+00
374 374 9.000000000000000e+00
375 230 -1.000000000000000e+00
375 239 -1.000000000000000e+00
375 334 -1.000000000000000e+00
375 375 7.000000000000001e+00
376 261 -2.000000000000000e+00
376 314 -1.000000000000000e+00
376 374 -1.000000000000000e+00
376 376 1.100000000000000e+01
377 57 -1.000000000000000e+00
377 132 -2.000000000000000e+00
377 223 -2.000000000000000e+00
377 377 5.000000000000000e+00
378 6 -1.000000000000000e+00
378 48 -1.000000000000000e+00
378 114 -1.000000000000000e+00
378 378 1.200000000000000e+01
379 33 -1.000000000000000e+00
379 47 -1.000000000000000e+00
379 52 -1.000000000000000e+00
379 135 -1.000000000000000e+00
379 326 -1.000000000000000e+00
379 379 6.000000000000000e+00
380 26 -1.000000000000000e+00
380 107 -1.000000000000000e+00
380 267 -2.000000000000000e+00
380 380 9.000000000000000e+00
381 27 -1.000000000000000e+00
381 46 -1.000000000000000e+00
381 153 -1.000000000000000e+00
381 381 3.000000000000000e+00
382 72 -1.000000000000000e+00
382 230 -1.000000000000000e+00
382 346 -1.000000000000000e+00
382 382 1.200000000000000e+01
383 9 -1.000000000000000e+00
383 57 -1.000000000000000e+00
383 273 -1.000000000000000e+00
383 304 -1.000000000000000e+00
383 383 1.300000000000000e+01
384 7 -1.000000000000000e+00
384 94 -1.000000000000000e+00
384 315 -1.000000000000000e+00
384 340 -1.000000000000000e+00
384 384 1.200000000000000e+01
385 1 -1.000000000000000e+00
385 48 -2.000000000000000e+00
385 68 -1.000000000000000e+00
385 283 -1.000000000000000e+00
385 385 8.000000000000000e+00
386 34 -1.000000000000000e+00
386 96 -1.000000000000000e+00
386 99 -1.000000000000000e+00
386 184 -1.000000000000000e+00
386 324 -1.000000000000000e+00
386 386 8.000000000000000e+00
387 55 -1.000000000000000e+00
387 58 -1.000000000000000e+00
387 59 -1.000000000000000e+00
387 387 4.000000000000000e+00
388 3 -1.000000000000000e+00
388 7 -1.000000000000000e+00
388 35 -1.000000000000000e+00
388 118 -1.000000000000000e+00
388 388 6.000000000000000e+00
389 4 -1.000000000000000e+00
389 28 -2.000000000000000e+00
389 207 -1.000000000000000e+00
389 242 -1.000000000000000e+00
389 389 5.000000000000000e+00
390 10 -1.000000000000000e+00
390 42 -1.000000000000000e+00
390 50 -2.000000000000000e+00
390 366 -1.000000000000000e+00
390 390 8.000000000000000e+00
391 10 -1.000000000000000e+00
391 51 -1.000000000000000e+00
391 65 -1.000000000000000e+00
391 391 1.000000000000000e+01
392 2 -1.000000000000000e+00
392 72 -1.000000000000000e+00
392 150 -1.000000000000000e+00
392 306 -2.000000000000000e+00
392 392 6.000000000000000e+00
393 23 -1.000000000000000e+00
393 45 -1.000000000000000e+00
393 111 -1.000000000000000e+00
393 117 -1.000000000000000e+00
393 134 -1.000000000000000e+00
393 393 1.000000000000000e+01
394 5 -2.000000000000000e+00
394 8 -1.000000000000000e+00
394 23 -1.000000000000000e+00
394 394 6.000000000000000e+00
395 82 -1.000000000000000e+00
395 248 -1.000000000000000e+00
395 259 -1.000000000000000e+00
395 395 1.300000000000000e+01
396 10 -1.000000000000000e+00
396 35 -1.000000000000000e+00
396 170 -2.000000000000000e+00
396 224 -1.000000000000000e+00
396 396 9.000000000000000e+00
397 42 -1.000000000000000e+00
397 239 -1.000000000000000e+00
397 366 -1.000000000000000e+00
397 397 3.000000000000000e+00
398 4 -1.000000000000000e+00
398 82 -1.000000000000000e+00
398 123 -1.000000000000000e+00
398 126 -1.000000000000000e+00
398 335 -1.000000000000000e+00
398 398 1.200000000000000e+01
399 23 -1.000000000000000e+00
399 57 -1.000000000000000e+00
399 75 -2.000000000000000e+00
399 125 -1.000000000000000e+00
399 399 1.000000000000000e+01
400 101 -1.000000000000000e+00
400 162 -1.000000000000000e+00
400 203 -1.000000000000000e+00
400 343 -1.000000000000000e+00
400 400 7.000000000000001e+00
401 46 -1.000000000000000e+00
401 317 -1.000000000000000e+00
401 318 -1.000000000000000e+00
401 401 8.000000000000000e+00
402 8 -2.000000000000000e+00
402 47 -1.000000000000000e+00
402 321 -1.000000000000000e+00
402 402 6.000000000000000e+00
403 5 -1.000000000000000e+00
403 7 -1.000000000000000e+00
403 57 -1.000000000000000e+00
403 111 -1.000000000000000e+00
403 403 1.000000000000000e+01
404 11 -1.000000000000000e+00
404 239 -2.000000000000000e+00
404 305 -1.000000000000000e+00
404 404 1.200000000000000e+01
405 20 -1.000000000000000e+00
405 174 -1.000000000000000e+00
405 293 -1.000000000000000e+00
405 405 4.000000000000000e+00
406 19 -1.000000000000000e+00
406 139 -2.000000000000000e+00
406 315 -1.000000000000000e+00
406 406 9.000000000000000e+00
407 76 -2.000000000000000e+00
407 184 -1.000000000000000e+00
407 266 -1.000000000000000e+00
407 333 -1.000000000000000e+00
407 407 1.000000000000000e+01
408 7 -1.000000000000000e+00
408 8 -1.000000000000000e+00
408 165 -1.000000000000000e+00
408 408 1.200000000000000e+01
409 27 -1.000000000000000e+00
409 55 -1.000000000000000e+00
409 98 -1.000000000000000e+00
409 170 -1.000000000000000e+00
409 205 -1.000000000000000e+00
409 409 7.000000000000000e+00
410 18 -1.000000000000000e+00
410 79 -1.000000000000000e+00
410 205 -1.000000000000000e+00
410 410 4.000000000000000e+00
411 6 -2.000000000000000e+00
411 9 -1.000000000000000e+00
411 42 -1.000000000000000e+00
411 411 9.000000000000000e+00
412 4 -1.000000000000000e+00
412 43 -1.000000000000000e+00
412 140 -1.000000000000000e+00
412 149 -2.000000000000000e+00
412 412 9.000000000000000e+00
413 5 -1.000000000000000e+00
413 95 -1.000000000000000e+00
413 153 -1.000000000000000e+00
413 244 -1.000000000000000e+00
413 413 1.000000000000000e+01
414 2 -1.000000000000000e+00
414 52 -1.000000000000000e+00
414 133 -1.000000000000000e+00
414 408 -1.000000000000000e+00
414 414 1.100000000000000e+01
415 5 -1.000000000000000e+00
415 30 -2.000000000000000e+00
415 118 -1.000000000000000e+00
415 214 -1.000000000000000e+00
415 415 6.000000000000000e+00
416 21 -1.000000000000000e+00
416 26 -1.000000000000000e+00
416 141 -1.000000000000000e+00
416 304 -1.000000000000000e+00
416 399 -1.000000000000000e+00
416 416 8.000000000000000e+00
417 65 -1.000000000000000e+00
417 93 -1.000000000000000e+00
417 220 -1.000000000000000e+00
417 417 4.000000000000000e+00
418 51 -1.000000000000000e+00
418 96 -1.000000000000000e+00
418 287 -1.000000000000000e+00
418 418 7.000000000000001e+00
419 7 -1.000000000000000e+00
419 21 -1.000000000000000e+00
419 123 -1.000000000000000e+00
419 419 1.200000000000000e+01
420 8 -1.000000000000000e+00
420 253 -1.000000000000000e+00
420 350 -1.000000000000000e+00
420 420 1.000000000000000e+01
421 28 -1.000000000000000e+00
421 63 -2.000000000000000e+00
421 346 -1.000000000000000e+00
421 421 5.000000000000000e+00
422 96 -1.000000000000000e+00
422 104 -1.000000000000000e+00
422 332 -1.000000000000000e+00
422 422 8.000000000000000e+00
423 4 -1.000000000000000e+00
423 82 -1.000000000000000e+00
423 323 -1.000000000000000e+00
423 423 1.100000000000000e+01
424 5 -1.000000000000000e+00
424 31 -1.000000000000000e+00
424 51 -1.000000000000000e+00
424 57 -1.000000000000000e+00
424 424 8.000000000000000e+00
425 4 -1.000000000000000e+00
425 7 -1.000000000000000e+00
425 96 -1.000000000000000e+00
425 99 -1.000000000000000e+00
425 253 -1.000000000000000e+00
425 425 1.000000000000000e+01
426 5 -1.000000000000000e+00
426 13 -1.000000000000000e+00
426 65 -1.000000000000000e+00
426 156 -1.000000000000000e+00
426 426 6.000000000000000e+00
427 4 -2.000000000000000e+00
427 8 -1.000000000000000e+00
427 28 -1.000000000000000e+00
427 184 -1.000000000000000e+00
427 427 5.000000000000000e+00
428 182 -1.000000000000000e+00
428 255 -1.000000000000000e+00
428 256 -1.000000000000000e+00
428 428 4.000000000000000e+00
429 57 -1.000000000000000e+00
429 114 -1.000000000000000e+00
429 257 -1.000000000000000e+00
429 429 5.000000000000000e+00
430 77 -1.000000000000000e+00
430 163 -1.000000000000000e+00
430 325 -1.000000000000000e+00
430 430 7.000000000000000e+00
431 5 -2.000000000000000e+00
431 59 -1.000000000000000e+00
431 426 -1.000000000000000e+00
431 431 8.000000000000000e+00
432 8 -1.000000000000000e+00
432 139 -1.000000000000000e+00
432 227 -1.000000000000000e+00
432 302 -1.000000000000000e+00
432 432 1.300000000000000e+01
433 4 -1.000000000000000e+00
433 19 -2.000000000000000e+00
433 320 -1.000000000000000e+00
433 433 1.000000000000000e+01
434 83 -1.000000000000000e+00
434 96 -1.000000000000000e+00
434 282 -1.000000000000000e+00
434 434 5.000000000000000e+00
435 7 -1.000000000000000e+00
435 34 -1.000000000000000e+00
435 145 -1.000000000000000e+00
435 211 -2.000000000000000e+00
435 435 5.000000000000000e+00
436 22 -2.000000000000000e+00
436 34 -1.000000000000000e+00
436 59 -1.000000000000000e+00
436 294 -1.000000000000000e+00
436 436 8.000000000000000e+00
437 10 -1.000000000000000e+00
437 20 -1.000000000000000e+00
437 96 -1.000000000000000e+00
437 370 -1.000000000000000e+00
437 437 1.100000000000000e+01
438 6 -2.000000000000000e+00
438 14 -1.000000000000000e+00
438 313 -1.000000000000000e+00
438 438 6.000000000000000e+00
439 81 -1.000000000000000e+00
439 372 -2.000000000000000e+00
439 404 -1.000000000000000e+00
439 439 1.100000000000000e+01
440 48 -2.000000000000000e+00
440 68 -1.000000000000000e+00
440 71 -1.000000000000000e+00
440 92 -1.000000000000000e+00
440 440 8.000000000000000e+00
441 15 -1.000000000000000e+00
441 51 -1.000000000000000e+00
441 60 -1.000000000000000e+00
441 282 -1.000000000000000e+00
441 325 -1.000000000000000e+00
441 441 8.000000000000000e+00
442 8 -1.000000000000000e+00
442 20 -1.000000000000000e+00
442 194 -1.000000000000000e+00
442 256 -1.000000000000000e+00
442 437 -1.000000000000000e+00
442 442 1.300000000000000e+01
443 6 -1.000000000000000e+00
443 306 -1.000000000000000e+00
443 307 -1.000000000000000e+00
443 443 4.000000000000000e+00
444 70 -1.000000000000000e+00
444 71 -1.000000000000000e+00
444 251 -1.000000000000000e+00
444 444 1.200000000000000e+01
445 70 -1.000000000000000e+00
445 254 -1.000000000000000e+00
445 375 -2.000000000000000e+00
445 445 1.300000000000000e+01
446 8 -1.000000000000000e+00
446 248 -1.000000000000000e+00
446 275 -2.000000000000000e+00
446 446 6.000000000000000e+00
447 7 -1.000000000000000e+00
447 8 -1.000000000000000e+00
447 133 -1.000000000000000e+00
447 273 -1.000000000000000e+00
447 383 -1.000000000000000e+00
447 447 9.000000000000000e+00
448 33 -1.000000000000000e+00
448 66 -1.000000000000000e+00
448 148 -2.000000000000000e+00
448 256 -1.000000000000000e+00
448 448 8.000000000000000e+00
449 194 -1.000000000000000e+00
449 411 -1.000000000000000e+00
449 440 -1.000000000000000e+00
449 449 4.000000000000000e+00
450 18 -1.000000000000000e+00
450 38 -1.000000000000000e+00
450 78 -1.000000000000000e+00
450 231 -1.000000000000000e+00
450 450 1.300000000000000e+01
451 89 -1.000000000000000e+00
451 124 -1.000000000000000e+00
451 207 -1.000000000000000e+00
451 451 1.700000000000000e+01
452 13 -1.000000000000000e+00
452 50 -1.000000000000000e+00
452 72 -1.000000000000000e+00
452 218 -1.000000000000000e+00
452 231 -1.000000000000000e+00
452 452 8.000000000000000e+00
453 6 -1.000000000000000e+00
453 8 -2.000000000000000e+00
453 11 -1.000000000000000e+00
453 453 7.000000000000000e+00
454 55 -1.000000000000000e+00
454 104 -1.000000000000000e+00
454 153 -2.000000000000000e+00
454 342 -1.000000000000000e+00
454 454 9.000000000000000e+00
455 5 -1.000000000000000e+00
455 102 -2.000000000000000e+00
455 222 -1.000000000000000e+00
455 410 -1.000000000000000e+00
455 455 9.000000000000000e+00
456 2 -1.000000000000000e+00
456 87 -1.000000000000000e+00
456 92 -1.000000000000000e+00
456 372 -1.000000000000000e+00
456 456 1.200000000000000e+01
457 4 -1.000000000000000e+00
457 5 -1.000000000000000e+00
457 21 -2.000000000000000e+00
457 141 -1.000000000000000e+00
457 457 8.000000000000000e+00
458 1 -1.000000000000000e+00
458 93 -2.000000000000000e+00
458 186 -1.000000000000000e+00
458 248 -1.000000000000000e+00
458 458 7.000000000000000e+00
459 62 -1.000000000000000e+00
459 161 -1.000000000000000e+00
459 405 -1.000000000000000e+00
459 459 3.000000000000000e+00
460 14 -1.000000000000000e+00
460 122 -1.000000000000000e+00
460 165 -2.000000000000000e+00
460 185 -1.000000000000000e+00
460 460 5.000000000000000e+00
461 7 -1.000000000000000e+00
461 13 -1.000000000000000e+00
461 39 -1.000000000000000e+00
461 51 -1.000000000000000e+00
461 90 -1.000000000000000e+00
461 461 1.100000000000000e+01
462 7 -1.000000000000000e+00
462 57 -1.000000000000000e+00
462 81 -1.000000000000000e+00
462 462 3.000000000000000e+00
463 123 -1.000000000000000e+00
463 137 -2.000000000000000e+00
463 157 -1.000000000000000e+00
463 189 -1.000000000000000e+00
463 463 5.000000000000000e+00
464 11 -1.000000000000000e+00
464 27 -1.000000000000000e+00
464 72 -2.000000000000000e+00
464 256 -1.000000000000000e+00
464 464 1.000000000000000e+01
465 13 -1.000000000000000e+00
465 312 -1.000000000000000e+00
465 347 -1.000000000000000e+00
465 465 5.000000000000000e+00
466 33 -1.000000000000000e+00
466 423 -1.000000000000000e+00
466 453 -1.000000000000000e+00
466 466 7.000000000000000e+00
467 30 -1.000000000000000e+00
467 118 -1.000000000000000e+00
467 209 -1.000000000000000e+00
467 316 -1.000000000000000e+00
467 359 -1.000000000000000e+00
467 467 5.000000000000000e+00
468 6 -1.000000000000000e+00
468 45 -1.000000000000000e+00
468 246 -1.000000000000000e+00
468 307 -1.000000000000000e+00
468 468 1.100000000000000e+01
469 61 -2.000000000000000e+00
469 70 -1.000000000000000e+00
469 130 -1.000000000000000e+00
469 330 -1.000000000000000e+00
469 469 5.000000000000000e+00
470 77 -1.000000000000000e+00
470 306 -1.000000000000000e+00
470 338 -1.000000000000000e+00
470 470 3.000000000000000e+00
471 1 -2.000000000000000e+00
471 9 -1.000000000000000e+00
471 138 -1.000000000000000e+00
471 223 -1.000000000000000e+00
471 471 7.000000000000000e+00
472 12 -1.000000000000000e+00
472 21 -1.000000000000000e+00
472 48 -1.000000000000000e+00
472 472 9.000000000000000e+00
473 77 -1.000000000000000e+00
473 82 -1.000000000000000e+00
473 191 -1.000000000000000e+00
473 473 3.000000000000000e+00
474 48 -2.000000000000000e+00
474 59 -1.000000000000000e+00
474 68 -1.000000000000000e+00
474 403 -1.000000000000000e+00
474 474 7.000000000000000e+00
475 114 -1.000000000000000e+00
475 225 -1.000000000000000e+00
475 411 -1.000000000000000e+00
475 475 7.000000000000001e+00
476 118 -1.000000000000000e+00
476 313 -1.000000000000000e+00
476 324 -1.000000000000000e+00
476 476 1.100000000000000e+01
477 67 -1.000000000000000e+00
477 71 -1.000000000000000e+00
477 163 -1.000000000000000e+00
477 220 -1.000000000000000e+00
477 297 -1.000000000000000e+00
477 477 5.000000000000000e+00
478 43 -1.000000000000000e+00
478 78 -1.000000000000000e+00
478 256 -1.000000000000000e+00
478 450 -2.000000000000000e+00
478 478 6.000000000000000e+00
479 90 -1.000000000000000e+00
479 107 -1.000000000000000e+00
479 150 -1.000000000000000e+00
479 297 -1.000000000000000e+00
479 479 1.100000000000000e+01
480 77 -1.000000000000000e+00
480 86 -1.000000000000000e+00
480 159 -2.000000000000000e+00
480 480 9.000000000000000e+00
481 32 -1.000000000000000e+00
481 108 -1.000000000000000e+00
481 313 -1.000000000000000e+00
481 481 3.000000000000000e+00
482 68 -1.000000000000000e+00
482 78 -1.000000000000000e+00
482 287 -1.000000000000000e+00
482 482 7.000000000000000e+00
483 1 -1.000000000000000e+00
483 78 -1.000000000000000e+00
483 221 -1.000000000000000e+00
483 483 1.500000000000000e+01
484 46 -1.000000000000000e+00
484 86 -1.000000000000000e+00
484 205 -1.000000000000000e+00
484 259 -1.000000000000000e+00
484 484 1.000000000000000e+01
485 49 -1.000000000000000e+00
485 327 -1.000000000000000e+00
485 472 -2.000000000000000e+00
485 485 1.000000000000000e+01
486 4 -1.000000000000000e+00
486 9 -1.000000000000000e+00
486 67 -1.000000000000000e+00
486 486 3.000000000000000e+00
487 31 -1.000000000000000e+00
487 69 -1.000000000000000e+00
487 298 -1.000000000000000e+00
487 487 1.200000000000000e+01
488 44 -1.000000000000000e+00
488 92 -1.000000000000000e+00
488 273 -1.000000000000000e+00
488 383 -2.000000000000000e+00
488 488 1.100000000000000e+01
489 55 -1.000000000000000e+00
489 82 -1.000000000000000e+00
489 239 -2.000000000000000e+00
489 404 -1.000000000000000e+00
489 489 8.000000000000000e+00
490 7 -1.000000000000000e+00
490 8 -1.000000000000000e+00
490 114 -1.000000000000000e+00
490 490 3.000000000000000e+00
491 39 -1.000000000000000e+00
491 86 -1.000000000000000e+00
491 93 -1.000000000000000e+00
491 292 -1.000000000000000e+00
491 491 1.400000000000000e+01
492 3 -1.000000000000000e+00
492 7 -1.000000000000000e+00
492 28 -1.000000000000000e+00
492 413 -1.000000000000000e+00
492 492 5.000000000000000e+00
493 5 -2.000000000000000e+00
493 57 -1.000000000000000e+00
493 74 -1.000000000000000e+00
493 493 5.000000000000000e+00
494 13 -1.000000000000000e+00
494 82 -1.000000000000000e+00
494 231 -1.000000000000000e+00
494 335 -1.000000000000000e+00
494 398 -1.000000000000000e+00
494 494 1.200000000000000e+01
495 13 -2.000000000000000e+00
495 51 -1.000000000000000e+00
495 109 -1.000000000000000e+00
495 274 -1.000000000000000e+00
495 495 6.000000000000000e+00
496 9 -1.000000000000000e+00
496 29 -1.000000000000000e+00
496 77 -1.000000000000000e+00
496 496 7.000000000000000e+00
497 77 -1.000000000000000e+00
497 110 -1.000000000000000e+00
497 241 -1.000000000000000e+00
497 254 -1.000000000000000e+00
497 383 -1.000000000000000e+00
497 497 9.000000000000000e+00
498 15 -1.000000000000000e+00
498 35 -1.000000000000000e+00
498 395 -2.000000000000000e+00
498 498 8.000000000000000e+00
499 11 -1.000000000000000e+00
499 72 -1.000000000000000e+00
499 256 -1.000000000000000e+00
499 296 -1.000000000000000e+00
499 386 -1.000000000000000e+00
499 499 5.000000000000000e+00
500 422 -2.000000000000000e+00
500 442 -1.000000000000000e+00
500 464 -1.000000000000000e+00
500 500 8.000000000000000e+00
501 21 -1.000000000000000e+00
501 315 -1.000000000000000e+00
501 419 -1.000000000000000e+00
501 501 3.000000000000000e+00
502 11 -1.000000000000000e+00
502 71 -1.000000000000000e+00
502 186 -1.000000000000000e+00
502 502 5.000000000000000e+00
503 17 -1.000000000000000e+00
503 23 -1.000000000000000e+00
503 190 -2.000000000000000e+00
503 287 -1.000000000000000e+00
503 503 6.000000000000000e+00
504 214 -1.000000000000000e+00
504 235 -1.000000000000000e+00
504 483 -1.000000000000000e+00
504 504 4.000000000000000e+00
505 6 -1.000000000000000e+00
505 127 -1.000000000000000e+00
505 243 -1.000000000000000e+00
505 313 -1.000000000000000e+00
505 505 1.300000000000000e+01
506 101 -1.000000000000000e+00
506 390 -1.000000000000000e+00
506 452 -1.000000000000000e+00
506 506 6.000000000000000e+00
507 13 -1.000000000000000e+00
507 51 -2.000000000000000e+00
507 100 -1.000000000000000e+00
507 277 -1.000000000000000e+00
507 507 8.000000000000000e+00
508 24 -1.000000000000000e+00
508 59 -1.000000000000000e+00
508 66 -2.000000000000000e+00
508 508 9.000000000000000e+00
509 85 -1.000000000000000e+00
509 150 -1.000000000000000e+00
509 260 -2.000000000000000e+00
509 509 6.000000000000000e+00
510 236 -1.000000000000000e+00
510 290 -2.000000000000000e+00
510 313 -1.000000000000000e+00
510 510 9.000000000000000e+00
511 8 -2.000000000000000e+00
511 216 -1.000000000000000e+00
511 256 -1.000000000000000e+00
511 511 8.000000000000000e+00
512 5 -1.000000000000000e+00
512 51 -1.000000000000000e+00
512 496 -1.000000000000000e+00
512 512 4.000000000000000e+00
513 9 -1.000000000000000e+00
513 39 -1.000000000000000e+00
513 61 -1.000000000000000e+00
513 513 9.000000000000000e+00
514 8 -2.000000000000000e+00
514 44 -1.000000000000000e+00
514 425 -1.000000000000000e+00
514 514 6.000000000000000e+00
515 27 -1.000000000000000e+00
515 37 -2.000000000000000e+00
515 59 -1.000000000000000e+00
515 255 -1.000000000000000e+00
515 515 5.000000000000000e+00
516 88 -1.000000000000000e+00
516 189 -1.000000000000000e+00
516 239 -1.000000000000000e+00
516 404 -1.000000000000000e+00
516 455 -1.000000000000000e+00
516 516 7.000000000000000e+00
517 13 -1.000000000000000e+00
517 19 -1.000000000000000e+00
517 96 -1.000000000000000e+00
517 335 -1.000000000000000e+00
517 433 -1.000000000000000e+00
517 517 9.000000000000000e+00
518 135 -2.000000000000000e+00
518 286 -1.000000000000000e+00
518 305 -1.000000000000000e+00
518 518 1.000000000000000e+01
519 81 -1.000000000000000e+00
519 123 -1.000000000000000e+00
519 353 -1.000000000000000e+00
519 519 3.000000000000000e+00
520 79 -2.000000000000000e+00
520 199 -1.000000000000000e+00
520 239 -1.000000000000000e+00
520 520 1.300000000000000e+01
521 18 -1.000000000000000e+00
521 159 -1.000000000000000e+00
521 316 -1.000000000000000e+00
521 466 -1.000000000000000e+00
521 521 9.000000000000000e+00
522 163 -1.000000000000000e+00
522 363 -1.000000000000000e+00
522 408 -2.000000000000000e+00
522 414 -1.000000000000000e+00
522 522 1.400000000000000e+01
523 4 -1.000000000000000e+00
523 62 -2.000000000000000e+00
523 166 -1.000000000000000e+00
523 214 -1.000000000000000e+00
523 523 7.000000000000000e+00
524 153 -1.000000000000000e+00
524 154 -1.000000000000000e+00
524 273 -1.000000000000000e+00
524 524 4.000000000000000e+00
525 6 -1.000000000000000e+00
525 7 -1.000000000000000e+00
525 143 -1.000000000000000e+00
525 525 4.000000000000000e+00
526 97 -1.000000000000000e+00
526 140 -2.000000000000000e+00
526 149 -1.000000000000000e+00
526 209 -1.000000000000000e+00
526 526 1.000000000000000e+01
527 16 -1.000000000000000e+00
527 201 -1.000000000000000e+00
527 525 -1.000000000000000e+00
527 527 7.000000000000000e+00
528 6 -2.000000000000000e+00
528 85 -1.000000000000000e+00
528 227 -1.000000000000000e+00
528 528 5.000000000000000e+00
529 297 -1.000000000000000e+00
529 343 -1.000000000000000e+00
529 513 -1.000000000000000e+00
529 529 1.100000000000000e+01
530 6 -1.000000000000000e+00
530 85 -1.000000000000000e+00
530 123 -1.000000000000000e+00
530 263 -2.000000000000000e+00
530 530 7.000000000000000e+00
531 46 -1.000000000000000e+00
531 95 -1.000000000000000e+00
531 124 -1.000000000000000e+00
531 367 -1.000000000000000e+00
531 531 1.100000000000000e+01
532 48 -1.000000000000000e+00
532 122 -1.000000000000000e+00
532 345 -2.000000000000000e+00
532 532 7.000000000000001e+00
533 20 -1.000000000000000e+00
533 35 -1.000000000000000e+00
533 46 -1.000000000000000e+00
533 245 -1.000000000000000e+00
533 533 8.000000000000000e+00
534 5 -1.000000000000000e+00
534 32 -1.000000000000000e+00
534 301 -1.000000000000000e+00
534 510 -1.000000000000000e+00
534 534 7.000000000000000e+00
535 5 -2.000000000000000e+00
535 16 -1.000000000000000e+00
535 317 -1.000000000000000e+00
535 535 9.000000000000000e+00
536 42 -1.000000000000000e+00
536 89 -2.000000000000000e+00
536 217 -1.000000000000000e+00
536 536 6.000000000000001e+00
537 2 -1.000000000000000e+00
537 248 -2.000000000000000e+00
537 383 -1.000000000000000e+00
537 537 5.000000000000000e+00
538 28 -1.000000000000000e+00
538 201 -1.000000000000000e+00
538 282 -1.000000000000000e+00
538 538 4.000000000000000e+00
539 6 -1.000000000000000e+00
539 82 -1.000000000000000e+00
539 280 -1.000000000000000e+00
539 539 5.000000000000000e+00
540 98 -1.000000000000000e+00
540 225 -1.000000000000000e+00
540 425 -1.000000000000000e+00
540 540 1.300000000000000e+01
541 5 -1.000000000000000e+00
541 48 -1.000000000000000e+00
541 68 -1.000000000000000e+00
541 137 -1.000000000000000e+00
541 474 -1.000000000000000e+00
541 541 6.000000000000000e+00
542 27 -1.000000000000000e+00
542 35 -1.000000000000000e+00
542 47 -1.000000000000000e+00
542 52 -2.000000000000000e+00
542 542 7.000000000000000e+00
543 5 -2.000000000000000e+00
543 11 -1.000000000000000e+00
543 315 -1.000000000000000e+00
543 543 5.000000000000000e+00
544 5 -1.000000000000000e+00
544 57 -1.000000000000000e+00
544 192 -1.000000000000000e+00
544 361 -1.000000000000000e+00
544 544 7.000000000000000e+00
545 9 -1.000000000000000e+00
545 79 -1.000000000000000e+00
545 215 -2.000000000000000e+00
545 545 1.300000000000000e+01
546 13 -1.000000000000000e+00
546 80 -2.000000000000000e+00
546 164 -1.000000000000000e+00
546 235 -1.000000000000000e+00
546 546 5.000000000000000e+00
547 34 -2.000000000000000e+00
547 118 -1.000000000000000e+00
547 235 -1.000000000000000e+00
547 535 -1.000000000000000e+00
547 547 1.400000000000000e+01
548 27 -1.000000000000000e+00
548 59 -1.000000000000000e+00
548 81 -2.000000000000000e+00
548 244 -1.000000000000000e+00
548 548 6.000000000000000e+00
549 5 -2.000000000000000e+00
549 82 -1.000000000000000e+00
549 118 -1.000000000000000e+00
549 549 6.000000000000000e+00
550 39 -1.000000000000000e+00
550 242 -1.000000000000000e+00
550 243 -1.000000000000000e+00
550 491 -1.000000000000000e+00
550 533 -1.000000000000000e+00
550 550 8.000000000000000e+00
551 104 -1.000000000000000e+00
551 444 -1.000000000000000e+00
551 500 -1.000000000000000e+00
551 551 3.000000000000000e+00
552 27 -1.000000000000000e+00
552 70 -1.000000000000000e+00
552 103 -1.000000000000000e+00
552 552 3.000000000000000e+00
553 21 -2.000000000000000e+00
553 138 -1.000000000000000e+00
553 141 -1.000000000000000e+00
553 178 -1.000000000000000e+00
553 553 5.000000000000000e+00
554 3 -1.000000000000000e+00
554 5 -1.000000000000000e+00
554 7 -1.000000000000000e+00
554 522 -1.000000000000000e+00
554 554 6.000000000000000e+00
555 31 -1.000000000000000e+00
555 207 -1.000000000000000e+00
555 363 -1.000000000000000e+00
555 555 3.000000000000000e+00
556 124 -2.000000000000000e+00
556 432 -1.000000000000000e+00
556 531 -2.000000000000000e+00
556 556 6.000000000000000e+00
557 254 -2.000000000000000e+00
557 320 -1.000000000000000e+00
557 353 -1.000000000000000e+00
557 557 1.100000000000000e+01
558 388 -1.000000000000000e+00
558 399 -1.000000000000000e+00
558 522 -1.000000000000000e+00
558 558 4.000000000000000e+00
559 133 -1.000000000000000e+00
559 207 -1.000000000000000e+00
559 468 -1.000000000000000e+00
559 559 6.000000000000000e+00
560 20 -1.000000000000000e+00
560 325 -1.000000000000000e+00
560 437 -2.000000000000000e+00
560 442 -1.000000000000000e+00
560 560 5.000000000000000e+00
561 79 -1.000000000000000e+00
561 139 -1.000000000000000e+00
561 219 -1.000000000000000e+00
561 224 -1.000000000000000e+00
561 520 -1.000000000000000e+00
561 561 9.000000000000000e+00
562 17 -1.000000000000000e+00
562 50 -1.000000000000000e+00
562 54 -1.000000000000000e+00
562 562 1.100000000000000e+01
563 34 -1.000000000000000e+00
563 238 -1.000000000000000e+00
563 305 -1.000000000000000e+00
563 563 6.000000000000000e+00
564 191 -2.000000000000000e+00
564 210 -2.000000000000000e+00
564 547 -1.000000000000000e+00
564 564 6.000000000000000e+00
565 17 -1.000000000000000e+00
565 26 -1.000000000000000e+00
565 40 -1.000000000000000e+00
565 81 -1.000000000000000e+00
565 407 -1.000000000000000e+00
565 565 7.000000000000000e+00
566 54 -1.000000000000000e+00
566 215 -1.000000000000000e+00
566 231 -1.000000000000000e+00
566 566 3.000000000000000e+00
567 29 -1.000000000000000e+00
567 47 -1.000000000000000e+00
567 312 -1.000000000000000e+00
567 567 8.000000000000000e+00
568 37 -1.000000000000000e+00
568 42 -1.000000000000000e+00
568 199 -1.000000000000000e+00
568 255 -2.000000000000000e+00
568 568 8.000000000000000e+00
569 13 -1.000000000000000e+00
569 65 -1.000000000000000e+00
569 251 -2.000000000000000e+00
569 569 7.000000000000000e+00
570 241 -1.000000000000000e+00
570 409 -1.000000000000000e+00
570 423 -2.000000000000000e+00
570 570 5.000000000000000e+00
571 96 -2.000000000000000e+00
571 99 -1.000000000000000e+00
571 101 -1.000000000000000e+00
571 319 -1.000000000000000e+00
571 571 8.000000000000000e+00
572 24 -2.000000000000000e+00
572 72 -1.000000000000000e+00
572 88 -1.000000000000000e+00
572 544 -1.000000000000000e+00
572 572 9.000000000000000e+00
573 2 -1.000000000000000e+00
573 124 -1.000000000000000e+00
573 297 -1.000000000000000e+00
573 531 -1.000000000000000e+00
573 556 -1.000000000000000e+00
573 573 5.000000000000000e+00
574 5 -1.000000000000000e+00
574 23 -1.000000000000000e+00
574 132 -1.000000000000000e+00
574 448 -1.000000000000000e+00
574 574 8.000000000000000e+00
575 32 -1.000000000000000e+00
575 65 -1.000000000000000e+00
575 328 -1.000000000000000e+00
575 575 7.000000000000000e+00
576 7 -1.000000000000000e+00
576 11 -1.000000000000000e+00
576 39 -1.000000000000000e+00
576 106 -1.000000000000000e+00
576 491 -1.000000000000000e+00
576 576 8.000000000000000e+00
577 74 -1.000000000000000e+00
577 311 -2.000000000000000e+00
577 557 -1.000000000000000e+00
577 577 7.000000000000001e+00
578 79 -1.000000000000000e+00
578 491 -1.000000000000000e+00
578 575 -2.000000000000000e+00
578 578 8.000000000000000e+00
579 61 -2.000000000000000e+00
579 70 -2.000000000000000e+00
579 127 -1.000000000000000e+00
579 579 5.000000000000000e+00
580 30 -1.000000000000000e+00
580 98 -1.000000000000000e+00
580 121 -2.000000000000000e+00
580 580 1.300000000000000e+01
581 298 -2.000000000000000e+00
581 302 -1.000000000000000e+00
581 303 -2.000000000000000e+00
581 581 7.000000000000000e+00
582 350 -2.000000000000000e+00
582 360 -1.000000000000000e+00
582 361 -2.000000000000000e+00
582 582 6.000000000000000e+00
583 8 -2.000000000000000e+00
583 151 -1.000000000000000e+00
583 258 -1.000000000000000e+00
583 583 6.000000000000000e+00
584 8 -1.000000000000000e+00
584 44 -2.000000000000000e+00
584 49 -1.000000000000000e+00
584 157 -1.000000000000000e+00
584 584 5.000000000000000e+00
585 234 -1.000000000000000e+00
585 345 -1.000000000000000e+00
585 359 -1.000000000000000e+00
585 532 -2.000000000000000e+00
585 585 6.000000000000000e+00
586 39 -1.000000000000000e+00
586 43 -1.000000000000000e+00
586 262 -1.000000000000000e+00
586 271 -1.000000000000000e+00
586 542 -1.000000000000000e+00
586 586 6.000000000000000e+00
587 8 -1.000000000000000e+00
587 254 -1.000000000000000e+00
587 434 -1.000000000000000e+00
587 445 -1.000000000000000e+00
587 557 -1.000000000000000e+00
587 587 6.000000000000000e+00
588 48 -2.000000000000000e+00
588 68 -2.000000000000000e+00
588 82 -1.000000000000000e+00
588 588 6.000000000000000e+00
589 209 -1.000000000000000e+00
589 267 -1.000000000000000e+00
589 384 -1.000000000000000e+00
589 589 3.000000000000000e+00
590 27 -1.000000000000000e+00
590 35 -1.000000000000000e+00
590 197 -2.000000000000000e+00
590 341 -1.000000000000000e+00
590 590 6.000000000000000e+00
591 13 -1.000000000000000e+00
591 30 -1.000000000000000e+00
591 152 -1.000000000000000e+00
591 155 -1.000000000000000e+00
591 359 -1.000000000000000e+00
591 591 1.100000000000000e+01
592 59 -1.000000000000000e+00
592 106 -2.000000000000000e+00
592 231 -1.000000000000000e+00
592 592 5.000000000000000e+00
593 4 -1.000000000000000e+00
593 100 -1.000000000000000e+00
593 401 -1.000000000000000e+00
593 593 9.000000000000000e+00
594 215 -2.000000000000000e+00
594 242 -1.000000000000000e+00
594 451 -1.000000000000000e+00
594 545 -1.000000000000000e+00
594 594 6.000000000000000e+00
595 271 -1.000000000000000e+00
595 372 -2.000000000000000e+00
595 439 -1.000000000000000e+00
595 480 -1.000000000000000e+00
595 595 5.000000000000000e+00
596 19 -1.000000000000000e+00
596 205 -1.000000000000000e+00
596 487 -1.000000000000000e+00
596 596 3.000000000000000e+00
597 61 -2.000000000000000e+00
597 70 -1.000000000000000e+00
597 129 -1.000000000000000e+00
597 385 -1.000000000000000e+00
597 597 9.000000000000000e+00
598 34 -1.000000000000000e+00
598 162 -1.000000000000000e+00
598 192 -1.000000000000000e+00
598 235 -1.000000000000000e+00
598 307 -1.000000000000000e+00
598 598 5.000000000000000e+00
599 20 -1.000000000000000e+00
599 55 -1.000000000000000e+00
599 468 -1.000000000000000e+00
599 599 5.000000000000000e+00
600 7 -1.000000000000000e+00
600 483 -1.000000000000000e+00
600 529 -1.000000000000000e+00
600 569 -1.000000000000000e+00
600 600 1.400000000000000e+01
601 1 -1.000000000000000e+00
601 24 -1.000000000000000e+00
601 138 -1.000000000000000e+00
601 209 -1.000000000000000e+00
601 471 -1.000000000000000e+00
601 601 5.000000000000000e+00
602 67 -1.000000000000000e+00
602 70 -1.000000000000000e+00
602 461 -1.000000000000000e+00
602 602 8.000000000000000e+00
603 97 -1.000000000000000e+00
603 113 -2.000000000000000e+00
603 137 -1.000000000000000e+00
603 288 -1.000000000000000e+00
603 603 5.000000000000000e+00
604 8 -2.000000000000000e+00
604 214 -1.000000000000000e+00
604 251 -1.000000000000000e+00
604 604 6.000000000000000e+00
605 15 -2.000000000000000e+00
605 17 -1.000000000000000e+00
605 60 -1.000000000000000e+00
605 196 -1.000000000000000e+00
605 605 5.000000000000000e+00
606 121 -2.000000000000000e+00
606 201 -1.000000000000000e+00
606 335 -1.000000000000000e+00
606 580 -1.000000000000000e+00
606 606 7.000000000000000e+00
607 97 -1.000000000000000e+00
607 109 -1.000000000000000e+00
607 158 -1.000000000000000e+00
607 419 -1.000000000000000e+00
607 607 9.000000000000000e+00
608 30 -1.000000000000000e+00
608 56 -1.000000000000000e+00
608 205 -2.000000000000000e+00
608 484 -1.000000000000000e+00
608 608 5.000000000000000e+00
609 5 -2.000000000000000e+00
609 52 -1.000000000000000e+00
609 350 -1.000000000000000e+00
609 609 5.000000000000000e+00
610 6 -2.000000000000000e+00
610 96 -1.000000000000000e+00
610 132 -1.000000000000000e+00
610 610 5.000000000000000e+00
611 16 -1.000000000000000e+00
611 59 -1.000000000000000e+00
611 109 -1.000000000000000e+00
611 209 -1.000000000000000e+00
611 611 9.000000000000000e+00
612 29 -1.000000000000000e+00
612 233 -1.000000000000000e+00
612 455 -1.000000000000000e+00
612 612 6.000000000000000e+00
613 201 -1.000000000000000e+00
613 425 -1.000000000000000e+00
613 461 -1.000000000000000e+00
613 613 1.300000000000000e+01
614 23 -1.000000000000000e+00
614 157 -1.000000000000000e+00
614 411 -1.000000000000000e+00
614 614 3.000000000000000e+00
615 8 -1.000000000000000e+00
615 38 -1.000000000000000e+00
615 114 -1.000000000000000e+00
615 615 3.000000000000000e+00
616 263 -1.000000000000000e+00
616 476 -1.000000000000000e+00
616 571 -1.000000000000000e+00
616 616 8.000000000000000e+00
617 17 -1.000000000000000e+00
617 124 -1.000000000000000e+00
617 325 -2.000000000000000e+00
617 338 -1.000000000000000e+00
617 617 8.000000000000000e+00
618 33 -1.000000000000000e+00
618 77 -1.000000000000000e+00
618 267 -1.000000000000000e+00
618 302 -1.000000000000000e+00
618 380 -1.000000000000000e+00
618 618 8.000000000000000e+00
619 114 -1.000000000000000e+00
619 252 -2.000000000000000e+00
619 465 -1.000000000000000e+00
619 619 8.000000000000000e+00
620 1 -1.000000000000000e+00
620 78 -1.000000000000000e+00
620 109 -1.000000000000000e+00
620 620 3.000000000000000e+00
621 19 -1.000000000000000e+00
621 198 -1.000000000000000e+00
621 420 -1.000000000000000e+00
621 433 -1.000000000000000e+00
621 517 -1.000000000000000e+00
621 621 8.000000000000000e+00
622 27 -1.000000000000000e+00
622 82 -1.000000000000000e+00
622 133 -1.000000000000000e+00
622 622 3.000000000000000e+00
623 103 -1.000000000000000e+00
623 163 -1.000000000000000e+00
623 368 -1.000000000000000e+00
623 623 3.000000000000000e+00
624 35 -1.000000000000000e+00
624 124 -1.000000000000000e+00
624 280 -1.000000000000000e+00
624 531 -2.000000000000000e+00
624 624 6.000000000000000e+00
625 132 -1.000000000000000e+00
625 158 -1.000000000000000e+00
625 420 -1.000000000000000e+00
625 625 7.000000000000000e+00
626 5 -1.000000000000000e+00
626 107 -1.000000000000000e+00
626 179 -1.000000000000000e+00
626 209 -1.000000000000000e+00
626 626 9.000000000000000e+00
627 23 -1.000000000000000e+00
627 47 -1.000000000000000e+00
627 121 -1.000000000000000e+00
627 304 -1.000000000000000e+00
627 580 -1.000000000000000e+00
627 627 9.000000000000000e+00
628 5 -1.000000000000000e+00
628 8 -1.000000000000000e+00
628 297 -1.000000000000000e+00
628 628 1.000000000000000e+01
629 123 -2.000000000000000e+00
629 137 -1.000000000000000e+00
629 264 -1.000000000000000e+00
629 282 -1.000000000000000e+00
629 629 7.000000000000000e+00
630 114 -1.000000000000000e+00
630 289 -1.000000000000000e+00
630 561 -1.000000000000000e+00
630 602 -1.000000000000000e+00
630 630 9.000000000000000e+00
631 39 -2.000000000000000e+00
631 416 -1.000000000000000e+00
631 491 -1.000000000000000e+00
631 550 -1.000000000000000e+00
631 631 6.000000000000000e+00
632 14 -1.000000000000000e+00
632 21 -1.000000000000000e+00
632 141 -1.000000000000000e+00
632 174 -1.000000000000000e+00
632 599 -1.000000000000000e+00
632 632 7.000000000000000e+00
633 15 -1.000000000000000e+00
633 39 -1.000000000000000e+00
633 60 -2.000000000000000e+00
633 441 -1.000000000000000e+00
633 633 5.000000000000000e+00
634 152 -2.000000000000000e+00
634 155 -1.000000000000000e+00
634 382 -1.000000000000000e+00
634 600 -1.000000000000000e+00
634 634 8.000000000000000e+00
635 50 -1.000000000000000e+00
635 303 -1.000000000000000e+00
635 489 -1.000000000000000e+00
635 635 3.000000000000000e+00
636 9 -1.000000000000000e+00
636 116 -1.000000000000000e+00
636 234 -1.000000000000000e+00
636 636 4.000000000000000e+00
637 11 -1.000000000000000e+00
637 198 -2.000000000000000e+00
637 524 -1.000000000000000e+00
637 637 5.000000000000000e+00
638 4 -1.000000000000000e+00
638 46 -1.000000000000000e+00
638 310 -2.000000000000000e+00
638 638 5.000000000000000e+00
639 82 -1.000000000000000e+00
639 104 -1.000000000000000e+00
639 256 -1.000000000000000e+00
639 639 5.000000000000000e+00
640 66 -1.000000000000000e+00
640 208 -1.000000000000000e+00
640 302 -1.000000000000000e+00
640 319 -1.000000000000000e+00
640 640 9.000000000000000e+00
641 152 -1.000000000000000e+00
641 155 -2.000000000000000e+00
641 561 -1.000000000000000e+00
641 625 -1.000000000000000e+00
641 641 5.000000000000000e+00
642 242 -2.000000000000000e+00
642 311 -1.000000000000000e+00
642 607 -1.000000000000000e+00
642 642 8.000000000000000e+00
643 5 -1.000000000000000e+00
643 92 -1.000000000000000e+00
643 104 -1.000000000000000e+00
643 643 3.000000000000000e+00
644 7 -1.000000000000000e+00
644 75 -1.000000000000000e+00
644 125 -1.000000000000000e+00
644 274 -1.000000000000000e+00
644 346 -1.000000000000000e+00
644 644 5.000000000000000e+00
645 5 -1.000000000000000e+00
645 164 -1.000000000000000e+00
645 267 -2.000000000000000e+00
645 380 -1.000000000000000e+00
645 645 7.000000000000000e+00
646 44 -1.000000000000000e+00
646 59 -1.000000000000000e+00
646 259 -1.000000000000000e+00
646 562 -1.000000000000000e+00
646 646 1.200000000000000e+01
647 17 -1.000000000000000e+00
647 221 -2.000000000000000e+00
647 256 -1.000000000000000e+00
647 295 -1.000000000000000e+00
647 647 6.000000000000000e+00
648 39 -1.000000000000000e+00
648 71 -1.000000000000000e+00
648 491 -2.000000000000000e+00
648 576 -1.000000000000000e+00
648 648 8.000000000000000e+00
649 10 -1.000000000000000e+00
649 57 -1.000000000000000e+00
649 230 -1.000000000000000e+00
649 232 -1.000000000000000e+00
649 447 -1.000000000000000e+00
649 649 6.000000000000000e+00
650 4 -1.000000000000000e+00
650 15 -1.000000000000000e+00
650 60 -1.000000000000000e+00
650 97 -1.000000000000000e+00
650 103 -1.000000000000000e+00
650 650 8.000000000000000e+00
651 114 -1.000000000000000e+00
651 199 -1.000000000000000e+00
651 423 -1.000000000000000e+00
651 651 6.000000000000000e+00
652 96 -1.000000000000000e+00
652 107 -1.000000000000000e+00
652 326 -1.000000000000000e+00
652 408 -1.000000000000000e+00
652 414 -1.000000000000000e+00
652 652 7.000000000000000e+00
653 98 -1.000000000000000e+00
653 135 -1.000000000000000e+00
653 163 -1.000000000000000e+00
653 485 -1.000000000000000e+00
653 518 -1.000000000000000e+00
653 653 7.000000000000000e+00
654 5 -1.000000000000000e+00
654 57 -1.000000000000000e+00
654 75 -1.000000000000000e+00
654 158 -1.000000000000000e+00
654 654 6.000000000000000e+00
655 7 -1.000000000000000e+00
655 10 -1.000000000000000e+00
655 133 -1.000000000000000e+00
655 180 -1.000000000000000e+00
655 195 -1.000000000000000e+00
655 655 7.000000000000000e+00
656 13 -1.000000000000000e+00
656 16 -1.000000000000000e+00
656 132 -1.000000000000000e+00
656 178 -1.000000000000000e+00
656 223 -1.000000000000000e+00
656 656 6.000000000000000e+00
657 10 -1.000000000000000e+00
657 54 -1.000000000000000e+00
657 132 -1.000000000000000e+00
657 378 -1.000000000000000e+00
657 657 9.000000000000000e+00
658 10 -1.000000000000000e+00
658 230 -1.000000000000000e+00
658 419 -1.000000000000000e+00
658 464 -1.000000000000000e+00
658 645 -1.000000000000000e+00
658 658 6.000000000000000e+00
659 67 -1.000000000000000e+00
659 79 -1.000000000000000e+00
659 214 -1.000000000000000e+00
659 292 -1.000000000000000e+00
659 659 8.000000000000000e+00
660 46 -2.000000000000000e+00
660 200 -1.000000000000000e+00
660 533 -2.000000000000000e+00
660 660 5.000000000000000e+00
661 6 -1.000000000000000e+00
661 36 -1.000000000000000e+00
661 209 -2.000000000000000e+00
661 661 6.000000000000001e+00
662 71 -1.000000000000000e+00
662 166 -1.000000000000000e+00
662 290 -1.000000000000000e+00
662 662 5.000000000000000e+00
663 65 -1.000000000000000e+00
663 114 -1.000000000000000e+00
663 215 -1.000000000000000e+00
663 545 -2.000000000000000e+00
663 663 6.000000000000000e+00
664 46 -1.000000000000000e+00
664 79 -1.000000000000000e+00
664 328 -2.000000000000000e+00
664 664 5.000000000000000e+00
665 6 -2.000000000000000e+00
665 13 -1.000000000000000e+00
665 621 -1.000000000000000e+00
665 665 6.000000000000000e+00
666 4 -1.000000000000000e+00
666 7 -1.000000000000000e+00
666 369 -1.000000000000000e+00
666 666 6.000000000000000e+00
667 14 -1.000000000000000e+00
667 170 -1.000000000000000e+00
667 224 -1.000000000000000e+00
667 355 -1.000000000000000e+00
667 396 -1.000000000000000e+00
667 667 5.000000000000000e+00
668 30 -1.000000000000000e+00
668 202 -1.000000000000000e+00
668 494 -1.000000000000000e+00
668 668 3.000000000000000e+00
669 1 -1.000000000000000e+00
669 89 -2.000000000000000e+00
669 423 -1.000000000000000e+00
669 536 -1.000000000000000e+00
669 669 5.000000000000000e+00
670 69 -1.000000000000000e+00
670 81 -1.000000000000000e+00
670 244 -2.000000000000000e+00
670 393 -1.000000000000000e+00
670 670 6.000000000000000e+00
671 131 -1.000000000000000e+00
671 207 -1.000000000000000e+00
671 457 -1.000000000000000e+00
671 671 4.000000000000000e+00
672 55 -1.000000000000000e+00
672 81 -1.000000000000000e+00
672 165 -1.000000000000000e+00
672 200 -1.000000000000000e+00
672 244 -1.000000000000000e+00
672 672 7.000000000000000e+00
673 7 -1.000000000000000e+00
673 42 -1.000000000000000e+00
673 113 -1.000000000000000e+00
673 288 -1.000000000000000e+00
673 423 -1.000000000000000e+00
673 673 8.000000000000000e+00
674 5 -1.000000000000000e+00
674 57 -1.000000000000000e+00
674 239 -1.000000000000000e+00
674 654 -1.000000000000000e+00
674 674 6.000000000000000e+00
675 85 -1.000000000000000e+00
675 231 -1.000000000000000e+00
675 263 -1.000000000000000e+00
675 350 -1.000000000000000e+00
675 540 -1.000000000000000e+00
675 675 6.000000000000000e+00
676 17 -1.000000000000000e+00
676 230 -1.000000000000000e+00
676 270 -1.000000000000000e+00
676 676 3.000000000000000e+00
677 33 -1.000000000000000e+00
677 324 -1.000000000000000e+00
677 483 -2.000000000000000e+00
677 677 6.000000000000000e+00
678 13 -1.000000000000000e+00
678 113 -1.000000000000000e+00
678 288 -1.000000000000000e+00
678 437 -1.000000000000000e+00
678 673 -1.000000000000000e+00
678 678 6.000000000000000e+00
679 44 -1.000000000000000e+00
679 106 -1.000000000000000e+00
679 258 -1.000000000000000e+00
679 562 -1.000000000000000e+00
679 646 -1.000000000000000e+00
679 679 9.000000000000000e+00
680 9 -1.000000000000000e+00
680 35 -1.000000000000000e+00
680 247 -1.000000000000000e+00
680 372 -1.000000000000000e+00
680 439 -1.000000000000000e+00
680 680 8.000000000000000e+00
681 1 -1.000000000000000e+00
681 6 -1.000000000000000e+00
681 10 -1.000000000000000e+00
681 168 -1.000000000000000e+00
681 681 7.000000000000000e+00
682 214 -1.000000000000000e+00
682 218 -1.000000000000000e+00
682 231 -1.000000000000000e+00
682 432 -1.000000000000000e+00
682 452 -1.000000000000000e+00
682 682 6.000000000000000e+00
683 74 -1.000000000000000e+00
683 85 -1.000000000000000e+00
683 263 -1.000000000000000e+00
683 317 -1.000000000000000e+00
683 530 -1.000000000000000e+00
683 683 6.000000000000000e+00
684 79 -1.000000000000000e+00
684 230 -1.000000000000000e+00
684 505 -1.000000000000000e+00
684 520 -2.000000000000000e+00
684 684 6.000000000000000e+00
685 1 -1.000000000000000e+00
685 6 -1.000000000000000e+00
685 244 -1.000000000000000e+00
685 685 9.000000000000000e+00
686 34 -1.000000000000000e+00
686 207 -1.000000000000000e+00
686 261 -1.000000000000000e+00
686 376 -2.000000000000000e+00
686 686 6.000000000000000e+00
687 29 -2.000000000000000e+00
687 46 -1.000000000000000e+00
687 108 -1.000000000000000e+00
687 378 -1.000000000000000e+00
687 687 6.000000000000000e+00
688 1 -1.000000000000000e+00
688 82 -1.000000000000000e+00
688 252 -1.000000000000000e+00
688 688 3.000000000000000e+00
689 11 -1.000000000000000e+00
689 404 -1.000000000000000e+00
689 628 -2.000000000000000e+00
689 689 9.000000000000000e+00
690 63 -1.000000000000000e+00
690 116 -2.000000000000000e+00
690 230 -1.000000000000000e+00
690 279 -1.000000000000000e+00
690 690 6.000000000000000e+00
691 11 -1.000000000000000e+00
691 76 -1.000000000000000e+00
691 184 -2.000000000000000e+00
691 434 -1.000000000000000e+00
691 691 6.000000000000000e+00
692 103 -1.000000000000000e+00
692 349 -1.000000000000000e+00
692 547 -1.000000000000000e+00
692 692 3.000000000000000e+00
693 5 -1.000000000000000e+00
693 53 -1.000000000000000e+00
693 264 -1.000000000000000e+00
693 394 -1.000000000000000e+00
693 693 5.000000000000000e+00
694 5 -2.000000000000000e+00
694 13 -1.000000000000000e+00
694 86 -1.000000000000000e+00
694 694 5.000000000000000e+00
695 5 -1.000000000000000e+00
695 57 -1.000000000000000e+00
695 173 -1.000000000000000e+00
695 390 -1.000000000000000e+00
695 695 4.000000000000001e+01
696 8 -1.000000000000000e+00
696 242 -1.000000000000000e+00
696 529 -1.000000000000000e+00
696 600 -2.000000000000000e+00
696 696 6.000000000000000e+00
697 33 -2.000000000000000e+00
697 148 -1.000000000000000e+00
697 466 -1.000000000000000e+00
697 531 -1.000000000000000e+00
697 697 5.000000000000000e+00
698 85 -1.000000000000000e+00
698 168 -1.000000000000000e+00
698 263 -1.000000000000000e+00
698 317 -1.000000000000000e+00
698 505 -1.000000000000000e+00
698 698 7.000000000000000e+00
699 8 -1.000000000000000e+00
699 116 -1.000000000000000e+00
699 315 -1.000000000000000e+00
699 583 -1.000000000000000e+00
699 699 7.000000000000000e+00
700 111 -1.000000000000000e+00
700 176 -1.000000000000000e+00
700 591 -1.000000000000000e+00
700 700 4.000000000000000e+00
701 13 -1.000000000000000e+00
701 20 -2.000000000000000e+00
701 437 -1.000000000000000e+00
701 442 -1.000000000000000e+00
701 701 5.000000000000000e+00
702 11 -1.000000000000000e+00
702 407 -1.000000000000000e+00
702 451 -2.000000000000000e+00
702 702 7.000000000000001e+00
703 104 -1.000000000000000e+00
703 585 -1.000000000000000e+00
703 612 -1.000000000000000e+00
703 703 4.000000000000000e+00
704 66 -1.000000000000000e+00
704 132 -1.000000000000000e+00
704 231 -1.000000000000000e+00
704 483 -1.000000000000000e+00
704 508 -1.000000000000000e+00
704 704 8.000000000000000e+00
705 23 -1.000000000000000e+00
705 61 -1.000000000000000e+00
705 472 -1.000000000000000e+00
705 705 3.000000000000000e+00
706 4 -1.000000000000000e+00
706 79 -1.000000000000000e+00
706 378 -1.000000000000000e+00
706 520 -1.000000000000000e+00
706 597 -1.000000000000000e+00
706 706 6.000000000000000e+00
707 102 -2.000000000000000e+00
707 222 -1.000000000000000e+00
707 442 -1.000000000000000e+00
707 558 -1.000000000000000e+00
707 707 8.000000000000000e+00
708 24 -2.000000000000000e+00
708 46 -1.000000000000000e+00
708 88 -1.000000000000000e+00
708 704 -1.000000000000000e+00
708 708 6.000000000000000e+00
709 13 -1.000000000000000e+00
709 51 -2.000000000000000e+00
709 198 -1.000000000000000e+00
709 461 -1.000000000000000e+00
709 709 5.000000000000000e+00
710 43 -1.000000000000000e+00
710 78 -1.000000000000000e+00
710 95 -1.000000000000000e+00
710 710 7.000000000000000e+00
711 395 -1.000000000000000e+00
711 483 -2.000000000000000e+00
711 526 -1.000000000000000e+00
711 677 -1.000000000000000e+00
711 711 5.000000000000000e+00
712 13 -1.000000000000000e+00
712 77 -1.000000000000000e+00
712 200 -1.000000000000000e+00
712 712 3.000000000000000e+00
713 2 -1.000000000000000e+00
713 12 -1.000000000000000e+00
713 132 -1.000000000000000e+00
713 236 -1.000000000000000e+00
713 511 -1.000000000000000e+00
713 713 6.000000000000000e+00
714 29 -1.000000000000000e+00
714 108 -2.000000000000000e+00
714 191 -1.000000000000000e+00
714 243 -1.000000000000000e+00
714 714 5.000000000000000e+00
715 4 -1.000000000000000e+00
715 340 -1.000000000000000e+00
715 384 -2.000000000000000e+00
715 535 -1.000000000000000e+00
715 715 6.000000000000000e+00
716 6 -1.000000000000000e+00
716 158 -1.000000000000000e+00
716 344 -2.000000000000000e+00
716 716 6.000000000000001e+00
717 6 -1.000000000000000e+00
717 95 -1.000000000000000e+00
717 710 -2.000000000000000e+00
717 717 4.000000000000000e+00
718 48 -1.000000000000000e+00
718 164 -1.000000000000000e+00
718 200 -1.000000000000000e+00
718 718 3.000000000000000e+00
719 118 -1.000000000000000e+00
719 296 -2.000000000000000e+00
719 461 -1.000000000000000e+00
719 719 8.000000000000000e+00
720 45 -1.000000000000000e+00
720 111 -1.000000000000000e+00
720 165 -1.000000000000000e+00
720 393 -1.000000000000000e+00
720 674 -1.000000000000000e+00
720 720 5.000000000000000e+00
721 19 -1.000000000000000e+00
721 26 -1.000000000000000e+00
721 72 -1.000000000000000e+00
721 721 7.000000000000001e+00
722 239 -1.000000000000000e+00
722 517 -1.000000000000000e+00
722 567 -1.000000000000000e+00
722 611 -1.000000000000000e+00
722 722 8.000000000000000e+00
723 11 -1.000000000000000e+00
723 48 -1.000000000000000e+00
723 72 -1.000000000000000e+00
723 123 -1.000000000000000e+00
723 256 -1.000000000000000e+00
723 723 5.000000000000000e+00
724 5 -1.000000000000000e+00
724 38 -1.000000000000000e+00
724 53 -1.000000000000000e+00
724 56 -1.000000000000000e+00
724 57 -1.000000000000000e+00
724 59 -1.000000000000000e+00
724 92 -1.000000000000000e+00
724 112 -1.000000000000000e+00
724 119 -1.000000000000000e+00
724 126 -1.000000000000000e+00
724 131 -1.000000000000000e+00
724 158 -1.000000000000000e+00
724 240 -1.000000000000000e+00
724 245 -1.000000000000000e+00
724 264 -1.000000000000000e+00
724 301 -1.000000000000000e+00
724 304 -1.000000000000000e+00
724 315 -1.000000000000000e+00
724 318 -1.000000000000000e+00
724 343 -2.000000000000000e+00
724 394 -1.000000000000000e+00
724 403 -1.000000000000000e+00
724 413 -2.000000000000000e+00
724 424 -1.000000000000000e+00
724 426 -1.000000000000000e+00
724 431 -1.000000000000000e+00
724 493 -1.000000000000000e+00
724 534 -1.000000000000000e+00
724 535 -1.000000000000000e+00
724 543 -1.000000000000000e+00
724 544 -1.000000000000000e+00
724 549 -1.000000000000000e+00
724 574 -1.000000000000000e+00
724 609 -1.000000000000000e+00
724 654 -1.000000000000000e+00
724 674 -1.000000000000000e+00
724 693 -1.000000000000000e+00
724 694 -1.000000000000000e+00
724 695 -1.000000000000000e+00
724 724 4.200000000000001e+01
725 13 -1.000000000000000e+00
725 110 -1.000000000000000e+00
725 241 -2.000000000000000e+00
725 497 -1.000000000000000e+00
725 725 5.000000000000000e+00
726 157 -1.000000000000000e+00
726 169 -2.000000000000000e+00
726 698 -1.000000000000000e+00
726 726 8.000000000000000e+00
727 13 -1.000000000000000e+00
727 160 -1.000000000000000e+00
727 193 -1.000000000000000e+00
727 229 -1.000000000000000e+00
727 253 -1.000000000000000e+00
727 727 7.000000000000000e+00
728 39 -2.000000000000000e+00
728 491 -1.000000000000000e+00
728 496 -1.000000000000000e+00
728 678 -1.000000000000000e+00
728 728 5.000000000000000e+00
729 106 -1.000000000000000e+00
729 507 -1.000000000000000e+00
729 607 -1.000000000000000e+00
729 729 3.000000000000000e+00
730 93 -1.000000000000000e+00
730 121 -2.000000000000000e+00
730 156 -1.000000000000000e+00
730 580 -1.000000000000000e+00
730 730 8.000000000000000e+00
731 547 -1.000000000000000e+00
731 657 -1.000000000000000e+00
731 721 -2.000000000000000e+00
731 731 8.000000000000000e+00
732 82 -1.000000000000000e+00
732 104 -1.000000000000000e+00
732 305 -1.000000000000000e+00
732 335 -1.000000000000000e+00
732 564 -1.000000000000000e+00
732 732 7.000000000000000e+00
733 2 -1.000000000000000e+00
733 12 -1.000000000000000e+00
733 436 -1.000000000000000e+00
733 733 8.000000000000000e+00
734 66 -1.000000000000000e+00
734 95 -1.000000000000000e+00
734 302 -1.000000000000000e+00
734 734 4.000000000000000e+00
735 3 -1.000000000000000e+00
735 7 -1.000000000000000e+00
735 151 -1.000000000000000e+00
735 403 -1.000000000000000e+00
735 735 6.000000000000000e+00
736 62 -1.000000000000000e+00
736 129 -1.000000000000000e+00
736 238 -1.000000000000000e+00
736 594 -1.000000000000000e+00
736 690 -1.000000000000000e+00
736 736 8.000000000000000e+00
737 79 -1.000000000000000e+00
737 173 -1.000000000000000e+00
737 395 -1.000000000000000e+00
737 562 -1.000000000000000e+00
737 646 -1.000000000000000e+00
737 737 9.000000000000000e+00
738 21 -1.000000000000000e+00
738 212 -1.000000000000000e+00
738 228 -1.000000000000000e+00
738 475 -1.000000000000000e+00
738 738 7.000000000000001e+00
739 161 -2.000000000000000e+00
739 247 -1.000000000000000e+00
739 311 -1.000000000000000e+00
739 444 -1.000000000000000e+00
739 739 7.000000000000000e+00
740 118 -1.000000000000000e+00
740 200 -1.000000000000000e+00
740 391 -2.000000000000000e+00
740 740 6.000000000000000e+00
741 111 -1.000000000000000e+00
741 187 -1.000000000000000e+00
741 246 -2.000000000000000e+00
741 468 -1.000000000000000e+00
741 741 5.000000000000000e+00
742 93 -1.000000000000000e+00
742 174 -2.000000000000000e+00
742 378 -1.000000000000000e+00
742 742 6.000000000000000e+00
743 10 -1.000000000000000e+00
743 104 -1.000000000000000e+00
743 131 -1.000000000000000e+00
743 230 -2.000000000000000e+00
743 743 5.000000000000000e+00
744 10 -2.000000000000000e+00
744 214 -1.000000000000000e+00
744 230 -1.000000000000000e+00
744 237 -1.000000000000000e+00
744 744 5.000000000000000e+00
745 14 -2.000000000000000e+00
745 42 -1.000000000000000e+00
745 277 -1.000000000000000e+00
745 464 -1.000000000000000e+00
745 745 8.000000000000000e+00
746 6 -1.000000000000000e+00
746 26 -1.000000000000000e+00
746 114 -1.000000000000000e+00
746 746 3.000000000000000e+00
747 8 -1.000000000000000e+00
747 291 -2.000000000000000e+00
747 572 -1.000000000000000e+00
747 747 4.000000000000000e+00
748 23 -1.000000000000000e+00
748 304 -1.000000000000000e+00
748 683 -1.000000000000000e+00
748 748 8.000000000000000e+00
749 65 -1.000000000000000e+00
749 96 -1.000000000000000e+00
749 399 -1.000000000000000e+00
749 749 1.000000000000000e+01
750 18 -1.000000000000000e+00
750 85 -1.000000000000000e+00
750 103 -1.000000000000000e+00
750 750 3.000000000000000e+00
751 5 -1.000000000000000e+00
751 96 -1.000000000000000e+00
751 214 -1.000000000000000e+00
751 219 -1.000000000000000e+00
751 695 -1.000000000000000e+00
751 751 6.000000000000000e+00
752 6 -1.000000000000000e+00
752 282 -1.000000000000000e+00
752 310 -2.000000000000000e+00
752 638 -1.000000000000000e+00
752 752 5.000000000000000e+00
753 6 -1.000000000000000e+00
753 121 -1.000000000000000e+00
753 430 -1.000000000000000e+00
753 753 4.000000000000000e+00
754 59 -1.000000000000000e+00
754 439 -1.000000000000000e+00
754 475 -2.000000000000000e+00
754 738 -1.000000000000000e+00
754 754 8.000000000000000e+00
755 182 -1.000000000000000e+00
755 442 -1.000000000000000e+00
755 509 -1.000000000000000e+00
755 616 -1.000000000000000e+00
755 755 7.000000000000000e+00
756 33 -1.000000000000000e+00
756 148 -2.000000000000000e+00
756 259 -1.000000000000000e+00
756 439 -1.000000000000000e+00
756 756 5.000000000000000e+00
757 9 -1.000000000000000e+00
757 92 -1.000000000000000e+00
757 208 -1.000000000000000e+00
757 640 -2.000000000000000e+00
757 757 7.000000000000000e+00
758 5 -1.000000000000000e+00
758 8 -1.000000000000000e+00
758 617 -1.000000000000000e+00
758 758 7.000000000000000e+00
759 5 -1.000000000000000e+00
759 17 -1.000000000000000e+00
759 101 -2.000000000000000e+00
759 204 -1.000000000000000e+00
759 759 6.000000000000000e+00
760 5 -1.000000000000000e+00
760 6 -1.000000000000000e+00
760 342 -1.000000000000000e+00
760 574 -1.000000000000000e+00
760 695 -1.000000000000000e+00
760 760 7.000000000000000e+00
761 57 -1.000000000000000e+00
761 89 -1.000000000000000e+00
761 430 -2.000000000000000e+00
761 761 5.000000000000000e+00
762 13 -1.000000000000000e+00
762 221 -1.000000000000000e+00
762 230 -1.000000000000000e+00
762 375 -1.000000000000000e+00
762 445 -1.000000000000000e+00
762 762 6.000000000000000e+00
763 79 -1.000000000000000e+00
763 520 -1.000000000000000e+00
763 561 -1.000000000000000e+00
763 684 -1.000000000000000e+00
763 706 -1.000000000000000e+00
763 763 5.000000000000000e+00
764 35 -1.000000000000000e+00
764 74 -1.000000000000000e+00
764 160 -1.000000000000000e+00
764 253 -2.000000000000000e+00
764 764 6.000000000000000e+00
765 5 -1.000000000000000e+00
765 126 -1.000000000000000e+00
765 201 -1.000000000000000e+00
765 234 -1.000000000000000e+00
765 540 -1.000000000000000e+00
765 765 9.000000000000000e+00
766 5 -1.000000000000000e+00
766 297 -1.000000000000000e+00
766 332 -1.000000000000000e+00
766 628 -1.000000000000000e+00
766 689 -1.000000000000000e+00
766 766 6.000000000000000e+00
767 5 -1.000000000000000e+00
767 22 -1.000000000000000e+00
767 472 -1.000000000000000e+00
767 485 -2.000000000000000e+00
767 767 7.000000000000000e+00
768 35 -1.000000000000000e+00
768 562 -1.000000000000000e+00
768 646 -2.000000000000000e+00
768 679 -1.000000000000000e+00
768 768 5.000000000000000e+00
769 5 -1.000000000000000e+00
769 9 -1.000000000000000e+00
769 313 -1.000000000000000e+00
769 505 -1.000000000000000e+00
769 736 -1.000000000000000e+00
769 769 7.000000000000000e+00
770 150 -1.000000000000000e+00
770 186 -1.000000000000000e+00
770 231 -1.000000000000000e+00
770 770 4.000000000000000e+00
771 23 -2.000000000000000e+00
771 57 -1.000000000000000e+00
771 554 -1.000000000000000e+00
771 771 6.000000000000000e+00
772 65 -1.000000000000000e+00
772 190 -1.000000000000000e+00
772 287 -1.000000000000000e+00
772 503 -1.000000000000000e+00
772 550 -1.000000000000000e+00
772 772 8.000000000000000e+00
773 5 -1.000000000000000e+00
773 57 -1.000000000000000e+00
773 73 -1.000000000000000e+00
773 269 -1.000000000000000e+00
773 695 -1.000000000000000e+00
773 773 9.000000000000000e+00
774 5 -1.000000000000000e+00
774 123 -1.000000000000000e+00
774 395 -1.000000000000000e+00
774 498 -2.000000000000000e+00
774 774 5.000000000000000e+00
775 72 -1.000000000000000e+00
775 103 -1.000000000000000e+00
775 367 -1.000000000000000e+00
775 775 7.000000000000000e+00
776 385 -1.000000000000000e+00
776 618 -1.000000000000000e+00
776 666 -1.000000000000000e+00
776 754 -1.000000000000000e+00
776 776 7.000000000000000e+00
777 46 -1.000000000000000e+00
777 81 -1.000000000000000e+00
777 179 -2.000000000000000e+00
777 626 -1.000000000000000e+00
777 777 8.000000000000000e+00
778 466 -2.000000000000000e+00
778 513 -1.000000000000000e+00
778 541 -1.000000000000000e+00
778 778 4.000000000000000e+00
779 190 -1.000000000000000e+00
779 200 -1.000000000000000e+00
779 201 -1.000000000000000e+00
779 234 -1.000000000000000e+00
779 765 -1.000000000000000e+00
779 779 5.000000000000000e+00
780 27 -1.000000000000000e+00
780 275 -2.000000000000000e+00
780 315 -1.000000000000000e+00
780 446 -1.000000000000000e+00
780 780 5.000000000000000e+00
781 31 -1.000000000000000e+00
781 58 -1.000000000000000e+00
781 65 -1.000000000000000e+00
781 100 -1.000000000000000e+00
781 686 -1.000000000000000e+00
781 781 7.000000000000000e+00
782 5 -2.000000000000000e+00
782 121 -1.000000000000000e+00
782 458 -1.000000000000000e+00
782 695 -1.000000000000000e+00
782 782 5.000000000000000e+00
783 121 -1.000000000000000e+00
783 236 -1.000000000000000e+00
783 580 -1.000000000000000e+00
783 627 -1.000000000000000e+00
783 650 -1.000000000000000e+00
783 783 5.000000000000000e+00
784 31 -1.000000000000000e+00
784 194 -1.000000000000000e+00
784 707 -1.000000000000000e+00
784 784 6.000000000000000e+00
785 225 -1.000000000000000e+00
785 438 -1.000000000000000e+00
785 451 -1.000000000000000e+00
785 785 8.000000000000000e+00
786 157 -1.000000000000000e+00
786 412 -1.000000000000000e+00
786 540 -1.000000000000000e+00
786 786 5.000000000000000e+00
787 529 -1.000000000000000e+00
787 600 -1.000000000000000e+00
787 696 -1.000000000000000e+00
787 699 -1.000000000000000e+00
787 730 -1.000000000000000e+00
787 787 8.000000000000000e+00
788 81 -1.000000000000000e+00
788 244 -2.000000000000000e+00
788 672 -1.000000000000000e+00
788 772 -1.000000000000000e+00
788 788 6.000000000000000e+00
789 26 -1.000000000000000e+00
789 96 -1.000000000000000e+00
789 506 -2.000000000000000e+00
789 789 4.000000000000000e+00
790 2 -1.000000000000000e+00
790 24 -1.000000000000000e+00
790 88 -1.000000000000000e+00
790 153 -1.000000000000000e+00
790 572 -1.000000000000000e+00
790 790 6.000000000000000e+00
791 7 -1.000000000000000e+00
791 57 -1.000000000000000e+00
791 651 -2.000000000000000e+00
791 791 4.000000000000000e+00
792 50 -2.000000000000000e+00
792 314 -1.000000000000000e+00
792 366 -2.000000000000000e+00
792 792 5.000000000000000e+00
793 236 -1.000000000000000e+00
793 296 -1.000000000000000e+00
793 659 -1.000000000000000e+00
793 719 -2.000000000000000e+00
793 793 6.000000000000000e+00
794 205 -1.000000000000000e+00
794 214 -1.000000000000000e+00
794 334 -1.000000000000000e+00
794 794 4.000000000000000e+00
795 4 -1.000000000000000e+00
795 82 -1.000000000000000e+00
795 785 -1.000000000000000e+00
795 795 3.000000000000000e+00
796 3 -1.000000000000000e+00
796 7 -1.000000000000000e+00
796 29 -1.000000000000000e+00
796 201 -1.000000000000000e+00
796 796 7.000000000000000e+00
797 139 -1.000000000000000e+00
797 191 -1.000000000000000e+00
797 210 -2.000000000000000e+00
797 575 -1.000000000000000e+00
797 797 5.000000000000000e+00
798 7 -1.000000000000000e+00
798 547 -1.000000000000000e+00
798 567 -1.000000000000000e+00
798 798 9.000000000000000e+00
799 9 -1.000000000000000e+00
799 11 -1.000000000000000e+00
799 221 -1.000000000000000e+00
799 295 -1.000000000000000e+00
799 647 -1.000000000000000e+00
799 799 5.000000000000000e+00
800 67 -1.000000000000000e+00
800 77 -1.000000000000000e+00
800 118 -1.000000000000000e+00
800 163 -1.000000000000000e+00
800 192 -1.000000000000000e+00
800 800 6.000000000000000e+00
801 10 -1.000000000000000e+00
801 447 -1.000000000000000e+00
801 769 -1.000000000000000e+00
801 801 3.000000000000000e+00
802 8 -2.000000000000000e+00
802 72 -1.000000000000000e+00
802 135 -1.000000000000000e+00
802 802 5.000000000000000e+00
803 40 -1.000000000000000e+00
803 631 -1.000000000000000e+00
803 721 -1.000000000000000e+00
803 731 -2.000000000000000e+00
803 803 6.000000000000000e+00
804 223 -1.000000000000000e+00
804 487 -1.000000000000000e+00
804 749 -2.000000000000000e+00
804 804 5.000000000000000e+00
805 6 -1.000000000000000e+00
805 266 -2.000000000000000e+00
805 282 -1.000000000000000e+00
805 364 -1.000000000000000e+00
805 805 6.000000000000000e+00
806 340 -2.000000000000000e+00
806 384 -2.000000000000000e+00
806 765 -1.000000000000000e+00
806 806 6.000000000000000e+00
807 79 -1.000000000000000e+00
807 297 -2.000000000000000e+00
807 411 -1.000000000000000e+00
807 807 8.000000000000000e+00
808 82 -1.000000000000000e+00
808 118 -1.000000000000000e+00
808 335 -1.000000000000000e+00
808 398 -1.000000000000000e+00
808 671 -1.000000000000000e+00
808 808 6.000000000000000e+00
809 67 -1.000000000000000e+00
809 86 -1.000000000000000e+00
809 436 -1.000000000000000e+00
809 540 -1.000000000000000e+00
809 809 7.000000000000000e+00
810 5 -2.000000000000000e+00
810 223 -1.000000000000000e+00
810 396 -1.000000000000000e+00
810 695 -1.000000000000000e+00
810 810 5.000000000000000e+00
811 7 -1.000000000000000e+00
811 745 -1.000000000000000e+00
811 786 -2.000000000000000e+00
811 811 6.000000000000000e+00
812 114 -1.000000000000000e+00
812 408 -1.000000000000000e+00
812 542 -1.000000000000000e+00
812 748 -1.000000000000000e+00
812 812 1.000000000000000e+01
813 26 -1.000000000000000e+00
813 203 -2.000000000000000e+00
813 400 -2.000000000000000e+00
813 813 5.000000000000000e+00
814 111 -1.000000000000000e+00
814 396 -1.000000000000000e+00
814 476 -1.000000000000000e+00
814 814 1.400000000000000e+01
815 218 -1.000000000000000e+00
815 419 -2.000000000000000e+00
815 607 -2.000000000000000e+00
815 815 6.000000000000000e+00
816 28 -1.000000000000000e+00
816 279 -1.000000000000000e+00
816 311 -2.000000000000000e+00
816 577 -1.000000000000000e+00
816 816 5.000000000000000e+00
817 23 -2.000000000000000e+00
817 308 -1.000000000000000e+00
817 374 -1.000000000000000e+00
817 817 5.000000000000000e+00
818 6 -1.000000000000000e+00
818 41 -1.000000000000000e+00
818 266 -1.000000000000000e+00
818 282 -1.000000000000000e+00
818 364 -1.000000000000000e+00
818 818 6.000000000000000e+00
819 6 -2.000000000000000e+00
819 153 -1.000000000000000e+00
819 330 -1.000000000000000e+00
819 819 5.000000000000000e+00
820 106 -2.000000000000000e+00
820 204 -1.000000000000000e+00
820 321 -1.000000000000000e+00
820 592 -1.000000000000000e+00
820 820 6.000000000000000e+00
821 75 -1.000000000000000e+00
821 140 -2.000000000000000e+00
821 149 -1.000000000000000e+00
821 199 -1.000000000000000e+00
821 821 5.000000000000000e+00
822 117 -1.000000000000000e+00
822 153 -1.000000000000000e+00
822 342 -1.000000000000000e+00
822 454 -1.000000000000000e+00
822 648 -1.000000000000000e+00
822 822 5.000000000000000e+00
823 1 -1.000000000000000e+00
823 75 -1.000000000000000e+00
823 125 -1.000000000000000e+00
823 182 -1.000000000000000e+00
823 191 -1.000000000000000e+00
823 823 5.000000000000000e+00
824 219 -1.000000000000000e+00
824 485 -1.000000000000000e+00
824 559 -2.000000000000000e+00
824 824 7.000000000000000e+00
825 35 -1.000000000000000e+00
825 108 -1.000000000000000e+00
825 655 -1.000000000000000e+00
825 825 3.000000000000000e+00
826 45 -1.000000000000000e+00
826 84 -1.000000000000000e+00
826 111 -1.000000000000000e+00
826 393 -1.000000000000000e+00
826 442 -1.000000000000000e+00
826 826 6.000000000000000e+00
827 9 -1.000000000000000e+00
827 98 -1.000000000000000e+00
827 787 -1.000000000000000e+00
827 827 5.000000000000000e+00
828 29 -1.000000000000000e+00
828 54 -2.000000000000000e+00
828 657 -1.000000000000000e+00
828 734 -1.000000000000000e+00
828 828 5.000000000000000e+00
829 5 -1.000000000000000e+00
829 53 -1.000000000000000e+00
829 57 -1.000000000000000e+00
829 574 -1.000000000000000e+00
829 695 -1.000000000000000e+00
829 829 6.000000000000000e+00
830 31 -1.000000000000000e+00
830 34 -1.000000000000000e+00
830 235 -2.000000000000000e+00
830 247 -1.000000000000000e+00
830 830 5.000000000000000e+00
831 1 -1.000000000000000e+00
831 16 -1.000000000000000e+00
831 75 -1.000000000000000e+00
831 831 4.000000000000000e+00
832 6 -2.000000000000000e+00
832 200 -1.000000000000000e+00
832 826 -1.000000000000000e+00
832 832 8.000000000000000e+00
833 7 -1.000000000000000e+00
833 150 -2.000000000000000e+00
833 306 -1.000000000000000e+00
833 392 -1.000000000000000e+00
833 833 6.000000000000000e+00
834 2 -1.000000000000000e+00
834 12 -1.000000000000000e+00
834 280 -1.000000000000000e+00
834 719 -1.000000000000000e+00
834 745 -1.000000000000000e+00
834 834 5.000000000000000e+00
835 13 -1.000000000000000e+00
835 103 -1.000000000000000e+00
835 109 -1.000000000000000e+00
835 835 3.000000000000000e+00
836 13 -1.000000000000000e+00
836 92 -2.000000000000000e+00
836 226 -1.000000000000000e+00
836 376 -1.000000000000000e+00
836 836 5.000000000000000e+00
837 102 -2.000000000000000e+00
837 157 -1.000000000000000e+00
837 222 -1.000000000000000e+00
837 225 -1.000000000000000e+00
837 837 5.000000000000000e+00
838 116 -2.000000000000000e+00
838 253 -1.000000000000000e+00
838 279 -1.000000000000000e+00
838 630 -1.000000000000000e+00
838 838 6.000000000000000e+00
839 11 -1.000000000000000e+00
839 17 -1.000000000000000e+00
839 72 -2.000000000000000e+00
839 406 -1.000000000000000e+00
839 839 6.000000000000000e+00
840 21 -1.000000000000000e+00
840 141 -1.000000000000000e+00
840 190 -1.000000000000000e+00
840 243 -1.000000000000000e+00
840 267 -1.000000000000000e+00
840 840 6.000000000000000e+00
841 116 -1.000000000000000e+00
841 254 -1.000000000000000e+00
841 557 -2.000000000000000e+00
841 587 -1.000000000000000e+00
841 841 6.000000000000000e+00
842 21 -1.000000000000000e+00
842 102 -1.000000000000000e+00
842 222 -1.000000000000000e+00
842 451 -1.000000000000000e+00
842 707 -1.000000000000000e+00
842 842 6.000000000000000e+00
843 2 -1.000000000000000e+00
843 99 -1.000000000000000e+00
843 444 -1.000000000000000e+00
843 843 4.000000000000000e+00
844 180 -1.000000000000000e+00
844 195 -2.000000000000000e+00
844 445 -1.000000000000000e+00
844 655 -1.000000000000000e+00
844 844 5.000000000000000e+00
845 5 -1.000000000000000e+00
845 100 -1.000000000000000e+00
845 153 -1.000000000000000e+00
845 342 -2.000000000000000e+00
845 845 8.000000000000000e+00
846 325 -1.000000000000000e+00
846 527 -1.000000000000000e+00
846 613 -2.000000000000000e+00
846 846 9.000000000000000e+00
847 153 -2.000000000000000e+00
847 342 -1.000000000000000e+00
847 368 -1.000000000000000e+00
847 399 -1.000000000000000e+00
847 847 7.000000000000000e+00
848 11 -1.000000000000000e+00
848 19 -1.000000000000000e+00
848 76 -1.000000000000000e+00
848 184 -1.000000000000000e+00
848 540 -1.000000000000000e+00
848 848 6.000000000000000e+00
849 218 -1.000000000000000e+00
849 252 -1.000000000000000e+00
849 326 -1.000000000000000e+00
849 494 -1.000000000000000e+00
849 619 -1.000000000000000e+00
849 849 6.000000000000000e+00
850 22 -1.000000000000000e+00
850 24 -1.000000000000000e+00
850 88 -2.000000000000000e+00
850 256 -1.000000000000000e+00
850 850 7.000000000000000e+00
851 57 -1.000000000000000e+00
851 422 -2.000000000000000e+00
851 500 -1.000000000000000e+00
851 557 -1.000000000000000e+00
851 851 5.000000000000000e+00
852 10 -1.000000000000000e+00
852 116 -1.000000000000000e+00
852 428 -1.000000000000000e+00
852 852 3.000000000000000e+00
853 99 -1.000000000000000e+00
853 313 -1.000000000000000e+00
853 406 -1.000000000000000e+00
853 505 -2.000000000000000e+00
853 853 6.000000000000000e+00
854 11 -1.000000000000000e+00
854 96 -1.000000000000000e+00
854 305 -1.000000000000000e+00
854 854 3.000000000000000e+00
855 10 -1.000000000000000e+00
855 132 -2.000000000000000e+00
855 223 -1.000000000000000e+00
855 656 -1.000000000000000e+00
855 855 5.000000000000000e+00
856 1 -1.000000000000000e+00
856 96 -1.000000000000000e+00
856 99 -1.000000000000000e+00
856 425 -1.000000000000000e+00
856 571 -1.000000000000000e+00
856 856 5.000000000000000e+00
857 562 -1.000000000000000e+00
857 646 -2.000000000000000e+00
857 737 -1.000000000000000e+00
857 753 -1.000000000000000e+00
857 857 5.000000000000000e+00
858 23 -1.000000000000000e+00
858 171 -1.000000000000000e+00
858 341 -1.000000000000000e+00
858 858 5.000000000000000e+00
859 72 -1.000000000000000e+00
859 115 -1.000000000000000e+00
859 613 -1.000000000000000e+00
859 859 3.000000000000000e+00
860 110 -2.000000000000000e+00
860 241 -2.000000000000000e+00
860 497 -1.000000000000000e+00
860 860 6.000000000000000e+00
861 15 -2.000000000000000e+00
861 44 -1.000000000000000e+00
861 60 -1.000000000000000e+00
861 123 -1.000000000000000e+00
861 861 6.000000000000000e+00
862 2 -1.000000000000000e+00
862 5 -2.000000000000000e+00
862 695 -1.000000000000000e+00
862 751 -1.000000000000000e+00
862 862 5.000000000000000e+00
863 206 -1.000000000000000e+00
863 208 -1.000000000000000e+00
863 320 -1.000000000000000e+00
863 736 -1.000000000000000e+00
863 785 -1.000000000000000e+00
863 863 6.000000000000000e+00
864 191 -1.000000000000000e+00
864 228 -1.000000000000000e+00
864 451 -2.000000000000000e+00
864 702 -1.000000000000000e+00
864 864 6.000000000000000e+00
865 95 -1.000000000000000e+00
865 109 -1.000000000000000e+00
865 114 -2.000000000000000e+00
865 162 -1.000000000000000e+00
865 865 5.000000000000000e+00
866 19 -1.000000000000000e+00
866 49 -1.000000000000000e+00
866 118 -1.000000000000000e+00
866 207 -2.000000000000000e+00
866 866 5.000000000000000e+00
867 29 -1.000000000000000e+00
867 79 -1.000000000000000e+00
867 700 -1.000000000000000e+00
867 867 6.000000000000000e+00
868 154 -2.000000000000000e+00
868 163 -1.000000000000000e+00
868 704 -1.000000000000000e+00
868 868 1.000000000000000e+01
869 121 -1.000000000000000e+00
869 319 -1.000000000000000e+00
869 580 -1.000000000000000e+00
869 627 -1.000000000000000e+00
869 773 -1.000000000000000e+00
869 869 6.000000000000000e+00
870 50 -1.000000000000000e+00
870 82 -1.000000000000000e+00
870 628 -1.000000000000000e+00
870 689 -1.000000000000000e+00
870 766 -1.000000000000000e+00
870 870 7.000000000000000e+00
871 33 -1.000000000000000e+00
871 424 -1.000000000000000e+00
871 544 -1.000000000000000e+00
871 871 5.000000000000000e+00
872 1 -1.000000000000000e+00
872 5 -1.000000000000000e+00
872 8 -1.000000000000000e+00
872 301 -1.000000000000000e+00
872 695 -1.000000000000000e+00
872 872 6.000000000000000e+00
873 65 -1.000000000000000e+00
873 103 -2.000000000000000e+00
873 793 -1.000000000000000e+00
873 873 5.000000000000000e+00
874 12 -1.000000000000000e+00
874 142 -1.000000000000000e+00
874 360 -2.000000000000000e+00
874 403 -1.000000000000000e+00
874 874 7.000000000000000e+00
875 13 -1.000000000000000e+00
875 77 -2.000000000000000e+00
875 742 -1.000000000000000e+00
875 875 5.000000000000000e+00
876 13 -1.000000000000000e+00
876 395 -2.000000000000000e+00
876 498 -1.000000000000000e+00
876 648 -1.000000000000000e+00
876 876 6.000000000000000e+00
877 50 -1.000000000000000e+00
877 188 -1.000000000000000e+00
877 249 -2.000000000000000e+00
877 877 4.000000000000000e+00
878 37 -1.000000000000000e+00
878 140 -1.000000000000000e+00
878 311 -1.000000000000000e+00
878 577 -2.000000000000000e+00
878 878 6.000000000000000e+00
879 81 -1.000000000000000e+00
879 263 -1.000000000000000e+00
879 516 -1.000000000000000e+00
879 879 4.000000000000000e+00
880 113 -1.000000000000000e+00
880 185 -1.000000000000000e+00
880 391 -1.000000000000000e+00
880 880 3.000000000000000e+00
881 165 -1.000000000000000e+00
881 247 -1.000000000000000e+00
881 478 -1.000000000000000e+00
881 881 3.000000000000000e+00
882 169 -1.000000000000000e+00
882 540 -1.000000000000000e+00
882 737 -1.000000000000000e+00
882 882 3.000000000000000e+00
883 8 -2.000000000000000e+00
883 177 -1.000000000000000e+00
883 273 -1.000000000000000e+00
883 883 5.000000000000000e+00
884 4 -1.000000000000000e+00
884 6 -1.000000000000000e+00
884 9 -1.000000000000000e+00
884 884 1.100000000000000e+01
885 8 -2.000000000000000e+00
885 156 -1.000000000000000e+00
885 258 -1.000000000000000e+00
885 885 6.000000000000000e+00
886 317 -1.000000000000000e+00
886 341 -1.000000000000000e+00
886 521 -1.000000000000000e+00
886 886 4.000000000000000e+00
887 215 -2.000000000000000e+00
887 476 -1.000000000000000e+00
887 545 -1.000000000000000e+00
887 632 -1.000000000000000e+00
887 887 6.000000000000000e+00
888 51 -1.000000000000000e+00
888 107 -1.000000000000000e+00
888 198 -1.000000000000000e+00
888 888 6.000000000000000e+00
889 3 -1.000000000000000e+00
889 7 -1.000000000000000e+00
889 47 -1.000000000000000e+00
889 843 -1.000000000000000e+00
889 889 7.000000000000000e+00
890 3 -1.000000000000000e+00
890 7 -1.000000000000000e+00
890 23 -1.000000000000000e+00
890 332 -1.000000000000000e+00
890 890 7.000000000000001e+00
891 95 -1.000000000000000e+00
891 141 -1.000000000000000e+00
891 814 -2.000000000000000e+00
891 891 7.000000000000001e+00
892 49 -1.000000000000000e+00
892 106 -1.000000000000000e+00
892 613 -2.000000000000000e+00
892 846 -1.000000000000000e+00
892 892 6.000000000000000e+00
893 22 -1.000000000000000e+00
893 30 -1.000000000000000e+00
893 325 -2.000000000000000e+00
893 338 -1.000000000000000e+00
893 893 5.000000000000000e+00
894 1 -1.000000000000000e+00
894 113 -1.000000000000000e+00
894 138 -2.000000000000000e+00
894 323 -1.000000000000000e+00
894 894 6.000000000000000e+00
895 9 -1.000000000000000e+00
895 300 -2.000000000000000e+00
895 740 -1.000000000000000e+00
895 895 8.000000000000000e+00
896 180 -2.000000000000000e+00
896 195 -1.000000000000000e+00
896 398 -1.000000000000000e+00
896 691 -1.000000000000000e+00
896 896 6.000000000000000e+00
897 24 -1.000000000000000e+00
897 88 -1.000000000000000e+00
897 323 -1.000000000000000e+00
897 404 -1.000000000000000e+00
897 790 -1.000000000000000e+00
897 897 7.000000000000000e+00
898 50 -1.000000000000000e+00
898 101 -1.000000000000000e+00
898 204 -2.000000000000000e+00
898 441 -1.000000000000000e+00
898 898 6.000000000000000e+00
899 26 -1.000000000000000e+00
899 118 -1.000000000000000e+00
899 199 -1.000000000000000e+00
899 382 -1.000000000000000e+00
899 899 7.000000000000001e+00
900 37 -1.000000000000000e+00
900 255 -1.000000000000000e+00
900 305 -1.000000000000000e+00
900 568 -1.000000000000000e+00
900 715 -1.000000000000000e+00
900 900 5.000000000000000e+00
901 6 -1.000000000000000e+00
901 47 -1.000000000000000e+00
901 52 -2.000000000000000e+00
901 379 -1.000000000000000e+00
901 901 6.000000000000000e+00
902 29 -1.000000000000000e+00
902 74 -2.000000000000000e+00
902 811 -1.000000000000000e+00
902 902 8.000000000000000e+00
903 375 -1.000000000000000e+00
903 445 -2.000000000000000e+00
903 762 -1.000000000000000e+00
903 858 -1.000000000000000e+00
903 903 5.000000000000000e+00
904 1 -2.000000000000000e+00
904 48 -1.000000000000000e+00
904 138 -1.000000000000000e+00
904 680 -1.000000000000000e+00
904 904 5.000000000000000e+00
905 153 -2.000000000000000e+00
905 169 -1.000000000000000e+00
905 342 -1.000000000000000e+00
905 393 -1.000000000000000e+00
905 905 5.000000000000000e+00
906 72 -1.000000000000000e+00
906 224 -1.000000000000000e+00
906 372 -1.000000000000000e+00
906 906 3.000000000000000e+00
907 19 -1.000000000000000e+00
907 95 -1.000000000000000e+00
907 207 -1.000000000000000e+00
907 433 -1.000000000000000e+00
907 517 -1.000000000000000e+00
907 907 5.000000000000000e+00
908 55 -1.000000000000000e+00
908 98 -1.000000000000000e+00
908 107 -1.000000000000000e+00
908 228 -1.000000000000000e+00
908 650 -1.000000000000000e+00
908 908 5.000000000000000e+00
909 82 -1.000000000000000e+00
909 311 -1.000000000000000e+00
909 408 -1.000000000000000e+00
909 414 -2.000000000000000e+00
909 909 6.000000000000000e+00
910 1 -2.000000000000000e+00
910 82 -1.000000000000000e+00
910 138 -1.000000000000000e+00
910 234 -1.000000000000000e+00
910 910 6.000000000000000e+00
911 23 -1.000000000000000e+00
911 312 -1.000000000000000e+00
911 572 -1.000000000000000e+00
911 771 -1.000000000000000e+00
911 911 6.000000000000000e+00
912 35 -1.000000000000000e+00
912 160 -1.000000000000000e+00
912 253 -1.000000000000000e+00
912 727 -1.000000000000000e+00
912 764 -1.000000000000000e+00
912 912 5.000000000000000e+00
913 82 -2.000000000000000e+00
913 335 -2.000000000000000e+00
913 510 -1.000000000000000e+00
913 913 5.000000000000000e+00
914 281 -2.000000000000000e+00
914 454 -1.000000000000000e+00
914 886 -1.000000000000000e+00
914 914 4.000000000000000e+00
915 33 -1.000000000000000e+00
915 111 -1.000000000000000e+00
915 510 -1.000000000000000e+00
915 915 3.000000000000000e+00
916 11 -1.000000000000000e+00
916 114 -1.000000000000000e+00
916 151 -2.000000000000000e+00
916 916 5.000000000000000e+00
917 21 -1.000000000000000e+00
917 370 -1.000000000000000e+00
917 518 -1.000000000000000e+00
917 917 3.000000000000000e+00
918 5 -1.000000000000000e+00
918 57 -1.000000000000000e+00
918 98 -1.000000000000000e+00
918 695 -1.000000000000000e+00
918 829 -1.000000000000000e+00
918 918 5.000000000000000e+00
919 35 -1.000000000000000e+00
919 260 -2.000000000000000e+00
919 509 -1.000000000000000e+00
919 765 -1.000000000000000e+00
919 919 6.000000000000000e+00
920 5 -1.000000000000000e+00
920 10 -2.000000000000000e+00
920 230 -1.000000000000000e+00
920 658 -1.000000000000000e+00
920 920 6.000000000000000e+00
921 93 -1.000000000000000e+00
921 100 -1.000000000000000e+00
921 186 -1.000000000000000e+00
921 417 -1.000000000000000e+00
921 458 -1.000000000000000e+00
921 921 6.000000000000000e+00
922 19 -2.000000000000000e+00
922 24 -1.000000000000000e+00
922 118 -1.000000000000000e+00
922 433 -1.000000000000000e+00
922 922 7.000000000000000e+00
923 10 -1.000000000000000e+00
923 102 -2.000000000000000e+00
923 222 -1.000000000000000e+00
923 657 -1.000000000000000e+00
923 923 6.000000000000000e+00
924 13 -1.000000000000000e+00
924 51 -1.000000000000000e+00
924 53 -1.000000000000000e+00
924 69 -1.000000000000000e+00
924 545 -1.000000000000000e+00
924 924 5.000000000000000e+00
925 306 -1.000000000000000e+00
925 330 -2.000000000000000e+00
925 757 -1.000000000000000e+00
925 925 6.000000000000001e+00
926 42 -1.000000000000000e+00
926 208 -1.000000000000000e+00
926 523 -1.000000000000000e+00
926 640 -2.000000000000000e+00
926 926 7.000000000000000e+00
927 82 -1.000000000000000e+00
927 335 -1.000000000000000e+00
927 494 -1.000000000000000e+00
927 732 -1.000000000000000e+00
927 889 -1.000000000000000e+00
927 927 5.000000000000000e+00
928 4 -2.000000000000000e+00
928 28 -1.000000000000000e+00
928 218 -1.000000000000000e+00
928 274 -1.000000000000000e+00
928 928 9.000000000000000e+00
929 302 -1.000000000000000e+00
929 483 -1.000000000000000e+00
929 682 -1.000000000000000e+00
929 929 3.000000000000000e+00
930 51 -1.000000000000000e+00
930 138 -1.000000000000000e+00
930 267 -1.000000000000000e+00
930 930 3.000000000000000e+00
931 59 -1.000000000000000e+00
931 70 -1.000000000000000e+00
931 159 -1.000000000000000e+00
931 313 -1.000000000000000e+00
931 480 -1.000000000000000e+00
931 931 8.000000000000000e+00
932 2 -1.000000000000000e+00
932 42 -1.000000000000000e+00
932 65 -1.000000000000000e+00
932 932 3.000000000000000e+00
933 1 -1.000000000000000e+00
933 31 -1.000000000000000e+00
933 85 -1.000000000000000e+00
933 100 -2.000000000000000e+00
933 933 6.000000000000000e+00
934 5 -1.000000000000000e+00
934 20 -1.000000000000000e+00
934 437 -1.000000000000000e+00
934 447 -1.000000000000000e+00
934 794 -1.000000000000000e+00
934 934 6.000000000000000e+00
935 132 -1.000000000000000e+00
935 137 -1.000000000000000e+00
935 266 -1.000000000000000e+00
935 935 4.000000000000000e+00
936 5 -1.000000000000000e+00
936 104 -1.000000000000000e+00
936 262 -1.000000000000000e+00
936 271 -2.000000000000000e+00
936 936 6.000000000000000e+00
937 339 -2.000000000000000e+00
937 522 -1.000000000000000e+00
937 781 -1.000000000000000e+00
937 937 5.000000000000000e+00
938 685 -1.000000000000000e+00
938 755 -1.000000000000000e+00
938 897 -1.000000000000000e+00
938 938 4.000000000000000e+00
939 224 -1.000000000000000e+00
939 457 -1.000000000000000e+00
939 464 -1.000000000000000e+00
939 939 4.000000000000000e+00
940 60 -1.000000000000000e+00
940 113 -2.000000000000000e+00
940 288 -1.000000000000000e+00
940 673 -1.000000000000000e+00
940 940 6.000000000000000e+00
941 34 -2.000000000000000e+00
941 233 -1.000000000000000e+00
941 235 -1.000000000000000e+00
941 484 -1.000000000000000e+00
941 941 5.000000000000000e+00
942 85 -1.000000000000000e+00
942 154 -1.000000000000000e+00
942 162 -1.000000000000000e+00
942 670 -1.000000000000000e+00
942 868 -1.000000000000000e+00
942 942 8.000000000000000e+00
943 115 -1.000000000000000e+00
943 237 -1.000000000000000e+00
943 391 -2.000000000000000e+00
943 740 -1.000000000000000e+00
943 943 5.000000000000000e+00
944 6 -1.000000000000000e+00
944 42 -1.000000000000000e+00
944 296 -1.000000000000000e+00
944 944 6.000000000000000e+00
945 5 -1.000000000000000e+00
945 6 -1.000000000000000e+00
945 151 -2.000000000000000e+00
945 916 -1.000000000000000e+00
945 945 5.000000000000000e+00
946 12 -1.000000000000000e+00
946 29 -1.000000000000000e+00
946 40 -1.000000000000000e+00
946 191 -1.000000000000000e+00
946 946 8.000000000000000e+00
947 96 -1.000000000000000e+00
947 162 -1.000000000000000e+00
947 319 -1.000000000000000e+00
947 947 3.000000000000000e+00
948 8 -1.000000000000000e+00
948 19 -1.000000000000000e+00
948 302 -2.000000000000000e+00
948 432 -1.000000000000000e+00
948 948 5.000000000000000e+00
949 86 -2.000000000000000e+00
949 513 -1.000000000000000e+00
949 626 -1.000000000000000e+00
949 949 6.000000000000000e+00
950 86 -1.000000000000000e+00
950 321 -1.000000000000000e+00
950 847 -1.000000000000000e+00
950 874 -1.000000000000000e+00
950 950 1.000000000000000e+01
951 454 -1.000000000000000e+00
951 663 -1.000000000000000e+00
951 845 -1.000000000000000e+00
951 951 5.000000000000000e+00
952 1 -2.000000000000000e+00
952 7 -1.000000000000000e+00
952 138 -1.000000000000000e+00
952 393 -1.000000000000000e+00
952 952 9.000000000000000e+00
953 2 -1.000000000000000e+00
953 92 -1.000000000000000e+00
953 121 -1.000000000000000e+00
953 580 -1.000000000000000e+00
953 730 -1.000000000000000e+00
953 953 6.000000000000000e+00
954 4 -1.000000000000000e+00
954 17 -1.000000000000000e+00
954 26 -2.000000000000000e+00
954 565 -1.000000000000000e+00
954 954 5.000000000000000e+00
955 7 -1.000000000000000e+00
955 33 -1.000000000000000e+00
955 169 -1.000000000000000e+00
955 726 -2.000000000000000e+00
955 955 7.000000000000000e+00
956 10 -1.000000000000000e+00
956 248 -1.000000000000000e+00
956 689 -1.000000000000000e+00
956 956 4.000000000000000e+00
957 23 -1.000000000000000e+00
957 53 -1.000000000000000e+00
957 591 -1.000000000000000e+00
957 956 -1.000000000000000e+00
957 957 6.000000000000000e+00
958 49 -1.000000000000000e+00
958 135 -1.000000000000000e+00
958 248 -1.000000000000000e+00
958 748 -1.000000000000000e+00
958 812 -1.000000000000000e+00
958 958 6.000000000000000e+00
959 13 -1.000000000000000e+00
959 82 -2.000000000000000e+00
959 335 -1.000000000000000e+00
959 719 -1.000000000000000e+00
959 959 5.000000000000000e+00
960 22 -1.000000000000000e+00
960 117 -1.000000000000000e+00
960 567 -1.000000000000000e+00
960 722 -2.000000000000000e+00
960 960 7.000000000000000e+00
961 348 -1.000000000000000e+00
961 368 -1.000000000000000e+00
961 487 -2.000000000000000e+00
961 961 1.300000000000000e+01
962 39 -1.000000000000000e+00
962 111 -1.000000000000000e+00
962 545 -1.000000000000000e+00
962 962 3.000000000000000e+00
963 11 -1.000000000000000e+00
963 72 -2.000000000000000e+00
963 399 -1.000000000000000e+00
963 630 -1.000000000000000e+00
963 963 6.000000000000000e+00
964 24 -1.000000000000000e+00
964 74 -2.000000000000000e+00
964 902 -1.000000000000000e+00
964 955 -1.000000000000000e+00
964 964 7.000000000000000e+00
965 5 -2.000000000000000e+00
965 413 -1.000000000000000e+00
965 695 -1.000000000000000e+00
965 937 -1.000000000000000e+00
965 965 5.000000000000000e+00
966 13 -1.000000000000000e+00
966 814 -2.000000000000000e+00
966 891 -1.000000000000000e+00
966 896 -1.000000000000000e+00
966 966 5.000000000000000e+00
967 18 -1.000000000000000e+00
967 131 -1.000000000000000e+00
967 320 -1.000000000000000e+00
967 521 -2.000000000000000e+00
967 967 6.000000000000000e+00
968 135 -1.000000000000000e+00
968 518 -2.000000000000000e+00
968 653 -1.000000000000000e+00
968 758 -1.000000000000000e+00
968 968 5.000000000000000e+00
969 16 -1.000000000000000e+00
969 80 -1.000000000000000e+00
969 103 -1.000000000000000e+00
969 969 3.000000000000000e+00
970 116 -1.000000000000000e+00
970 237 -1.000000000000000e+00
970 487 -1.000000000000000e+00
970 961 -1.000000000000000e+00
970 963 -1.000000000000000e+00
970 970 6.000000000000000e+00
971 376 -1.000000000000000e+00
971 487 -2.000000000000000e+00
971 884 -1.000000000000000e+00
971 961 -1.000000000000000e+00
971 971 5.000000000000000e+00
972 2 -1.000000000000000e+00
972 99 -1.000000000000000e+00
972 776 -1.000000000000000e+00
972 972 6.000000000000000e+00
973 17 -1.000000000000000e+00
973 218 -1.000000000000000e+00
973 231 -1.000000000000000e+00
973 241 -1.000000000000000e+00
973 317 -1.000000000000000e+00
973 973 6.000000000000000e+00
974 179 -1.000000000000000e+00
974 292 -1.000000000000000e+00
974 626 -2.000000000000000e+00
974 777 -1.000000000000000e+00
974 974 6.000000000000000e+00
975 67 -2.000000000000000e+00
975 163 -2.000000000000000e+00
975 371 -1.000000000000000e+00
975 975 7.000000000000000e+00
976 105 -1.000000000000000e+00
976 386 -1.000000000000000e+00
976 685 -2.000000000000000e+00
976 976 8.000000000000000e+00
977 11 -1.000000000000000e+00
977 72 -1.000000000000000e+00
977 269 -1.000000000000000e+00
977 464 -1.000000000000000e+00
977 902 -1.000000000000000e+00
977 977 6.000000000000000e+00
978 48 -1.000000000000000e+00
978 206 -1.000000000000000e+00
978 248 -1.000000000000000e+00
978 320 -2.000000000000000e+00
978 978 6.000000000000000e+00
979 6 -2.000000000000000e+00
979 7 -1.000000000000000e+00
979 9 -1.000000000000000e+00
979 25 -1.000000000000000e+00
979 84 -1.000000000000000e+00
979 146 -1.000000000000000e+00
979 227 -1.000000000000000e+00
979 269 -1.000000000000000e+00
979 286 -1.000000000000000e+00
979 332 -1.000000000000000e+00
979 411 -1.000000000000000e+00
979 438 -1.000000000000000e+00
979 528 -1.000000000000000e+00
979 610 -1.000000000000000e+00
979 665 -1.000000000000000e+00
979 681 -1.000000000000000e+00
979 819 -1.000000000000000e+00
979 832 -1.000000000000000e+00
979 979 1.900000000000000e+01
980 23 -1.000000000000000e+00
980 200 -1.000000000000000e+00
980 269 -1.000000000000000e+00
980 547 -1.000000000000000e+00
980 980 7.000000000000000e+00
981 57 -1.000000000000000e+00
981 225 -1.000000000000000e+00
981 412 -1.000000000000000e+00
981 981 3.000000000000000e+00
982 5 -1.000000000000000e+00
982 6 -1.000000000000000e+00
982 695 -1.000000000000000e+00
982 773 -1.000000000000000e+00
982 777 -1.000000000000000e+00
982 982 5.000000000000000e+00
983 5 -1.000000000000000e+00
983 274 -1.000000000000000e+00
983 378 -2.000000000000000e+00
983 983 7.000000000000001e+00
984 87 -1.000000000000000e+00
984 162 -1.000000000000000e+00
984 227 -1.000000000000000e+00
984 456 -2.000000000000000e+00
984 984 6.000000000000000e+00
985 5 -1.000000000000000e+00
985 29 -1.000000000000000e+00
985 43 -1.000000000000000e+00
985 108 -1.000000000000000e+00
985 687 -1.000000000000000e+00
985 985 6.000000000000000e+00
986 7 -1.000000000000000e+00
986 13 -1.000000000000000e+00
986 324 -1.000000000000000e+00
986 986 3.000000000000000e+00
987 107 -1.000000000000000e+00
987 320 -1.000000000000000e+00
987 600 -1.000000000000000e+00
987 987 3.000000000000000e+00
988 161 -1.000000000000000e+00
988 247 -2.000000000000000e+00
988 330 -1.000000000000000e+00
988 451 -1.000000000000000e+00
988 988 6.000000000000000e+00
989 374 -1.000000000000000e+00
989 449 -1.000000000000000e+00
989 545 -1.000000000000000e+00
989 989 6.000000000000000e+00
990 7 -1.000000000000000e+00
990 132 -2.000000000000000e+00
990 223 -1.000000000000000e+00
990 869 -1.000000000000000e+00
990 990 6.000000000000000e+00
991 3 -1.000000000000000e+00
991 7 -2.000000000000000e+00
991 41 -1.000000000000000e+00
991 94 -1.000000000000000e+00
991 115 -1.000000000000000e+00
991 144 -1.000000000000000e+00
991 189 -1.000000000000000e+00
991 250 -1.000000000000000e+00
991 363 -1.000000000000000e+00
991 388 -1.000000000000000e+00
991 465 -1.000000000000000e+00
991 492 -1.000000000000000e+00
991 554 -1.000000000000000e+00
991 673 -1.000000000000000e+00
991 735 -1.000000000000000e+00
991 796 -1.000000000000000e+00
991 889 -1.000000000000000e+00
991 890 -1.000000000000000e+00
991 991 1.900000000000000e+01
992 17 -1.000000000000000e+00
992 239 -1.000000000000000e+00
992 404 -1.000000000000000e+00
992 489 -1.000000000000000e+00
992 516 -1.000000000000000e+00
992 992 5.000000000000000e+00
993 65 -1.000000000000000e+00
993 257 -1.000000000000000e+00
993 593 -2.000000000000000e+00
993 993 1.000000000000000e+01
994 224 -1.000000000000000e+00
994 522 -1.000000000000000e+00
994 721 -1.000000000000000e+00
994 731 -1.000000000000000e+00
994 803 -1.000000000000000e+00
994 994 5.000000000000000e+00
995 1 -1.000000000000000e+00
995 76 -2.000000000000000e+00
995 184 -1.000000000000000e+00
995 848 -1.000000000000000e+00
995 995 5.000000000000000e+00
996 8 -1.000000000000000e+00
996 11 -1.000000000000000e+00
996 72 -2.000000000000000e+00
996 977 -1.000000000000000e+00
996 996 7.000000000000000e+00
997 26 -1.000000000000000e+00
997 214 -2.000000000000000e+00
997 369 -1.000000000000000e+00
997 659 -1.000000000000000e+00
997 997 5.000000000000000e+00
998 4 -1.000000000000000e+00
998 28 -1.000000000000000e+00
998 319 -1.000000000000000e+00
998 522 -1.000000000000000e+00
998 975 -1.000000000000000e+00
998 998 5.000000000000000e+00
999 22 -2.000000000000000e+00
999 214 -1.000000000000000e+00
999 294 -1.000000000000000e+00
999 535 -1.000000000000000e+00
999 999 5.000000000000000e+00
1000 23 -2.000000000000000e+00
1000 29 -1.000000000000000e+00
1000 128 -1.000000000000000e+00
1000 1000 8.000000000000000e+00
1001 1 -1.000000000000000e+00
1001 5 -1.000000000000000e+00
1001 59 -1.000000000000000e+00
1001 424 -1.000000000000000e+00
1001 695 -1.000000000000000e+00
1001 1001 7.000000000000000e+00
1002 13 -1.000000000000000e+00
1002 143 -1.000000000000000e+00
1002 350 -1.000000000000000e+00
1002 1002 3.000000000000000e+00
1003 14 -1.000000000000000e+00
1003 33 -1.000000000000000e+00
1003 148 -1.000000000000000e+00
1003 184 -1.000000000000000e+00
1003 259 -1.000000000000000e+00
1003 1003 5.000000000000000e+00
1004 218 -1.000000000000000e+00
1004 231 -2.000000000000000e+00
1004 253 -1.000000000000000e+00
1004 616 -1.000000000000000e+00
1004 1004 8.000000000000000e+00
1005 30 -1.000000000000000e+00
1005 118 -1.000000000000000e+00
1005 219 -1.000000000000000e+00
1005 430 -1.000000000000000e+00
1005 703 -1.000000000000000e+00
1005 1005 5.000000000000000e+00
1006 38 -1.000000000000000e+00
1006 39 -2.000000000000000e+00
1006 99 -1.000000000000000e+00
1006 491 -1.000000000000000e+00
1006 1006 5.000000000000000e+00
1007 5 -2.000000000000000e+00
1007 69 -1.000000000000000e+00
1007 695 -1.000000000000000e+00
1007 760 -1.000000000000000e+00
1007 1007 5.000000000000000e+00
1008 153 -2.000000000000000e+00
1008 342 -1.000000000000000e+00
1008 446 -1.000000000000000e+00
1008 820 -1.000000000000000e+00
1008 1008 6.000000000000000e+00
1009 8 -1.000000000000000e+00
1009 20 -1.000000000000000e+00
1009 529 -2.000000000000000e+00
1009 600 -1.000000000000000e+00
1009 1009 6.000000000000000e+00
1010 119 -1.000000000000000e+00
1010 245 -1.000000000000000e+00
1010 568 -1.000000000000000e+00
1010 1010 6.000000000000000e+00
1011 7 -1.000000000000000e+00
1011 593 -1.000000000000000e+00
1011 767 -1.000000000000000e+00
1011 993 -2.000000000000000e+00
1011 1011 6.000000000000000e+00
1012 235 -1.000000000000000e+00
1012 384 -1.000000000000000e+00
1012 784 -2.000000000000000e+00
1012 1012 6.000000000000000e+00
1013 32 -1.000000000000000e+00
1013 418 -1.000000000000000e+00
1013 523 -1.000000000000000e+00
1013 939 -1.000000000000000e+00
1013 1013 7.000000000000001e+00
1014 10 -1.000000000000000e+00
1014 120 -1.000000000000000e+00
1014 193 -2.000000000000000e+00
1014 214 -1.000000000000000e+00
1014 1014 5.000000000000000e+00
1015 85 -1.000000000000000e+00
1015 350 -1.000000000000000e+00
1015 483 -1.000000000000000e+00
1015 1015 3.000000000000000e+00
1016 10 -1.000000000000000e+00
1016 16 -2.000000000000000e+00
1016 385 -1.000000000000000e+00
1016 611 -1.000000000000000e+00
1016 1016 6.000000000000000e+00
1017 244 -1.000000000000000e+00
1017 267 -1.000000000000000e+00
1017 380 -2.000000000000000e+00
1017 578 -1.000000000000000e+00
1017 1017 6.000000000000000e+00
1018 6 -1.000000000000000e+00
1018 57 -1.000000000000000e+00
1018 77 -2.000000000000000e+00
1018 875 -1.000000000000000e+00
1018 1018 5.000000000000000e+00
1019 340 -2.000000000000000e+00
1019 347 -1.000000000000000e+00
1019 384 -1.000000000000000e+00
1019 451 -1.000000000000000e+00
1019 1019 5.000000000000000e+00
1020 646 -1.000000000000000e+00
1020 680 -1.000000000000000e+00
1020 814 -1.000000000000000e+00
1020 1020 3.000000000000000e+00
1021 270 -2.000000000000000e+00
1021 282 -1.000000000000000e+00
1021 845 -1.000000000000000e+00
1021 1021 5.000000000000000e+00
1022 49 -1.000000000000000e+00
1022 188 -1.000000000000000e+00
1022 419 -1.000000000000000e+00
1022 1022 3.000000000000000e+00
1023 5 -1.000000000000000e+00
1023 21 -1.000000000000000e+00
1023 57 -1.000000000000000e+00
1023 141 -1.000000000000000e+00
1023 457 -1.000000000000000e+00
1023 1023 6.000000000000000e+00
1024 453 -1.000000000000000e+00
1024 522 -1.000000000000000e+00
1024 850 -1.000000000000000e+00
1024 1024 3.000000000000000e+00
1025 17 -1.000000000000000e+00
1025 90 -2.000000000000000e+00
1025 479 -1.000000000000000e+00
1025 591 -1.000000000000000e+00
1025 1025 7.000000000000000e+00
1026 189 -1.000000000000000e+00
1026 613 -1.000000000000000e+00
1026 815 -1.000000000000000e+00
1026 846 -1.000000000000000e+00
1026 892 -1.000000000000000e+00
1026 1026 5.000000000000000e+00
1027 52 -1.000000000000000e+00
1027 441 -1.000000000000000e+00
1027 827 -1.000000000000000e+00
1027 1027 6.000000000000000e+00
1028 61 -1.000000000000000e+00
1028 92 -1.000000000000000e+00
1028 419 -1.000000000000000e+00
1028 1028 5.000000000000000e+00
1029 246 -1.000000000000000e+00
1029 302 -1.000000000000000e+00
1029 432 -2.000000000000000e+00
1029 547 -1.000000000000000e+00
1029 1029 7.000000000000000e+00
1030 401 -2.000000000000000e+00
1030 439 -1.000000000000000e+00
1030 760 -1.000000000000000e+00
1030 1030 5.000000000000000e+00
1031 1 -1.000000000000000e+00
1031 138 -1.000000000000000e+00
1031 154 -1.000000000000000e+00
1031 239 -1.000000000000000e+00
1031 952 -1.000000000000000e+00
1031 1031 6.000000000000000e+00
1032 2 -1.000000000000000e+00
1032 33 -1.000000000000000e+00
1032 148 -1.000000000000000e+00
1032 334 -1.000000000000000e+00
1032 448 -1.000000000000000e+00
1032 1032 5.000000000000000e+00
1033 96 -2.000000000000000e+00
1033 99 -1.000000000000000e+00
1033 386 -1.000000000000000e+00
1033 425 -1.000000000000000e+00
1033 1033 5.000000000000000e+00
1034 71 -1.000000000000000e+00
1034 135 -1.000000000000000e+00
1034 773 -1.000000000000000e+00
1034 1034 3.000000000000000e+00
1035 276 -1.000000000000000e+00
1035 748 -2.000000000000000e+00
1035 812 -2.000000000000000e+00
1035 1035 5.000000000000000e+00
1036 20 -1.000000000000000e+00
1036 249 -1.000000000000000e+00
1036 437 -1.000000000000000e+00
1036 442 -1.000000000000000e+00
1036 934 -1.000000000000000e+00
1036 1036 5.000000000000000e+00
1037 40 -2.000000000000000e+00
1037 382 -1.000000000000000e+00
1037 946 -1.000000000000000e+00
1037 996 -1.000000000000000e+00
1037 1037 5.000000000000000e+00
1038 26 -1.000000000000000e+00
1038 602 -2.000000000000000e+00
1038 630 -1.000000000000000e+00
1038 884 -1.000000000000000e+00
1038 1038 5.000000000000000e+00
1039 14 -1.000000000000000e+00
1039 401 -2.000000000000000e+00
1039 949 -1.000000000000000e+00
1039 1030 -1.000000000000000e+00
1039 1039 5.000000000000000e+00
1040 562 -1.000000000000000e+00
1040 685 -2.000000000000000e+00
1040 922 -1.000000000000000e+00
1040 976 -1.000000000000000e+00
1040 1040 5.000000000000000e+00
1041 93 -1.000000000000000e+00
1041 99 -1.000000000000000e+00
1041 154 -1.000000000000000e+00
1041 868 -2.000000000000000e+00
1041 1041 7.000000000000000e+00
1042 23 -1.000000000000000e+00
1042 348 -1.000000000000000e+00
1042 445 -1.000000000000000e+00
1042 1042 3.000000000000000e+00
1043 166 -1.000000000000000e+00
1043 581 -1.000000000000000e+00
1043 980 -1.000000000000000e+00
1043 1043 4.000000000000000e+00
1044 17 -1.000000000000000e+00
1044 104 -1.000000000000000e+00
1044 518 -1.000000000000000e+00
1044 1044 5.000000000000000e+00
1045 204 -1.000000000000000e+00
1045 645 -1.000000000000000e+00
1045 798 -2.000000000000000e+00
1045 1045 6.000000000000000e+00
1046 444 -1.000000000000000e+00
1046 695 -1.000000000000000e+00
1046 733 -2.000000000000000e+00
1046 1046 6.000000000000001e+00
1047 6 -1.000000000000000e+00
1047 8 -1.000000000000000e+00
1047 65 -1.000000000000000e+00
1047 1047 3.000000000000000e+00
1048 1 -1.000000000000000e+00
1048 487 -1.000000000000000e+00
1048 494 -1.000000000000000e+00
1048 961 -2.000000000000000e+00
1048 1048 5.000000000000000e+00
1049 77 -1.000000000000000e+00
1049 395 -1.000000000000000e+00
1049 472 -1.000000000000000e+00
1049 485 -1.000000000000000e+00
1049 814 -1.000000000000000e+00
1049 1049 8.000000000000000e+00
1050 4 -1.000000000000000e+00
1050 35 -1.000000000000000e+00
1050 342 -1.000000000000000e+00
1050 1050 3.000000000000000e+00
1051 47 -1.000000000000000e+00
1051 52 -1.000000000000000e+00
1051 488 -1.000000000000000e+00
1051 901 -1.000000000000000e+00
1051 911 -1.000000000000000e+00
1051 1051 5.000000000000000e+00
1052 21 -2.000000000000000e+00
1052 141 -1.000000000000000e+00
1052 632 -1.000000000000000e+00
1052 840 -1.000000000000000e+00
1052 1052 5.000000000000000e+00
1053 30 -1.000000000000000e+00
1053 772 -1.000000000000000e+00
1053 884 -2.000000000000000e+00
1053 1053 7.000000000000001e+00
1054 476 -2.000000000000000e+00
1054 549 -1.000000000000000e+00
1054 928 -1.000000000000000e+00
1054 1054 5.000000000000000e+00
1055 152 -1.000000000000000e+00
1055 155 -1.000000000000000e+00
1055 456 -1.000000000000000e+00
1055 591 -1.000000000000000e+00
1055 1031 -1.000000000000000e+00
1055 1055 8.000000000000000e+00
1056 15 -1.000000000000000e+00
1056 138 -1.000000000000000e+00
1056 148 -1.000000000000000e+00
1056 1056 3.000000000000000e+00
1057 20 -1.000000000000000e+00
1057 34 -2.000000000000000e+00
1057 157 -1.000000000000000e+00
1057 235 -1.000000000000000e+00
1057 1057 6.000000000000000e+00
1058 77 -1.000000000000000e+00
1058 201 -1.000000000000000e+00
1058 234 -1.000000000000000e+00
1058 765 -1.000000000000000e+00
1058 1023 -1.000000000000000e+00
1058 1058 9.000000000000000e+00
1059 96 -1.000000000000000e+00
1059 154 -1.000000000000000e+00
1059 796 -1.000000000000000e+00
1059 868 -1.000000000000000e+00
1059 942 -1.000000000000000e+00
1059 1059 7.000000000000000e+00
1060 305 -1.000000000000000e+00
1060 514 -1.000000000000000e+00
1060 612 -2.000000000000000e+00
1060 1060 5.000000000000000e+00
1061 201 -2.000000000000000e+00
1061 234 -2.000000000000000e+00
1061 1058 -1.000000000000000e+00
1061 1061 5.000000000000000e+00
1062 807 -1.000000000000000e+00
1062 931 -1.000000000000000e+00
1062 946 -1.000000000000000e+00
1062 1062 5.000000000000000e+00
1063 29 -1.000000000000000e+00
1063 209 -2.000000000000000e+00
1063 474 -1.000000000000000e+00
1063 661 -1.000000000000000e+00
1063 1063 6.000000000000000e+00
1064 37 -1.000000000000000e+00
1064 146 -1.000000000000000e+00
1064 545 -1.000000000000000e+00
1064 972 -1.000000000000000e+00
1064 1064 7.000000000000000e+00
1065 98 -1.000000000000000e+00
1065 333 -1.000000000000000e+00
1065 571 -1.000000000000000e+00
1065 1065 3.000000000000000e+00
1066 8 -1.000000000000000e+00
1066 159 -1.000000000000000e+00
1066 1000 -1.000000000000000e+00
1066 1066 3.000000000000000e+00
1067 48 -1.000000000000000e+00
1067 429 -2.000000000000000e+00
1067 479 -1.000000000000000e+00
1067 1067 5.000000000000000e+00
1068 77 -1.000000000000000e+00
1068 384 -1.000000000000000e+00
1068 625 -2.000000000000000e+00
1068 1068 6.000000000000000e+00
1069 32 -1.000000000000000e+00
1069 35 -1.000000000000000e+00
1069 57 -1.000000000000000e+00
1069 65 -1.000000000000000e+00
1069 479 -1.000000000000000e+00
1069 1069 6.000000000000000e+00
1070 27 -1.000000000000000e+00
1070 461 -1.000000000000000e+00
1070 989 -2.000000000000000e+00
1070 1070 4.000000000000000e+00
1071 404 -1.000000000000000e+00
1071 621 -1.000000000000000e+00
1071 726 -1.000000000000000e+00
1071 1071 3.000000000000000e+00
1072 35 -1.000000000000000e+00
1072 95 -1.000000000000000e+00
1072 413 -1.000000000000000e+00
1072 1072 3.000000000000000e+00
1073 34 -1.000000000000000e+00
1073 95 -1.000000000000000e+00
1073 292 -2.000000000000000e+00
1073 1073 5.000000000000000e+00
1074 35 -1.000000000000000e+00
1074 48 -1.000000000000000e+00
1074 888 -2.000000000000000e+00
1074 1074 4.000000000000000e+00
1075 8 -1.000000000000000e+00
1075 483 -1.000000000000000e+00
1075 928 -1.000000000000000e+00
1075 1075 5.000000000000000e+00
1076 4 -1.000000000000000e+00
1076 242 -2.000000000000000e+00
1076 642 -1.000000000000000e+00
1076 708 -1.000000000000000e+00
1076 1076 7.000000000000000e+00
1077 102 -1.000000000000000e+00
1077 222 -2.000000000000000e+00
1077 455 -1.000000000000000e+00
1077 757 -1.000000000000000e+00
1077 1077 5.000000000000000e+00
1078 43 -2.000000000000000e+00
1078 176 -1.000000000000000e+00
1078 634 -1.000000000000000e+00
1078 679 -1.000000000000000e+00
1078 1078 5.000000000000000e+00
1079 206 -1.000000000000000e+00
1079 320 -2.000000000000000e+00
1079 353 -1.000000000000000e+00
1079 863 -1.000000000000000e+00
1079 1079 5.000000000000000e+00
1080 31 -1.000000000000000e+00
1080 37 -2.000000000000000e+00
1080 255 -2.000000000000000e+00
1080 1080 5.000000000000000e+00
1081 6 -1.000000000000000e+00
1081 242 -1.000000000000000e+00
1081 361 -1.000000000000000e+00
1081 1081 4.000000000000000e+00
1082 21 -1.000000000000000e+00
1082 43 -1.000000000000000e+00
1082 1010 -2.000000000000000e+00
1082 1082 4.000000000000000e+00
1083 156 -2.000000000000000e+00
1083 617 -1.000000000000000e+00
1083 812 -1.000000000000000e+00
1083 1083 5.000000000000000e+00
1084 5 -2.000000000000000e+00
1084 35 -1.000000000000000e+00
1084 534 -1.000000000000000e+00
1084 695 -1.000000000000000e+00
1084 1084 6.000000000000000e+00
1085 6 -1.000000000000000e+00
1085 284 -2.000000000000000e+00
1085 814 -1.000000000000000e+00
1085 1085 5.000000000000000e+00
1086 239 -1.000000000000000e+00
1086 315 -1.000000000000000e+00
1086 964 -1.000000000000000e+00
1086 1086 3.000000000000000e+00
1087 27 -2.000000000000000e+00
1087 142 -1.000000000000000e+00
1087 352 -1.000000000000000e+00
1087 366 -1.000000000000000e+00
1087 1087 8.000000000000000e+00
1088 5 -1.000000000000000e+00
1088 23 -1.000000000000000e+00
1088 395 -2.000000000000000e+00
1088 498 -1.000000000000000e+00
1088 1088 6.000000000000000e+00
1089 9 -1.000000000000000e+00
1089 194 -2.000000000000000e+00
1089 628 -1.000000000000000e+00
1089 1089 5.000000000000000e+00
1090 23 -2.000000000000000e+00
1090 159 -1.000000000000000e+00
1090 919 -1.000000000000000e+00
1090 1090 7.000000000000000e+00
1091 55 -1.000000000000000e+00
1091 724 -1.000000000000000e+00
1091 876 -1.000000000000000e+00
1091 1091 3.000000000000000e+00
1092 5 -1.000000000000000e+00
1092 153 -1.000000000000000e+00
1092 431 -1.000000000000000e+00
1092 534 -1.000000000000000e+00
1092 695 -1.000000000000000e+00
1092 1092 5.000000000000000e+00
1093 6 -1.000000000000000e+00
1093 539 -2.000000000000000e+00
1093 838 -1.000000000000000e+00
1093 1093 4.000000000000000e+00
1094 159 -1.000000000000000e+00
1094 297 -1.000000000000000e+00
1094 484 -1.000000000000000e+00
1094 1094 3.000000000000000e+00
1095 239 -1.000000000000000e+00
1095 282 -1.000000000000000e+00
1095 613 -1.000000000000000e+00
1095 846 -2.000000000000000e+00
1095 1095 5.000000000000000e+00
1096 18 -2.000000000000000e+00
1096 521 -1.000000000000000e+00
1096 923 -1.000000000000000e+00
1096 967 -1.000000000000000e+00
1096 1096 5.000000000000000e+00
1097 119 -1.000000000000000e+00
1097 809 -1.000000000000000e+00
1097 842 -1.000000000000000e+00
1097 1097 3.000000000000000e+00
1098 93 -1.000000000000000e+00
1098 186 -2.000000000000000e+00
1098 431 -1.000000000000000e+00
1098 921 -1.000000000000000e+00
1098 1098 5.000000000000000e+00
1099 80 -1.000000000000000e+00
1099 164 -2.000000000000000e+00
1099 329 -1.000000000000000e+00
1099 420 -1.000000000000000e+00
1099 1099 5.000000000000000e+00
1100 163 -1.000000000000000e+00
1100 253 -1.000000000000000e+00
1100 513 -2.000000000000000e+00
1100 1100 7.000000000000000e+00
1101 13 -1.000000000000000e+00
1101 49 -1.000000000000000e+00
1101 950 -1.000000000000000e+00
1101 1101 5.000000000000000e+00
1102 32 -2.000000000000000e+00
1102 35 -1.000000000000000e+00
1102 65 -1.000000000000000e+00
1102 364 -1.000000000000000e+00
1102 1102 5.000000000000000e+00
1103 6 -1.000000000000000e+00
1103 527 -2.000000000000000e+00
1103 788 -1.000000000000000e+00
1103 1103 6.000000000000000e+00
1104 152 -1.000000000000000e+00
1104 155 -1.000000000000000e+00
1104 257 -1.000000000000000e+00
1104 494 -1.000000000000000e+00
1104 581 -1.000000000000000e+00
1104 1104 5.000000000000000e+00
1105 737 -1.000000000000000e+00
1105 871 -2.000000000000000e+00
1105 950 -1.000000000000000e+00
1105 1105 6.000000000000000e+00
1106 240 -1.000000000000000e+00
1106 761 -1.000000000000000e+00
1106 884 -2.000000000000000e+00
1106 1053 -1.000000000000000e+00
1106 1106 6.000000000000000e+00
1107 126 -1.000000000000000e+00
1107 231 -1.000000000000000e+00
1107 672 -1.000000000000000e+00
1107 1107 3.000000000000000e+00
1108 87 -2.000000000000000e+00
1108 195 -1.000000000000000e+00
1108 433 -1.000000000000000e+00
1108 456 -1.000000000000000e+00
1108 1108 6.000000000000000e+00
1109 7 -1.000000000000000e+00
1109 252 -1.000000000000000e+00
1109 619 -2.000000000000000e+00
1109 849 -1.000000000000000e+00
1109 1109 5.000000000000000e+00
1110 5 -2.000000000000000e+00
1110 398 -1.000000000000000e+00
1110 665 -1.000000000000000e+00
1110 695 -1.000000000000000e+00
1110 1110 6.000000000000000e+00
1111 85 -1.000000000000000e+00
1111 135 -1.000000000000000e+00
1111 142 -2.000000000000000e+00
1111 360 -1.000000000000000e+00
1111 1111 5.000000000000000e+00
1112 5 -1.000000000000000e+00
1112 300 -1.000000000000000e+00
1112 770 -1.000000000000000e+00
1112 895 -2.000000000000000e+00
1112 1112 5.000000000000000e+00
1113 562 -2.000000000000000e+00
1113 646 -1.000000000000000e+00
1113 679 -1.000000000000000e+00
1113 938 -1.000000000000000e+00
1113 1113 6.000000000000000e+00
1114 96 -1.000000000000000e+00
1114 218 -1.000000000000000e+00
1114 231 -2.000000000000000e+00
1114 973 -1.000000000000000e+00
1114 1114 7.000000000000000e+00
1115 8 -1.000000000000000e+00
1115 15 -1.000000000000000e+00
1115 60 -1.000000000000000e+00
1115 131 -1.000000000000000e+00
1115 132 -1.000000000000000e+00
1115 1115 6.000000000000000e+00
1116 26 -1.000000000000000e+00
1116 116 -1.000000000000000e+00
1116 775 -2.000000000000000e+00
1116 1116 6.000000000000000e+00
1117 9 -1.000000000000000e+00
1117 23 -1.000000000000000e+00
1117 980 -1.000000000000000e+00
1117 1090 -1.000000000000000e+00
1117 1117 5.000000000000000e+00
1118 48 -2.000000000000000e+00
1118 68 -1.000000000000000e+00
1118 326 -1.000000000000000e+00
1118 402 -1.000000000000000e+00
1118 1118 5.000000000000000e+00
1119 123 -1.000000000000000e+00
1119 212 -2.000000000000000e+00
1119 310 -1.000000000000000e+00
1119 1119 6.000000000000000e+00
1120 8 -1.000000000000000e+00
1120 32 -1.000000000000000e+00
1120 35 -1.000000000000000e+00
1120 233 -1.000000000000000e+00
1120 1069 -1.000000000000000e+00
1120 1120 5.000000000000000e+00
1121 267 -1.000000000000000e+00
1121 380 -1.000000000000000e+00
1121 618 -1.000000000000000e+00
1121 1017 -1.000000000000000e+00
1121 1058 -1.000000000000000e+00
1121 1121 6.000000000000000e+00
1122 35 -1.000000000000000e+00
1122 754 -1.000000000000000e+00
1122 1049 -1.000000000000000e+00
1122 1122 3.000000000000000e+00
1123 13 -1.000000000000000e+00
1123 158 -1.000000000000000e+00
1123 242 -1.000000000000000e+00
1123 642 -1.000000000000000e+00
1123 785 -1.000000000000000e+00
1123 1123 7.000000000000000e+00
1124 159 -2.000000000000000e+00
1124 369 -1.000000000000000e+00
1124 480 -1.000000000000000e+00
1124 931 -1.000000000000000e+00
1124 1124 5.000000000000000e+00
1125 10 -1.000000000000000e+00
1125 504 -1.000000000000000e+00
1125 593 -1.000000000000000e+00
1125 745 -1.000000000000000e+00
1125 993 -1.000000000000000e+00
1125 1125 6.000000000000000e+00
1126 60 -1.000000000000000e+00
1126 330 -1.000000000000000e+00
1126 382 -1.000000000000000e+00
1126 925 -1.000000000000000e+00
1126 1041 -1.000000000000000e+00
1126 1126 7.000000000000000e+00
1127 606 -1.000000000000000e+00
1127 749 -1.000000000000000e+00
1127 985 -1.000000000000000e+00
1127 1127 3.000000000000000e+00
1128 8 -1.000000000000000e+00
1128 140 -1.000000000000000e+00
1128 143 -2.000000000000000e+00
1128 1128 5.000000000000000e+00
1129 153 -1.000000000000000e+00
1129 342 -1.000000000000000e+00
1129 398 -1.000000000000000e+00
1129 1008 -1.000000000000000e+00
1129 1029 -1.000000000000000e+00
1129 1129 5.000000000000000e+00
1130 26 -1.000000000000000e+00
1130 79 -2.000000000000000e+00
1130 341 -1.000000000000000e+00
1130 520 -1.000000000000000e+00
1130 1130 5.000000000000000e+00
1131 23 -1.000000000000000e+00
1131 33 -1.000000000000000e+00
1131 362 -1.000000000000000e+00
1131 479 -1.000000000000000e+00
1131 1131 7.000000000000000e+00
1132 122 -1.000000000000000e+00
1132 123 -2.000000000000000e+00
1132 137 -2.000000000000000e+00
1132 1132 5.000000000000000e+00
1133 10 -1.000000000000000e+00
1133 895 -1.000000000000000e+00
1133 1062 -2.000000000000000e+00
1133 1133 4.000000000000000e+00
1134 290 -2.000000000000000e+00
1134 327 -1.000000000000000e+00
1134 510 -1.000000000000000e+00
1134 1110 -1.000000000000000e+00
1134 1134 7.000000000000000e+00
1135 806 -1.000000000000000e+00
1135 944 -2.000000000000000e+00
1135 993 -1.000000000000000e+00
1135 1135 6.000000000000000e+00
1136 157 -1.000000000000000e+00
1136 292 -2.000000000000000e+00
1136 482 -1.000000000000000e+00
1136 1073 -1.000000000000000e+00
1136 1136 5.000000000000000e+00
1137 230 -1.000000000000000e+00
1137 588 -1.000000000000000e+00
1137 867 -2.000000000000000e+00
1137 1137 6.000000000000000e+00
1138 5 -1.000000000000000e+00
1138 99 -1.000000000000000e+00
1138 1075 -2.000000000000000e+00
1138 1138 4.000000000000000e+00
1139 44 -1.000000000000000e+00
1139 157 -2.000000000000000e+00
1139 286 -1.000000000000000e+00
1139 1114 -1.000000000000000e+00
1139 1139 6.000000000000000e+00
1140 5 -1.000000000000000e+00
1140 26 -1.000000000000000e+00
1140 527 -1.000000000000000e+00
1140 1103 -2.000000000000000e+00
1140 1140 5.000000000000000e+00
1141 387 -1.000000000000000e+00
1141 482 -2.000000000000000e+00
1141 730 -1.000000000000000e+00
1141 1141 4.000000000000000e+00
1142 233 -1.000000000000000e+00
1142 739 -1.000000000000000e+00
1142 818 -1.000000000000000e+00
1142 1142 3.000000000000000e+00
1143 5 -1.000000000000000e+00
1143 403 -1.000000000000000e+00
1143 413 -1.000000000000000e+00
1143 445 -1.000000000000000e+00
1143 695 -1.000000000000000e+00
1143 1143 5.000000000000000e+00
1144 57 -1.000000000000000e+00
1144 265 -1.000000000000000e+00
1144 785 -2.000000000000000e+00
1144 1144 4.000000000000000e+00
1145 61 -1.000000000000000e+00
1145 70 -2.000000000000000e+00
1145 597 -1.000000000000000e+00
1145 1116 -1.000000000000000e+00
1145 1145 5.000000000000000e+00
1146 9 -1.000000000000000e+00
1146 87 -1.000000000000000e+00
1146 419 -2.000000000000000e+00
1146 607 -1.000000000000000e+00
1146 1146 5.000000000000000e+00
1147 84 -1.000000000000000e+00
1147 565 -1.000000000000000e+00
1147 1076 -1.000000000000000e+00
1147 1147 3.000000000000000e+00
1148 109 -1.000000000000000e+00
1148 382 -2.000000000000000e+00
1148 899 -2.000000000000000e+00
1148 1148 6.000000000000000e+00
1149 61 -1.000000000000000e+00
1149 344 -2.000000000000000e+00
1149 716 -1.000000000000000e+00
1149 961 -1.000000000000000e+00
1149 1149 7.000000000000000e+00
1150 67 -1.000000000000000e+00
1150 203 -2.000000000000000e+00
1150 400 -1.000000000000000e+00
1150 443 -1.000000000000000e+00
1150 1150 5.000000000000000e+00
1151 341 -1.000000000000000e+00
1151 993 -1.000000000000000e+00
1151 1043 -1.000000000000000e+00
1151 1151 3.000000000000000e+00
1152 55 -2.000000000000000e+00
1152 98 -2.000000000000000e+00
1152 732 -1.000000000000000e+00
1152 1152 5.000000000000000e+00
1153 50 -1.000000000000000e+00
1153 79 -1.000000000000000e+00
1153 194 -1.000000000000000e+00
1153 1153 3.000000000000000e+00
1154 44 -1.000000000000000e+00
1154 251 -1.000000000000000e+00
1154 370 -1.000000000000000e+00
1154 569 -2.000000000000000e+00
1154 1154 5.000000000000000e+00
1155 17 -1.000000000000000e+00
1155 420 -2.000000000000000e+00
1155 455 -1.000000000000000e+00
1155 1155 5.000000000000000e+00
1156 627 -1.000000000000000e+00
1156 884 -1.000000000000000e+00
1156 1053 -2.000000000000000e+00
1156 1088 -1.000000000000000e+00
1156 1156 5.000000000000000e+00
1157 5 -1.000000000000000e+00
1157 522 -1.000000000000000e+00
1157 707 -1.000000000000000e+00
1157 1157 3.000000000000000e+00
1158 383 -1.000000000000000e+00
1158 952 -1.000000000000000e+00
1158 1027 -2.000000000000000e+00
1158 1158 4.000000000000000e+00
1159 13 -1.000000000000000e+00
1159 51 -1.000000000000000e+00
1159 69 -1.000000000000000e+00
1159 507 -1.000000000000000e+00
1159 624 -1.000000000000000e+00
1159 1159 6.000000000000000e+00
1160 6 -1.000000000000000e+00
1160 450 -1.000000000000000e+00
1160 798 -1.000000000000000e+00
1160 1160 9.000000000000000e+00
1161 616 -1.000000000000000e+00
1161 1060 -1.000000000000000e+00
1161 1160 -2.000000000000000e+00
1161 1161 6.000000000000000e+00
1162 48 -1.000000000000000e+00
1162 123 -1.000000000000000e+00
1162 137 -1.000000000000000e+00
1162 629 -1.000000000000000e+00
1162 1001 -1.000000000000000e+00
1162 1162 5.000000000000000e+00
1163 628 -1.000000000000000e+00
1163 689 -2.000000000000000e+00
1163 870 -1.000000000000000e+00
1163 910 -1.000000000000000e+00
1163 1163 5.000000000000000e+00
1164 16 -2.000000000000000e+00
1164 23 -1.000000000000000e+00
1164 57 -1.000000000000000e+00
1164 611 -1.000000000000000e+00
1164 1164 5.000000000000000e+00
1165 5 -1.000000000000000e+00
1165 34 -1.000000000000000e+00
1165 733 -2.000000000000000e+00
1165 1046 -1.000000000000000e+00
1165 1165 6.000000000000000e+00
1166 19 -1.000000000000000e+00
1166 197 -1.000000000000000e+00
1166 341 -2.000000000000000e+00
1166 590 -1.000000000000000e+00
1166 1166 5.000000000000000e+00
1167 106 -1.000000000000000e+00
1167 370 -1.000000000000000e+00
1167 444 -2.000000000000000e+00
1167 1167 9.000000000000000e+00
1168 10 -1.000000000000000e+00
1168 123 -1.000000000000000e+00
1168 137 -1.000000000000000e+00
1168 347 -1.000000000000000e+00
1168 1134 -1.000000000000000e+00
1168 1168 5.000000000000000e+00
1169 101 -1.000000000000000e+00
1169 214 -2.000000000000000e+00
1169 659 -2.000000000000000e+00
1169 1169 5.000000000000000e+00
1170 666 -2.000000000000000e+00
1170 776 -2.000000000000000e+00
1170 1167 -1.000000000000000e+00
1170 1170 6.000000000000000e+00
1171 77 -1.000000000000000e+00
1171 255 -1.000000000000000e+00
1171 935 -1.000000000000000e+00
1171 1171 4.000000000000000e+00
1172 2 -1.000000000000000e+00
1172 66 -1.000000000000000e+00
1172 1044 -2.000000000000000e+00
1172 1172 4.000000000000000e+00
1173 139 -2.000000000000000e+00
1173 406 -1.000000000000000e+00
1173 858 -1.000000000000000e+00
1173 888 -1.000000000000000e+00
1173 1173 6.000000000000000e+00
1174 5 -1.000000000000000e+00
1174 87 -2.000000000000000e+00
1174 416 -1.000000000000000e+00
1174 456 -1.000000000000000e+00
1174 1174 8.000000000000000e+00
1175 55 -1.000000000000000e+00
1175 98 -1.000000000000000e+00
1175 173 -1.000000000000000e+00
1175 219 -1.000000000000000e+00
1175 1174 -1.000000000000000e+00
1175 1175 5.000000000000000e+00
1176 4 -1.000000000000000e+00
1176 23 -1.000000000000000e+00
1176 121 -1.000000000000000e+00
1176 580 -1.000000000000000e+00
1176 606 -1.000000000000000e+00
1176 1176 5.000000000000000e+00
1177 42 -1.000000000000000e+00
1177 82 -1.000000000000000e+00
1177 243 -1.000000000000000e+00
1177 1177 3.000000000000000e+00
1178 26 -1.000000000000000e+00
1178 95 -1.000000000000000e+00
1178 154 -2.000000000000000e+00
1178 868 -1.000000000000000e+00
1178 1178 6.000000000000000e+00
1179 100 -1.000000000000000e+00
1179 112 -1.000000000000000e+00
1179 114 -1.000000000000000e+00
1179 1179 3.000000000000000e+00
1180 9 -1.000000000000000e+00
1180 345 -2.000000000000000e+00
1180 532 -1.000000000000000e+00
1180 897 -1.000000000000000e+00
1180 1180 5.000000000000000e+00
1181 24 -1.000000000000000e+00
1181 88 -1.000000000000000e+00
1181 116 -1.000000000000000e+00
1181 511 -1.000000000000000e+00
1181 572 -1.000000000000000e+00
1181 1181 6.000000000000000e+00
1182 74 -1.000000000000000e+00
1182 147 -1.000000000000000e+00
1182 229 -2.000000000000000e+00
1182 889 -1.000000000000000e+00
1182 1182 5.000000000000000e+00
1183 1 -1.000000000000000e+00
1183 9 -1.000000000000000e+00
1183 138 -1.000000000000000e+00
1183 171 -1.000000000000000e+00
1183 346 -1.000000000000000e+00
1183 1183 5.000000000000000e+00
1184 76 -1.000000000000000e+00
1184 748 -1.000000000000000e+00
1184 812 -2.000000000000000e+00
1184 958 -1.000000000000000e+00
1184 1184 5.000000000000000e+00
1185 27 -1.000000000000000e+00
1185 101 -1.000000000000000e+00
1185 204 -1.000000000000000e+00
1185 323 -1.000000000000000e+00
1185 898 -1.000000000000000e+00
1185 1185 5.000000000000000e+00
1186 128 -1.000000000000000e+00
1186 133 -1.000000000000000e+00
1186 964 -1.000000000000000e+00
1186 1186 3.000000000000000e+00
1187 4 -1.000000000000000e+00
1187 10 -1.000000000000000e+00
1187 221 -1.000000000000000e+00
1187 1187 3.000000000000000e+00
1188 61 -2.000000000000000e+00
1188 70 -1.000000000000000e+00
1188 71 -1.000000000000000e+00
1188 814 -1.000000000000000e+00
1188 1188 5.000000000000000e+00
1189 2 -1.000000000000000e+00
1189 132 -2.000000000000000e+00
1189 223 -1.000000000000000e+00
1189 312 -1.000000000000000e+00
1189 1189 7.000000000000000e+00
1190 9 -1.000000000000000e+00
1190 16 -2.000000000000000e+00
1190 611 -2.000000000000000e+00
1190 1190 5.000000000000000e+00
1191 82 -1.000000000000000e+00
1191 212 -1.000000000000000e+00
1191 953 -1.000000000000000e+00
1191 1119 -2.000000000000000e+00
1191 1191 5.000000000000000e+00
1192 168 -1.000000000000000e+00
1192 217 -1.000000000000000e+00
1192 580 -1.000000000000000e+00
1192 1178 -1.000000000000000e+00
1192 1192 6.000000000000000e+00
1193 13 -1.000000000000000e+00
1193 16 -1.000000000000000e+00
1193 951 -2.000000000000000e+00
1193 1193 4.000000000000000e+00
1194 31 -1.000000000000000e+00
1194 100 -2.000000000000000e+00
1194 201 -1.000000000000000e+00
1194 316 -1.000000000000000e+00
1194 1194 5.000000000000000e+00
1195 75 -1.000000000000000e+00
1195 125 -2.000000000000000e+00
1195 494 -1.000000000000000e+00
1195 1001 -1.000000000000000e+00
1195 1195 5.000000000000000e+00
1196 143 -1.000000000000000e+00
1196 144 -1.000000000000000e+00
1196 431 -1.000000000000000e+00
1196 444 -1.000000000000000e+00
1196 1167 -1.000000000000000e+00
1196 1196 7.000000000000000e+00
1197 22 -2.000000000000000e+00
1197 294 -1.000000000000000e+00
1197 412 -1.000000000000000e+00
1197 505 -1.000000000000000e+00
1197 1197 6.000000000000000e+00
1198 305 -1.000000000000000e+00
1198 526 -1.000000000000000e+00
1198 1114 -1.000000000000000e+00
1198 1198 3.000000000000000e+00
1199 22 -1.000000000000000e+00
1199 185 -1.000000000000000e+00
1199 294 -1.000000000000000e+00
1199 334 -1.000000000000000e+00
1199 1197 -1.000000000000000e+00
1199 1199 6.000000000000000e+00
1200 4 -1.000000000000000e+00
1200 28 -1.000000000000000e+00
1200 139 -1.000000000000000e+00
1200 879 -1.000000000000000e+00
1200 928 -1.000000000000000e+00
1200 1200 6.000000000000000e+00
1201 39 -1.000000000000000e+00
1201 47 -1.000000000000000e+00
1201 52 -2.000000000000000e+00
1201 73 -1.000000000000000e+00
1201 1201 6.000000000000000e+00
1202 15 -1.000000000000000e+00
1202 44 -1.000000000000000e+00
1202 95 -1.000000000000000e+00
1202 157 -2.000000000000000e+00
1202 1202 5.000000000000000e+00
1203 78 -2.000000000000000e+00
1203 98 -1.000000000000000e+00
1203 450 -1.000000000000000e+00
1203 604 -1.000000000000000e+00
1203 1203 5.000000000000000e+00
1204 7 -1.000000000000000e+00
1204 15 -1.000000000000000e+00
1204 60 -1.000000000000000e+00
1204 294 -1.000000000000000e+00
1204 861 -1.000000000000000e+00
1204 1204 6.000000000000000e+00
1205 210 -1.000000000000000e+00
1205 215 -2.000000000000000e+00
1205 545 -1.000000000000000e+00
1205 1025 -1.000000000000000e+00
1205 1205 5.000000000000000e+00
1206 100 -1.000000000000000e+00
1206 205 -2.000000000000000e+00
1206 484 -2.000000000000000e+00
1206 1206 5.000000000000000e+00
1207 21 -1.000000000000000e+00
1207 154 -1.000000000000000e+00
1207 300 -2.000000000000000e+00
1207 895 -1.000000000000000e+00
1207 1207 5.000000000000000e+00
1208 117 -1.000000000000000e+00
1208 162 -2.000000000000000e+00
1208 183 -1.000000000000000e+00
1208 952 -1.000000000000000e+00
1208 1208 5.000000000000000e+00
1209 161 -2.000000000000000e+00
1209 247 -1.000000000000000e+00
1209 808 -1.000000000000000e+00
1209 1000 -1.000000000000000e+00
1209 1209 5.000000000000000e+00
1210 85 -1.000000000000000e+00
1210 197 -2.000000000000000e+00
1210 341 -1.000000000000000e+00
1210 483 -1.000000000000000e+00
1210 1210 5.000000000000000e+00
1211 35 -1.000000000000000e+00
1211 194 -2.000000000000000e+00
1211 320 -1.000000000000000e+00
1211 1089 -1.000000000000000e+00
1211 1211 5.000000000000000e+00
1212 9 -1.000000000000000e+00
1212 27 -1.000000000000000e+00
1212 187 -1.000000000000000e+00
1212 346 -2.000000000000000e+00
1212 1212 5.000000000000000e+00
1213 101 -1.000000000000000e+00
1213 115 -1.000000000000000e+00
1213 204 -1.000000000000000e+00
1213 342 -1.000000000000000e+00
1213 759 -1.000000000000000e+00
1213 1213 6.000000000000000e+00
1214 182 -1.000000000000000e+00
1214 559 -1.000000000000000e+00
1214 824 -2.000000000000000e+00
1214 988 -1.000000000000000e+00
1214 1214 5.000000000000000e+00
1215 117 -1.000000000000000e+00
1215 150 -1.000000000000000e+00
1215 306 -1.000000000000000e+00
1215 833 -1.000000000000000e+00
1215 1067 -1.000000000000000e+00
1215 1215 5.000000000000000e+00
1216 40 -2.000000000000000e+00
1216 946 -2.000000000000000e+00
1216 1161 -1.000000000000000e+00
1216 1216 5.000000000000000e+00
1217 902 -1.000000000000000e+00
1217 1160 -1.000000000000000e+00
1217 1199 -1.000000000000000e+00
1217 1217 3.000000000000000e+00
1218 284 -2.000000000000000e+00
1218 415 -1.000000000000000e+00
1218 710 -1.000000000000000e+00
1218 1085 -1.000000000000000e+00
1218 1218 5.000000000000000e+00
1219 261 -2.000000000000000e+00
1219 376 -1.000000000000000e+00
1219 699 -1.000000000000000e+00
1219 832 -1.000000000000000e+00
1219 1219 5.000000000000000e+00
1220 17 -1.000000000000000e+00
1220 76 -1.000000000000000e+00
1220 184 -1.000000000000000e+00
1220 407 -1.000000000000000e+00
1220 538 -1.000000000000000e+00
1220 1220 5.000000000000000e+00
1221 35 -1.000000000000000e+00
1221 78 -2.000000000000000e+00
1221 317 -1.000000000000000e+00
1221 450 -1.000000000000000e+00
1221 1221 6.000000000000000e+00
1222 330 -1.000000000000000e+00
1222 679 -1.000000000000000e+00
1222 1087 -1.000000000000000e+00
1222 1222 3.000000000000000e+00
1223 10 -1.000000000000000e+00
1223 82 -1.000000000000000e+00
1223 157 -1.000000000000000e+00
1223 230 -1.000000000000000e+00
1223 530 -1.000000000000000e+00
1223 1223 6.000000000000000e+00
1224 34 -1.000000000000000e+00
1224 77 -1.000000000000000e+00
1224 529 -1.000000000000000e+00
1224 600 -1.000000000000000e+00
1224 814 -1.000000000000000e+00
1224 1224 6.000000000000000e+00
1225 100 -1.000000000000000e+00
1225 497 -1.000000000000000e+00
1225 1160 -2.000000000000000e+00
1225 1161 -1.000000000000000e+00
1225 1225 5.000000000000000e+00
1226 8 -2.000000000000000e+00
1226 34 -1.000000000000000e+00
1226 77 -1.000000000000000e+00
1226 1226 6.000000000000000e+00
1227 76 -2.000000000000000e+00
1227 100 -1.000000000000000e+00
1227 184 -1.000000000000000e+00
1227 345 -1.000000000000000e+00
1227 1227 5.000000000000000e+00
1228 275 -1.000000000000000e+00
1228 344 -1.000000000000000e+00
1228 575 -1.000000000000000e+00
1228 578 -2.000000000000000e+00
1228 1228 5.000000000000000e+00
1229 104 -1.000000000000000e+00
1229 502 -2.000000000000000e+00
1229 749 -1.000000000000000e+00
1229 1229 4.000000000000000e+00
1230 17 -1.000000000000000e+00
1230 239 -1.000000000000000e+00
1230 798 -2.000000000000000e+00
1230 1045 -1.000000000000000e+00
1230 1230 5.000000000000000e+00
1231 26 -1.000000000000000e+00
1231 103 -2.000000000000000e+00
1231 873 -1.000000000000000e+00
1231 1055 -1.000000000000000e+00
1231 1231 5.000000000000000e+00
1232 11 -1.000000000000000e+00
1232 22 -2.000000000000000e+00
1232 294 -1.000000000000000e+00
1232 805 -1.000000000000000e+00
1232 1232 6.000000000000000e+00
1233 24 -1.000000000000000e+00
1233 298 -2.000000000000000e+00
1233 303 -1.000000000000000e+00
1233 361 -1.000000000000000e+00
1233 1233 5.000000000000000e+00
1234 86 -2.000000000000000e+00
1234 535 -1.000000000000000e+00
1234 949 -1.000000000000000e+00
1234 1081 -1.000000000000000e+00
1234 1234 5.000000000000000e+00
1235 5 -2.000000000000000e+00
1235 82 -1.000000000000000e+00
1235 695 -2.000000000000000e+00
1235 1235 5.000000000000000e+00
1236 1 -1.000000000000000e+00
1236 488 -1.000000000000000e+00
1236 685 -1.000000000000000e+00
1236 976 -2.000000000000000e+00
1236 1236 5.000000000000000e+00
1237 39 -1.000000000000000e+00
1237 319 -1.000000000000000e+00
1237 350 -2.000000000000000e+00
1237 361 -1.000000000000000e+00
1237 1237 5.000000000000000e+00
1238 116 -1.000000000000000e+00
1238 138 -1.000000000000000e+00
1238 878 -1.000000000000000e+00
1238 1238 3.000000000000000e+00
1239 100 -1.000000000000000e+00
1239 129 -1.000000000000000e+00
1239 212 -1.000000000000000e+00
1239 238 -1.000000000000000e+00
1239 736 -1.000000000000000e+00
1239 1239 6.000000000000000e+00
1240 78 -1.000000000000000e+00
1240 136 -2.000000000000000e+00
1240 382 -1.000000000000000e+00
1240 1240 4.000000000000000e+00
1241 4 -2.000000000000000e+00
1241 28 -1.000000000000000e+00
1241 111 -1.000000000000000e+00
1241 451 -1.000000000000000e+00
1241 1241 5.000000000000000e+00
1242 70 -1.000000000000000e+00
1242 209 -1.000000000000000e+00
1242 231 -1.000000000000000e+00
1242 1242 3.000000000000000e+00
1243 18 -2.000000000000000e+00
1243 62 -1.000000000000000e+00
1243 248 -1.000000000000000e+00
1243 521 -1.000000000000000e+00
1243 1243 5.000000000000000e+00
1244 82 -1.000000000000000e+00
1244 444 -1.000000000000000e+00
1244 804 -1.000000000000000e+00
1244 1244 3.000000000000000e+00
1245 31 -1.000000000000000e+00
1245 100 -1.000000000000000e+00
1245 445 -1.000000000000000e+00
1245 814 -1.000000000000000e+00
1245 933 -1.000000000000000e+00
1245 1245 5.000000000000000e+00
1246 7 -1.000000000000000e+00
1246 184 -1.000000000000000e+00
1246 737 -1.000000000000000e+00
1246 1246 3.000000000000000e+00
1247 23 -1.000000000000000e+00
1247 471 -1.000000000000000e+00
1247 957 -1.000000000000000e+00
1247 1000 -1.000000000000000e+00
1247 1247 7.000000000000001e+00
1248 26 -1.000000000000000e+00
1248 80 -1.000000000000000e+00
1248 164 -1.000000000000000e+00
1248 329 -1.000000000000000e+00
1248 1159 -1.000000000000000e+00
1248 1248 5.000000000000000e+00
1249 61 -2.000000000000000e+00
1249 70 -1.000000000000000e+00
1249 121 -1.000000000000000e+00
1249 337 -1.000000000000000e+00
1249 1249 5.000000000000000e+00
1250 8 -2.000000000000000e+00
1250 163 -1.000000000000000e+00
1250 839 -1.000000000000000e+00
1250 1250 5.000000000000000e+00
1251 4 -1.000000000000000e+00
1251 13 -1.000000000000000e+00
1251 156 -2.000000000000000e+00
1251 1083 -1.000000000000000e+00
1251 1251 6.000000000000000e+00
1252 29 -1.000000000000000e+00
1252 335 -1.000000000000000e+00
1252 1016 -1.000000000000000e+00
1252 1252 3.000000000000000e+00
1253 57 -1.000000000000000e+00
1253 85 -1.000000000000000e+00
1253 243 -1.000000000000000e+00
1253 1253 3.000000000000000e+00
1254 6 -1.000000000000000e+00
1254 487 -1.000000000000000e+00
1254 961 -2.000000000000000e+00
1254 970 -1.000000000000000e+00
1254 1254 5.000000000000000e+00
1255 6 -2.000000000000000e+00
1255 227 -1.000000000000000e+00
1255 681 -1.000000000000000e+00
1255 832 -1.000000000000000e+00
1255 1255 5.000000000000000e+00
1256 71 -1.000000000000000e+00
1256 78 -1.000000000000000e+00
1256 133 -1.000000000000000e+00
1256 200 -2.000000000000000e+00
1256 1256 6.000000000000000e+00
1257 34 -1.000000000000000e+00
1257 330 -2.000000000000000e+00
1257 925 -1.000000000000000e+00
1257 1126 -1.000000000000000e+00
1257 1257 5.000000000000000e+00
1258 231 -1.000000000000000e+00
1258 357 -2.000000000000000e+00
1258 358 -1.000000000000000e+00
1258 511 -1.000000000000000e+00
1258 1258 5.000000000000000e+00
1259 109 -2.000000000000000e+00
1259 177 -1.000000000000000e+00
1259 461 -1.000000000000000e+00
1259 1027 -1.000000000000000e+00
1259 1259 5.000000000000000e+00
1260 370 -1.000000000000000e+00
1260 1004 -1.000000000000000e+00
1260 1196 -1.000000000000000e+00
1260 1260 3.000000000000000e+00
1261 20 -1.000000000000000e+00
1261 70 -1.000000000000000e+00
1261 182 -1.000000000000000e+00
1261 1261 4.000000000000000e+00
1262 1 -1.000000000000000e+00
1262 7 -1.000000000000000e+00
1262 1232 -1.000000000000000e+00
1262 1262 3.000000000000000e+00
1263 197 -1.000000000000000e+00
1263 239 -1.000000000000000e+00
1263 1105 -1.000000000000000e+00
1263 1263 3.000000000000000e+00
1264 20 -1.000000000000000e+00
1264 57 -1.000000000000000e+00
1264 118 -1.000000000000000e+00
1264 1264 3.000000000000000e+00
1265 110 -1.000000000000000e+00
1265 241 -1.000000000000000e+00
1265 651 -1.000000000000000e+00
1265 860 -1.000000000000000e+00
1265 976 -1.000000000000000e+00
1265 1265 6.000000000000000e+00
1266 5 -1.000000000000000e+00
1266 38 -1.000000000000000e+00
1266 158 -1.000000000000000e+00
1266 168 -1.000000000000000e+00
1266 695 -1.000000000000000e+00
1266 1266 5.000000000000000e+00
1267 13 -2.000000000000000e+00
1267 51 -1.000000000000000e+00
1267 79 -1.000000000000000e+00
1267 495 -1.000000000000000e+00
1267 1267 5.000000000000000e+00
1268 34 -1.000000000000000e+00
1268 179 -1.000000000000000e+00
1268 243 -1.000000000000000e+00
1268 626 -1.000000000000000e+00
1268 777 -1.000000000000000e+00
1268 1268 5.000000000000000e+00
1269 218 -2.000000000000000e+00
1269 231 -2.000000000000000e+00
1269 452 -1.000000000000000e+00
1269 1269 5.000000000000000e+00
1270 11 -1.000000000000000e+00
1270 31 -2.000000000000000e+00
1270 100 -1.000000000000000e+00
1270 1059 -1.000000000000000e+00
1270 1270 5.000000000000000e+00
1271 69 -1.000000000000000e+00
1271 529 -1.000000000000000e+00
1271 600 -1.000000000000000e+00
1271 787 -1.000000000000000e+00
1271 1224 -1.000000000000000e+00
1271 1271 6.000000000000000e+00
1272 119 -1.000000000000000e+00
1272 132 -1.000000000000000e+00
1272 223 -1.000000000000000e+00
1272 315 -1.000000000000000e+00
1272 990 -1.000000000000000e+00
1272 1272 5.000000000000000e+00
1273 7 -1.000000000000000e+00
1273 85 -1.000000000000000e+00
1273 263 -1.000000000000000e+00
1273 350 -1.000000000000000e+00
1273 698 -1.000000000000000e+00
1273 1273 6.000000000000000e+00
1274 23 -1.000000000000000e+00
1274 35 -1.000000000000000e+00
1274 74 -2.000000000000000e+00
1274 902 -1.000000000000000e+00
1274 1274 5.000000000000000e+00
1275 20 -1.000000000000000e+00
1275 66 -1.000000000000000e+00
1275 337 -1.000000000000000e+00
1275 1275 3.000000000000000e+00
1276 422 -1.000000000000000e+00
1276 491 -1.000000000000000e+00
1276 500 -2.000000000000000e+00
1276 526 -1.000000000000000e+00
1276 1276 5.000000000000000e+00
1277 15 -1.000000000000000e+00
1277 208 -1.000000000000000e+00
1277 218 -1.000000000000000e+00
1277 231 -1.000000000000000e+00
1277 1004 -1.000000000000000e+00
1277 1277 5.000000000000000e+00
1278 13 -1.000000000000000e+00
1278 20 -1.000000000000000e+00
1278 1174 -1.000000000000000e+00
1278 1278 3.000000000000000e+00
1279 758 -2.000000000000000e+00
1279 1100 -1.000000000000000e+00
1279 1251 -1.000000000000000e+00
1279 1279 4.000000000000000e+00
1280 85 -1.000000000000000e+00
1280 118 -1.000000000000000e+00
1280 978 -1.000000000000000e+00
1280 1280 3.000000000000000e+00
1281 6 -1.000000000000000e+00
1281 310 -1.000000000000000e+00
1281 576 -1.000000000000000e+00
1281 1281 3.000000000000000e+00
1282 6 -2.000000000000000e+00
1282 24 -1.000000000000000e+00
1282 342 -1.000000000000000e+00
1282 832 -1.000000000000000e+00
1282 1282 5.000000000000000e+00
1283 6 -1.000000000000000e+00
1283 48 -1.000000000000000e+00
1283 68 -1.000000000000000e+00
1283 440 -1.000000000000000e+00
1283 600 -1.000000000000000e+00
1283 1283 5.000000000000000e+00
1284 31 -1.000000000000000e+00
1284 71 -2.000000000000000e+00
1284 188 -1.000000000000000e+00
1284 1131 -1.000000000000000e+00
1284 1284 5.000000000000000e+00
1285 9 -1.000000000000000e+00
1285 57 -1.000000000000000e+00
1285 404 -1.000000000000000e+00
1285 1285 3.000000000000000e+00
1286 5 -1.000000000000000e+00
1286 10 -1.000000000000000e+00
1286 75 -1.000000000000000e+00
1286 695 -2.000000000000000e+00
1286 1286 5.000000000000000e+00
1287 248 -2.000000000000000e+00
1287 308 -1.000000000000000e+00
1287 364 -1.000000000000000e+00
1287 537 -1.000000000000000e+00
1287 1287 5.000000000000000e+00
1288 46 -1.000000000000000e+00
1288 66 -2.000000000000000e+00
1288 104 -1.000000000000000e+00
1288 508 -1.000000000000000e+00
1288 1288 5.000000000000000e+00
1289 39 -1.000000000000000e+00
1289 54 -1.000000000000000e+00
1289 82 -2.000000000000000e+00
1289 335 -1.000000000000000e+00
1289 1289 6.000000000000000e+00
1290 128 -2.000000000000000e+00
1290 207 -1.000000000000000e+00
1290 305 -2.000000000000000e+00
1290 1290 6.000000000000000e+00
1291 5 -1.000000000000000e+00
1291 255 -1.000000000000000e+00
1291 450 -1.000000000000000e+00
1291 1291 3.000000000000000e+00
1292 17 -1.000000000000000e+00
1292 121 -2.000000000000000e+00
1292 580 -1.000000000000000e+00
1292 627 -1.000000000000000e+00
1292 1292 5.000000000000000e+00
1293 14 -2.000000000000000e+00
1293 277 -2.000000000000000e+00
1293 507 -1.000000000000000e+00
1293 1293 5.000000000000000e+00
1294 321 -2.000000000000000e+00
1294 483 -1.000000000000000e+00
1294 773 -1.000000000000000e+00
1294 950 -1.000000000000000e+00
1294 1294 5.000000000000000e+00
1295 11 -1.000000000000000e+00
1295 418 -2.000000000000000e+00
1295 1013 -2.000000000000000e+00
1295 1295 6.000000000000000e+00
1296 102 -2.000000000000000e+00
1296 198 -1.000000000000000e+00
1296 222 -1.000000000000000e+00
1296 506 -1.000000000000000e+00
1296 1296 5.000000000000000e+00
1297 677 -1.000000000000000e+00
1297 811 -1.000000000000000e+00
1297 1058 -1.000000000000000e+00
1297 1297 3.000000000000000e+00
1298 29 -1.000000000000000e+00
1298 253 -1.000000000000000e+00
1298 270 -2.000000000000000e+00
1298 1021 -1.000000000000000e+00
1298 1298 6.000000000000000e+00
1299 24 -1.000000000000000e+00
1299 82 -1.000000000000000e+00
1299 85 -1.000000000000000e+00
1299 335 -1.000000000000000e+00
1299 445 -1.000000000000000e+00
1299 1299 6.000000000000000e+00
1300 209 -1.000000000000000e+00
1300 338 -1.000000000000000e+00
1300 1090 -1.000000000000000e+00
1300 1300 6.000000000000000e+00
1301 12 -1.000000000000000e+00
1301 563 -2.000000000000000e+00
1301 1004 -1.000000000000000e+00
1301 1301 6.000000000000000e+00
1302 26 -1.000000000000000e+00
1302 36 -2.000000000000000e+00
1302 104 -2.000000000000000e+00
1302 1302 5.000000000000000e+00
1303 5 -1.000000000000000e+00
1303 203 -1.000000000000000e+00
1303 301 -1.000000000000000e+00
1303 476 -1.000000000000000e+00
1303 695 -1.000000000000000e+00
1303 1303 6.000000000000000e+00
1304 5 -1.000000000000000e+00
1304 321 -1.000000000000000e+00
1304 950 -2.000000000000000e+00
1304 1201 -1.000000000000000e+00
1304 1304 6.000000000000000e+00
1305 3 -1.000000000000000e+00
1305 5 -1.000000000000000e+00
1305 7 -1.000000000000000e+00
1305 104 -1.000000000000000e+00
1305 890 -1.000000000000000e+00
1305 1305 5.000000000000000e+00
1306 6 -1.000000000000000e+00
1306 19 -1.000000000000000e+00
1306 433 -1.000000000000000e+00
1306 517 -1.000000000000000e+00
1306 922 -1.000000000000000e+00
1306 1306 5.000000000000000e+00
1307 870 -1.000000000000000e+00
1307 996 -1.000000000000000e+00
1307 1011 -1.000000000000000e+00
1307 1307 3.000000000000000e+00
1308 145 -1.000000000000000e+00
1308 257 -1.000000000000000e+00
1308 423 -2.000000000000000e+00
1308 570 -1.000000000000000e+00
1308 1308 5.000000000000000e+00
1309 37 -1.000000000000000e+00
1309 229 -1.000000000000000e+00
1309 254 -1.000000000000000e+00
1309 557 -2.000000000000000e+00
1309 1309 5.000000000000000e+00
1310 5 -1.000000000000000e+00
1310 85 -2.000000000000000e+00
1310 263 -1.000000000000000e+00
1310 675 -1.000000000000000e+00
1310 1310 5.000000000000000e+00
1311 5 -1.000000000000000e+00
1311 34 -1.000000000000000e+00
1311 67 -1.000000000000000e+00
1311 163 -1.000000000000000e+00
1311 975 -1.000000000000000e+00
1311 1311 5.000000000000000e+00
1312 63 -2.000000000000000e+00
1312 210 -1.000000000000000e+00
1312 421 -1.000000000000000e+00
1312 1261 -1.000000000000000e+00
1312 1312 5.000000000000000e+00
1313 2 -1.000000000000000e+00
1313 12 -1.000000000000000e+00
1313 713 -1.000000000000000e+00
1313 749 -1.000000000000000e+00
1313 952 -1.000000000000000e+00
1313 1313 6.000000000000000e+00
1314 567 -2.000000000000000e+00
1314 722 -1.000000000000000e+00
1314 960 -1.000000000000000e+00
1314 1226 -1.000000000000000e+00
1314 1314 5.000000000000000e+00
1315 17 -1.000000000000000e+00
1315 105 -1.000000000000000e+00
1315 268 -1.000000000000000e+00
1315 512 -1.000000000000000e+00
1315 629 -1.000000000000000e+00
1315 1315 6.000000000000000e+00
1316 5 -2.000000000000000e+00
1316 119 -1.000000000000000e+00
1316 695 -1.000000000000000e+00
1316 796 -1.000000000000000e+00
1316 1316 5.000000000000000e+00
1317 5 -2.000000000000000e+00
1317 100 -1.000000000000000e+00
1317 403 -1.000000000000000e+00
1317 695 -1.000000000000000e+00
1317 1317 5.000000000000000e+00
1318 6 -1.000000000000000e+00
1318 27 -1.000000000000000e+00
1318 1123 -1.000000000000000e+00
1318 1318 3.000000000000000e+00
1319 9 -1.000000000000000e+00
1319 114 -1.000000000000000e+00
1319 190 -2.000000000000000e+00
1319 287 -1.000000000000000e+00
1319 1319 5.000000000000000e+00
1320 75 -1.000000000000000e+00
1320 228 -1.000000000000000e+00
1320 597 -1.000000000000000e+00
1320 1320 3.000000000000000e+00
1321 23 -1.000000000000000e+00
1321 47 -1.000000000000000e+00
1321 147 -1.000000000000000e+00
1321 229 -2.000000000000000e+00
1321 1321 5.000000000000000e+00
1322 243 -1.000000000000000e+00
1322 282 -1.000000000000000e+00
1322 733 -1.000000000000000e+00
1322 1046 -1.000000000000000e+00
1322 1165 -1.000000000000000e+00
1322 1322 5.000000000000000e+00
1323 119 -1.000000000000000e+00
1323 540 -1.000000000000000e+00
1323 960 -1.000000000000000e+00
1323 1323 3.000000000000000e+00
1324 153 -2.000000000000000e+00
1324 342 -1.000000000000000e+00
1324 440 -1.000000000000000e+00
1324 1139 -1.000000000000000e+00
1324 1324 5.000000000000000e+00
1325 14 -2.000000000000000e+00
1325 82 -1.000000000000000e+00
1325 277 -1.000000000000000e+00
1325 334 -1.000000000000000e+00
1325 1325 5.000000000000000e+00
1326 17 -1.000000000000000e+00
1326 105 -1.000000000000000e+00
1326 322 -2.000000000000000e+00
1326 1326 6.000000000000000e+00
1327 189 -1.000000000000000e+00
1327 280 -1.000000000000000e+00
1327 625 -1.000000000000000e+00
1327 1068 -2.000000000000000e+00
1327 1327 5.000000000000000e+00
1328 135 -1.000000000000000e+00
1328 152 -2.000000000000000e+00
1328 155 -1.000000000000000e+00
1328 1055 -1.000000000000000e+00
1328 1328 5.000000000000000e+00
1329 8 -2.000000000000000e+00
1329 140 -1.000000000000000e+00
1329 187 -1.000000000000000e+00
1329 1329 6.000000000000000e+00
1330 302 -2.000000000000000e+00
1330 432 -2.000000000000000e+00
1330 617 -1.000000000000000e+00
1330 1330 5.000000000000000e+00
1331 168 -1.000000000000000e+00
1331 246 -1.000000000000000e+00
1331 468 -2.000000000000000e+00
1331 735 -1.000000000000000e+00
1331 1331 5.000000000000000e+00
1332 74 -1.000000000000000e+00
1332 147 -1.000000000000000e+00
1332 229 -2.000000000000000e+00
1332 1055 -1.000000000000000e+00
1332 1332 5.000000000000000e+00
1333 14 -1.000000000000000e+00
1333 420 -2.000000000000000e+00
1333 424 -1.000000000000000e+00
1333 1155 -1.000000000000000e+00
1333 1333 5.000000000000000e+00
1334 365 -2.000000000000000e+00
1334 636 -1.000000000000000e+00
1334 1167 -1.000000000000000e+00
1334 1334 4.000000000000000e+00
1335 8 -1.000000000000000e+00
1335 118 -1.000000000000000e+00
1335 167 -2.000000000000000e+00
1335 1335 4.000000000000000e+00
1336 7 -1.000000000000000e+00
1336 113 -1.000000000000000e+00
1336 288 -1.000000000000000e+00
1336 940 -1.000000000000000e+00
1336 1106 -1.000000000000000e+00
1336 1336 5.000000000000000e+00
1337 7 -1.000000000000000e+00
1337 13 -1.000000000000000e+00
1337 122 -1.000000000000000e+00
1337 1337 3.000000000000000e+00
1338 9 -1.000000000000000e+00
1338 297 -2.000000000000000e+00
1338 807 -1.000000000000000e+00
1338 827 -1.000000000000000e+00
1338 1338 6.000000000000000e+00
1339 451 -2.000000000000000e+00
1339 597 -1.000000000000000e+00
1339 702 -1.000000000000000e+00
1339 1173 -1.000000000000000e+00
1339 1339 6.000000000000000e+00
1340 128 -2.000000000000000e+00
1340 206 -1.000000000000000e+00
1340 305 -1.000000000000000e+00
1340 974 -1.000000000000000e+00
1340 1340 5.000000000000000e+00
1341 322 -2.000000000000000e+00
1341 342 -1.000000000000000e+00
1341 489 -1.000000000000000e+00
1341 1326 -1.000000000000000e+00
1341 1341 5.000000000000000e+00
1342 9 -1.000000000000000e+00
1342 61 -2.000000000000000e+00
1342 70 -2.000000000000000e+00
1342 1342 5.000000000000000e+00
1343 5 -2.000000000000000e+00
1343 43 -1.000000000000000e+00
1343 695 -1.000000000000000e+00
1343 928 -1.000000000000000e+00
1343 1343 5.000000000000000e+00
1344 23 -1.000000000000000e+00
1344 71 -1.000000000000000e+00
1344 242 -1.000000000000000e+00
1344 642 -1.000000000000000e+00
1344 1123 -1.000000000000000e+00
1344 1344 6.000000000000000e+00
1345 5 -1.000000000000000e+00
1345 531 -1.000000000000000e+00
1345 695 -1.000000000000000e+00
1345 1170 -1.000000000000000e+00
1345 1303 -1.000000000000000e+00
1345 1345 6.000000000000000e+00
1346 198 -2.000000000000000e+00
1346 561 -1.000000000000000e+00
1346 591 -1.000000000000000e+00
1346 637 -1.000000000000000e+00
1346 1346 5.000000000000000e+00
1347 54 -1.000000000000000e+00
1347 297 -2.000000000000000e+00
1347 442 -1.000000000000000e+00
1347 807 -1.000000000000000e+00
1347 1347 5.000000000000000e+00
1348 131 -1.000000000000000e+00
1348 634 -1.000000000000000e+00
1348 1101 -2.000000000000000e+00
1348 1348 4.000000000000000e+00
1349 169 -2.000000000000000e+00
1349 194 -1.000000000000000e+00
1349 726 -1.000000000000000e+00
1349 1087 -1.000000000000000e+00
1349 1349 5.000000000000000e+00
1350 4 -1.000000000000000e+00
1350 15 -1.000000000000000e+00
1350 867 -1.000000000000000e+00
1350 1137 -2.000000000000000e+00
1350 1350 5.000000000000000e+00
1351 264 -1.000000000000000e+00
1351 989 -1.000000000000000e+00
1351 1345 -1.000000000000000e+00
1351 1351 3.000000000000000e+00
1352 75 -2.000000000000000e+00
1352 125 -1.000000000000000e+00
1352 274 -1.000000000000000e+00
1352 1128 -1.000000000000000e+00
1352 1352 5.000000000000000e+00
1353 5 -2.000000000000000e+00
1353 233 -1.000000000000000e+00
1353 550 -1.000000000000000e+00
1353 695 -1.000000000000000e+00
1353 1353 5.000000000000000e+00
1354 4 -1.000000000000000e+00
1354 451 -1.000000000000000e+00
1354 702 -1.000000000000000e+00
1354 864 -1.000000000000000e+00
1354 1131 -1.000000000000000e+00
1354 1354 5.000000000000000e+00
1355 9 -1.000000000000000e+00
1355 118 -1.000000000000000e+00
1355 223 -1.000000000000000e+00
1355 1355 3.000000000000000e+00
1356 8 -2.000000000000000e+00
1356 1113 -1.000000000000000e+00
1356 1256 -1.000000000000000e+00
1356 1356 7.000000000000001e+00
1357 19 -1.000000000000000e+00
1357 33 -1.000000000000000e+00
1357 102 -2.000000000000000e+00
1357 222 -1.000000000000000e+00
1357 1357 5.000000000000000e+00
1358 273 -2.000000000000000e+00
1358 383 -1.000000000000000e+00
1358 488 -1.000000000000000e+00
1358 885 -1.000000000000000e+00
1358 1358 6.000000000000000e+00
1359 179 -1.000000000000000e+00
1359 350 -1.000000000000000e+00
1359 1108 -1.000000000000000e+00
1359 1359 3.000000000000000e+00
1360 129 -2.000000000000000e+00
1360 238 -1.000000000000000e+00
1360 1160 -1.000000000000000e+00
1360 1239 -1.000000000000000e+00
1360 1360 5.000000000000000e+00
1361 87 -2.000000000000000e+00
1361 157 -1.000000000000000e+00
1361 456 -2.000000000000000e+00
1361 1361 5.000000000000000e+00
1362 9 -1.000000000000000e+00
1362 92 -1.000000000000000e+00
1362 1290 -1.000000000000000e+00
1362 1362 3.000000000000000e+00
1363 5 -1.000000000000000e+00
1363 8 -2.000000000000000e+00
1363 39 -1.000000000000000e+00
1363 42 -1.000000000000000e+00
1363 83 -1.000000000000000e+00
1363 258 -1.000000000000000e+00
1363 351 -1.000000000000000e+00
1363 402 -1.000000000000000e+00
1363 453 -1.000000000000000e+00
1363 511 -1.000000000000000e+00
1363 514 -1.000000000000000e+00
1363 583 -1.000000000000000e+00
1363 604 -1.000000000000000e+00
1363 699 -1.000000000000000e+00
1363 802 -1.000000000000000e+00
1363 883 -1.000000000000000e+00
1363 885 -1.000000000000000e+00
1363 1226 -1.000000000000000e+00
1363 1250 -1.000000000000000e+00
1363 1329 -1.000000000000000e+00
1363 1356 -1.000000000000000e+00
1363 1363 2.200000000000000e+01
1364 159 -1.000000000000000e+00
1364 480 -2.000000000000000e+00
1364 787 -1.000000000000000e+00
1364 1265 -1.000000000000000e+00
1364 1364 5.000000000000000e+00
1365 5 -1.000000000000000e+00
1365 593 -2.000000000000000e+00
1365 993 -1.000000000000000e+00
1365 1125 -1.000000000000000e+00
1365 1365 5.000000000000000e+00
1366 2 -1.000000000000000e+00
1366 140 -1.000000000000000e+00
1366 149 -1.000000000000000e+00
1366 168 -1.000000000000000e+00
1366 526 -1.000000000000000e+00
1366 1366 5.000000000000000e+00
1367 239 -1.000000000000000e+00
1367 262 -1.000000000000000e+00
1367 271 -1.000000000000000e+00
1367 586 -1.000000000000000e+00
1367 936 -1.000000000000000e+00
1367 1367 5.000000000000000e+00
1368 69 -1.000000000000000e+00
1368 82 -1.000000000000000e+00
1368 89 -2.000000000000000e+00
1368 536 -1.000000000000000e+00
1368 1368 5.000000000000000e+00
1369 34 -1.000000000000000e+00
1369 135 -1.000000000000000e+00
1369 259 -1.000000000000000e+00
1369 1369 3.000000000000000e+00
1370 55 -1.000000000000000e+00
1370 98 -2.000000000000000e+00
1370 409 -1.000000000000000e+00
1370 1221 -1.000000000000000e+00
1370 1370 5.000000000000000e+00
1371 526 -1.000000000000000e+00
1371 540 -2.000000000000000e+00
1371 809 -2.000000000000000e+00
1371 1371 5.000000000000000e+00
1372 170 -1.000000000000000e+00
1372 210 -1.000000000000000e+00
1372 302 -1.000000000000000e+00
1372 432 -1.000000000000000e+00
1372 1029 -1.000000000000000e+00
1372 1372 5.000000000000000e+00
1373 243 -1.000000000000000e+00
1373 472 -1.000000000000000e+00
1373 485 -1.000000000000000e+00
1373 767 -1.000000000000000e+00
1373 1049 -1.000000000000000e+00
1373 1373 5.000000000000000e+00
1374 378 -2.000000000000000e+00
1374 548 -1.000000000000000e+00
1374 983 -1.000000000000000e+00
1374 1148 -1.000000000000000e+00
1374 1374 5.000000000000000e+00
1375 6 -1.000000000000000e+00
1375 79 -1.000000000000000e+00
1375 520 -2.000000000000000e+00
1375 961 -1.000000000000000e+00
1375 1375 6.000000000000000e+00
1376 2 -1.000000000000000e+00
1376 12 -1.000000000000000e+00
1376 280 -1.000000000000000e+00
1376 984 -1.000000000000000e+00
1376 1313 -1.000000000000000e+00
1376 1376 5.000000000000000e+00
1377 79 -1.000000000000000e+00
1377 391 -1.000000000000000e+00
1377 520 -1.000000000000000e+00
1377 540 -1.000000000000000e+00
1377 1375 -1.000000000000000e+00
1377 1377 5.000000000000000e+00
1378 174 -2.000000000000000e+00
1378 274 -1.000000000000000e+00
1378 742 -1.000000000000000e+00
1378 1064 -1.000000000000000e+00
1378 1378 5.000000000000000e+00
1379 5 -1.000000000000000e+00
1379 67 -1.000000000000000e+00
1379 874 -1.000000000000000e+00
1379 1379 3.000000000000000e+00
1380 9 -1.000000000000000e+00
1380 57 -1.000000000000000e+00
1380 163 -1.000000000000000e+00
1380 1380 3.000000000000000e+00
1381 121 -1.000000000000000e+00
1381 547 -1.000000000000000e+00
1381 639 -2.000000000000000e+00
1381 1381 4.000000000000000e+00
1382 192 -1.000000000000000e+00
1382 372 -1.000000000000000e+00
1382 439 -2.000000000000000e+00
1382 680 -1.000000000000000e+00
1382 1382 5.000000000000000e+00
1383 156 -1.000000000000000e+00
1383 662 -2.000000000000000e+00
1383 731 -1.000000000000000e+00
1383 1383 4.000000000000000e+00
1384 97 -1.000000000000000e+00
1384 972 -2.000000000000000e+00
1384 1064 -2.000000000000000e+00
1384 1384 5.000000000000000e+00
1385 11 -1.000000000000000e+00
1385 72 -1.000000000000000e+00
1385 256 -1.000000000000000e+00
1385 484 -1.000000000000000e+00
1385 649 -1.000000000000000e+00
1385 1385 5.000000000000000e+00
1386 8 -1.000000000000000e+00
1386 9 -1.000000000000000e+00
1386 378 -1.000000000000000e+00
1386 983 -2.000000000000000e+00
1386 1386 5.000000000000000e+00
1387 2 -1.000000000000000e+00
1387 305 -1.000000000000000e+00
1387 955 -1.000000000000000e+00
1387 1387 5.000000000000000e+00
1388 78 -1.000000000000000e+00
1388 152 -1.000000000000000e+00
1388 155 -1.000000000000000e+00
1388 634 -1.000000000000000e+00
1388 847 -1.000000000000000e+00
1388 1388 5.000000000000000e+00
1389 5 -2.000000000000000e+00
1389 107 -1.000000000000000e+00
1389 176 -1.000000000000000e+00
1389 695 -1.000000000000000e+00
1389 1389 5.000000000000000e+00
1390 24 -1.000000000000000e+00
1390 36 -2.000000000000000e+00
1390 104 -2.000000000000000e+00
1390 1390 5.000000000000000e+00
1391 5 -2.000000000000000e+00
1391 24 -1.000000000000000e+00
1391 37 -1.000000000000000e+00
1391 695 -1.000000000000000e+00
1391 1391 5.000000000000000e+00
1392 142 -1.000000000000000e+00
1392 408 -1.000000000000000e+00
1392 414 -1.000000000000000e+00
1392 522 -1.000000000000000e+00
1392 909 -1.000000000000000e+00
1392 1392 5.000000000000000e+00
1393 273 -1.000000000000000e+00
1393 383 -1.000000000000000e+00
1393 447 -1.000000000000000e+00
1393 488 -1.000000000000000e+00
1393 887 -1.000000000000000e+00
1393 1393 5.000000000000000e+00
1394 63 -1.000000000000000e+00
1394 166 -1.000000000000000e+00
1394 333 -2.000000000000000e+00
1394 1394 4.000000000000000e+00
1395 128 -1.000000000000000e+00
1395 306 -1.000000000000000e+00
1395 390 -1.000000000000000e+00
1395 1395 3.000000000000000e+00
1396 5 -1.000000000000000e+00
1396 24 -1.000000000000000e+00
1396 88 -1.000000000000000e+00
1396 98 -1.000000000000000e+00
1396 850 -1.000000000000000e+00
1396 1396 5.000000000000000e+00
1397 54 -2.000000000000000e+00
1397 279 -1.000000000000000e+00
1397 657 -2.000000000000000e+00
1397 1397 5.000000000000000e+00
1398 261 -1.000000000000000e+00
1398 282 -1.000000000000000e+00
1398 376 -2.000000000000000e+00
1398 884 -1.000000000000000e+00
1398 1398 5.000000000000000e+00
1399 50 -1.000000000000000e+00
1399 444 -1.000000000000000e+00
1399 1167 -2.000000000000000e+00
1399 1196 -1.000000000000000e+00
1399 1399 5.000000000000000e+00
1400 48 -1.000000000000000e+00
1400 90 -1.000000000000000e+00
1400 479 -2.000000000000000e+00
1400 613 -1.000000000000000e+00
1400 1400 6.000000000000000e+00
1401 382 -2.000000000000000e+00
1401 482 -1.000000000000000e+00
1401 841 -1.000000000000000e+00
1401 899 -1.000000000000000e+00
1401 1401 5.000000000000000e+00
1402 82 -2.000000000000000e+00
1402 335 -1.000000000000000e+00
1402 351 -1.000000000000000e+00
1402 398 -1.000000000000000e+00
1402 1402 5.000000000000000e+00
1403 7 -1.000000000000000e+00
1403 8 -1.000000000000000e+00
1403 292 -1.000000000000000e+00
1403 1403 3.000000000000000e+00
1404 5 -1.000000000000000e+00
1404 109 -1.000000000000000e+00
1404 315 -1.000000000000000e+00
1404 695 -1.000000000000000e+00
1404 872 -1.000000000000000e+00
1404 1404 5.000000000000000e+00
1405 30 -1.000000000000000e+00
1405 35 -1.000000000000000e+00
1405 118 -2.000000000000000e+00
1405 1358 -1.000000000000000e+00
1405 1405 6.000000000000000e+00
1406 107 -1.000000000000000e+00
1406 135 -2.000000000000000e+00
1406 518 -1.000000000000000e+00
1406 653 -1.000000000000000e+00
1406 1406 5.000000000000000e+00
1407 3 -1.000000000000000e+00
1407 7 -1.000000000000000e+00
1407 648 -1.000000000000000e+00
1407 845 -1.000000000000000e+00
1407 890 -1.000000000000000e+00
1407 1407 5.000000000000000e+00
1408 10 -1.000000000000000e+00
1408 230 -1.000000000000000e+00
1408 237 -1.000000000000000e+00
1408 920 -1.000000000000000e+00
1408 1223 -1.000000000000000e+00
1408 1408 5.000000000000000e+00
1409 4 -1.000000000000000e+00
1409 39 -2.000000000000000e+00
1409 491 -1.000000000000000e+00
1409 576 -1.000000000000000e+00
1409 1409 5.000000000000000e+00
1410 6 -1.000000000000000e+00
1410 87 -1.000000000000000e+00
1410 120 -1.000000000000000e+00
1410 193 -1.000000000000000e+00
1410 348 -1.000000000000000e+00
1410 1410 5.000000000000000e+00
1411 6 -1.000000000000000e+00
1411 66 -2.000000000000000e+00
1411 508 -1.000000000000000e+00
1411 704 -1.000000000000000e+00
1411 1411 5.000000000000000e+00
1412 16 -1.000000000000000e+00
1412 1057 -1.000000000000000e+00
1412 1200 -1.000000000000000e+00
1412 1412 3.000000000000000e+00
1413 93 -1.000000000000000e+00
1413 290 -1.000000000000000e+00
1413 510 -1.000000000000000e+00
1413 1134 -1.000000000000000e+00
1413 1149 -1.000000000000000e+00
1413 1413 5.000000000000000e+00
1414 15 -1.000000000000000e+00
1414 602 -2.000000000000000e+00
1414 630 -2.000000000000000e+00
1414 1414 5.000000000000000e+00
1415 280 -1.000000000000000e+00
1415 749 -1.000000000000000e+00
1415 1028 -2.000000000000000e+00
1415 1415 4.000000000000000e+00
1416 66 -1.000000000000000e+00
1416 273 -1.000000000000000e+00
1416 383 -1.000000000000000e+00
1416 488 -1.000000000000000e+00
1416 619 -1.000000000000000e+00
1416 1416 5.000000000000000e+00
1417 2 -1.000000000000000e+00
1417 22 -1.000000000000000e+00
1417 118 -1.000000000000000e+00
1417 294 -1.000000000000000e+00
1417 436 -1.000000000000000e+00
1417 1417 5.000000000000000e+00
1418 12 -1.000000000000000e+00
1418 58 -1.000000000000000e+00
1418 710 -1.000000000000000e+00
1418 1418 3.000000000000000e+00
1419 31 -1.000000000000000e+00
1419 100 -1.000000000000000e+00
1419 206 -1.000000000000000e+00
1419 289 -1.000000000000000e+00
1419 781 -1.000000000000000e+00
1419 1419 5.000000000000000e+00
1420 6 -1.000000000000000e+00
1420 246 -2.000000000000000e+00
1420 468 -2.000000000000000e+00
1420 1420 5.000000000000000e+00
1421 208 -2.000000000000000e+00
1421 253 -1.000000000000000e+00
1421 640 -1.000000000000000e+00
1421 926 -1.000000000000000e+00
1421 1421 5.000000000000000e+00
1422 24 -1.000000000000000e+00
1422 88 -2.000000000000000e+00
1422 243 -1.000000000000000e+00
1422 1181 -1.000000000000000e+00
1422 1422 5.000000000000000e+00
1423 132 -1.000000000000000e+00
1423 223 -1.000000000000000e+00
1423 432 -1.000000000000000e+00
1423 454 -1.000000000000000e+00
1423 1189 -1.000000000000000e+00
1423 1423 5.000000000000000e+00
1424 15 -2.000000000000000e+00
1424 60 -1.000000000000000e+00
1424 280 -1.000000000000000e+00
1424 650 -1.000000000000000e+00
1424 1424 5.000000000000000e+00
1425 23 -1.000000000000000e+00
1425 58 -1.000000000000000e+00
1425 308 -1.000000000000000e+00
1425 362 -1.000000000000000e+00
1425 374 -1.000000000000000e+00
1425 407 -1.000000000000000e+00
1425 522 -1.000000000000000e+00
1425 771 -1.000000000000000e+00
1425 817 -1.000000000000000e+00
1425 911 -1.000000000000000e+00
1425 957 -1.000000000000000e+00
1425 980 -1.000000000000000e+00
1425 1000 -1.000000000000000e+00
1425 1090 -1.000000000000000e+00
1425 1117 -1.000000000000000e+00
1425 1121 -1.000000000000000e+00
1425 1131 -1.000000000000000e+00
1425 1247 -1.000000000000000e+00
1425 1425 1.900000000000000e+01
1426 311 -1.000000000000000e+00
1426 496 -2.000000000000000e+00
1426 772 -1.000000000000000e+00
1426 1426 4.000000000000000e+00
1427 139 -2.000000000000000e+00
1427 265 -1.000000000000000e+00
1427 406 -1.000000000000000e+00
1427 652 -1.000000000000000e+00
1427 1427 5.000000000000000e+00
1428 4 -1.000000000000000e+00
1428 242 -1.000000000000000e+00
1428 642 -1.000000000000000e+00
1428 1076 -1.000000000000000e+00
1428 1344 -1.000000000000000e+00
1428 1428 5.000000000000000e+00
1429 7 -1.000000000000000e+00
1429 152 -2.000000000000000e+00
1429 155 -1.000000000000000e+00
1429 374 -1.000000000000000e+00
1429 1429 5.000000000000000e+00
1430 71 -1.000000000000000e+00
1430 398 -1.000000000000000e+00
1430 1171 -1.000000000000000e+00
1430 1300 -1.000000000000000e+00
1430 1430 7.000000000000000e+00
1431 5 -1.000000000000000e+00
1431 105 -1.000000000000000e+00
1431 268 -2.000000000000000e+00
1431 1315 -1.000000000000000e+00
1431 1431 5.000000000000000e+00
1432 27 -1.000000000000000e+00
1432 65 -1.000000000000000e+00
1432 150 -1.000000000000000e+00
1432 306 -2.000000000000000e+00
1432 1432 5.000000000000000e+00
1433 201 -1.000000000000000e+00
1433 227 -1.000000000000000e+00
1433 234 -1.000000000000000e+00
1433 800 -1.000000000000000e+00
1433 1058 -1.000000000000000e+00
1433 1433 5.000000000000000e+00
1434 8 -1.000000000000000e+00
1434 613 -2.000000000000000e+00
1434 628 -1.000000000000000e+00
1434 846 -1.000000000000000e+00
1434 1434 5.000000000000000e+00
1435 17 -1.000000000000000e+00
1435 26 -1.000000000000000e+00
1435 727 -1.000000000000000e+00
1435 1289 -1.000000000000000e+00
1435 1339 -1.000000000000000e+00
1435 1435 6.000000000000000e+00
1436 66 -1.000000000000000e+00
1436 252 -1.000000000000000e+00
1436 508 -2.000000000000000e+00
1436 931 -1.000000000000000e+00
1436 1436 5.000000000000000e+00
1437 578 -1.000000000000000e+00
1437 784 -1.000000000000000e+00
1437 1012 -2.000000000000000e+00
1437 1045 -1.000000000000000e+00
1437 1437 5.000000000000000e+00
1438 39 -1.000000000000000e+00
1438 85 -1.000000000000000e+00
1438 125 -1.000000000000000e+00
1438 263 -1.000000000000000e+00
1438 317 -1.000000000000000e+00
1438 1438 5.000000000000000e+00
1439 85 -1.000000000000000e+00
1439 263 -1.000000000000000e+00
1439 722 -1.000000000000000e+00
1439 1204 -1.000000000000000e+00
1439 1273 -1.000000000000000e+00
1439 1439 5.000000000000000e+00
1440 79 -1.000000000000000e+00
1440 256 -1.000000000000000e+00
1440 621 -1.000000000000000e+00
1440 1440 3.000000000000000e+00
1441 13 -1.000000000000000e+00
1441 21 -1.000000000000000e+00
1441 141 -2.000000000000000e+00
1441 416 -1.000000000000000e+00
1441 1441 5.000000000000000e+00
1442 129 -1.000000000000000e+00
1442 147 -1.000000000000000e+00
1442 229 -1.000000000000000e+00
1442 327 -1.000000000000000e+00
1442 942 -1.000000000000000e+00
1442 1442 5.000000000000000e+00
1443 132 -1.000000000000000e+00
1443 170 -1.000000000000000e+00
1443 201 -1.000000000000000e+00
1443 1443 3.000000000000000e+00
1444 84 -1.000000000000000e+00
1444 1300 -2.000000000000000e+00
1444 1430 -2.000000000000000e+00
1444 1444 5.000000000000000e+00
1445 256 -1.000000000000000e+00
1445 321 -2.000000000000000e+00
1445 950 -1.000000000000000e+00
1445 1304 -1.000000000000000e+00
1445 1445 5.000000000000000e+00
1446 55 -1.000000000000000e+00
1446 98 -2.000000000000000e+00
1446 219 -1.000000000000000e+00
1446 1010 -1.000000000000000e+00
1446 1446 5.000000000000000e+00
1447 406 -1.000000000000000e+00
1447 749 -1.000000000000000e+00
1447 961 -1.000000000000000e+00
1447 1447 3.000000000000000e+00
1448 15 -1.000000000000000e+00
1448 313 -1.000000000000000e+00
1448 798 -1.000000000000000e+00
1448 1448 3.000000000000000e+00
1449 6 -1.000000000000000e+00
1449 14 -1.000000000000000e+00
1449 350 -1.000000000000000e+00
1449 361 -1.000000000000000e+00
1449 582 -1.000000000000000e+00
1449 1449 5.000000000000000e+00
1450 120 -2.000000000000000e+00
1450 193 -1.000000000000000e+00
1450 348 -1.000000000000000e+00
1450 450 -1.000000000000000e+00
1450 1450 5.000000000000000e+00
1451 31 -1.000000000000000e+00
1451 217 -2.000000000000000e+00
1451 1192 -2.000000000000000e+00
1451 1451 5.000000000000000e+00
1452 46 -2.000000000000000e+00
1452 249 -1.000000000000000e+00
1452 407 -1.000000000000000e+00
1452 533 -1.000000000000000e+00
1452 1452 5.000000000000000e+00
1453 186 -1.000000000000000e+00
1453 209 -1.000000000000000e+00
1453 241 -1.000000000000000e+00
1453 661 -1.000000000000000e+00
1453 1063 -1.000000000000000e+00
1453 1453 5.000000000000000e+00
1454 5 -1.000000000000000e+00
1454 9 -1.000000000000000e+00
1454 894 -1.000000000000000e+00
1454 1454 3.000000000000000e+00
1455 37 -1.000000000000000e+00
1455 681 -1.000000000000000e+00
1455 1189 -1.000000000000000e+00
1455 1455 3.000000000000000e+00
1456 139 -1.000000000000000e+00
1456 344 -1.000000000000000e+00
1456 716 -1.000000000000000e+00
1456 1149 -1.000000000000000e+00
1456 1430 -1.000000000000000e+00
1456 1456 5.000000000000000e+00
1457 408 -1.000000000000000e+00
1457 412 -1.000000000000000e+00
1457 944 -1.000000000000000e+00
1457 1135 -2.000000000000000e+00
1457 1457 5.000000000000000e+00
1458 8 -2.000000000000000e+00
1458 277 -1.000000000000000e+00
1458 279 -1.000000000000000e+00
1458 1356 -1.000000000000000e+00
1458 1458 5.000000000000000e+00
1459 154 -1.000000000000000e+00
1459 451 -1.000000000000000e+00
1459 868 -1.000000000000000e+00
1459 942 -1.000000000000000e+00
1459 1041 -1.000000000000000e+00
1459 1459 5.000000000000000e+00
1460 497 -1.000000000000000e+00
1460 1049 -1.000000000000000e+00
1460 1329 -1.000000000000000e+00
1460 1460 3.000000000000000e+00
1461 6 -1.000000000000000e+00
1461 48 -1.000000000000000e+00
1461 418 -1.000000000000000e+00
1461 1013 -1.000000000000000e+00
1461 1295 -1.000000000000000e+00
1461 1461 5.000000000000000e+00
1462 170 -1.000000000000000e+00
1462 224 -1.000000000000000e+00
1462 259 -1.000000000000000e+00
1462 396 -1.000000000000000e+00
1462 494 -1.000000000000000e+00
1462 1462 5.000000000000000e+00
1463 109 -1.000000000000000e+00
1463 513 -1.000000000000000e+00
1463 1084 -1.000000000000000e+00
1463 1100 -2.000000000000000e+00
1463 1463 5.000000000000000e+00
1464 138 -1.000000000000000e+00
1464 408 -1.000000000000000e+00
1464 414 -2.000000000000000e+00
1464 652 -1.000000000000000e+00
1464 1464 5.000000000000000e+00
1465 79 -1.000000000000000e+00
1465 282 -1.000000000000000e+00
1465 563 -1.000000000000000e+00
1465 1301 -2.000000000000000e+00
1465 1465 5.000000000000000e+00
1466 5 -2.000000000000000e+00
1466 695 -1.000000000000000e+00
1466 831 -1.000000000000000e+00
1466 926 -1.000000000000000e+00
1466 1466 5.000000000000000e+00
1467 313 -1.000000000000000e+00
1467 505 -2.000000000000000e+00
1467 591 -1.000000000000000e+00
1467 769 -1.000000000000000e+00
1467 1467 5.000000000000000e+00
1468 4 -1.000000000000000e+00
1468 5 -1.000000000000000e+00
1468 28 -1.000000000000000e+00
1468 166 -1.000000000000000e+00
1468 370 -1.000000000000000e+00
1468 1468 5.000000000000000e+00
1469 391 -1.000000000000000e+00
1469 824 -1.000000000000000e+00
1469 1213 -1.000000000000000e+00
1469 1469 3.000000000000000e+00
1470 161 -1.000000000000000e+00
1470 233 -1.000000000000000e+00
1470 247 -2.000000000000000e+00
1470 739 -1.000000000000000e+00
1470 1470 5.000000000000000e+00
1471 197 -1.000000000000000e+00
1471 302 -1.000000000000000e+00
1471 335 -1.000000000000000e+00
1471 1471 3.000000000000000e+00
1472 15 -2.000000000000000e+00
1472 60 -1.000000000000000e+00
1472 1115 -1.000000000000000e+00
1472 1326 -1.000000000000000e+00
1472 1472 5.000000000000000e+00
1473 17 -1.000000000000000e+00
1473 36 -2.000000000000000e+00
1473 66 -1.000000000000000e+00
1473 104 -1.000000000000000e+00
1473 1473 5.000000000000000e+00
1474 162 -1.000000000000000e+00
1474 313 -2.000000000000000e+00
1474 505 -1.000000000000000e+00
1474 853 -1.000000000000000e+00
1474 1474 5.000000000000000e+00
1475 6 -1.000000000000000e+00
1475 1105 -1.000000000000000e+00
1475 1387 -2.000000000000000e+00
1475 1475 4.000000000000000e+00
1476 17 -1.000000000000000e+00
1476 26 -2.000000000000000e+00
1476 256 -1.000000000000000e+00
1476 1435 -1.000000000000000e+00
1476 1476 5.000000000000000e+00
1477 5 -1.000000000000000e+00
1477 27 -1.000000000000000e+00
1477 119 -1.000000000000000e+00
1477 263 -1.000000000000000e+00
1477 695 -1.000000000000000e+00
1477 1477 5.000000000000000e+00
1478 7 -1.000000000000000e+00
1478 8 -1.000000000000000e+00
1478 81 -1.000000000000000e+00
1478 244 -2.000000000000000e+00
1478 1478 5.000000000000000e+00
1479 35 -1.000000000000000e+00
1479 330 -1.000000000000000e+00
1479 547 -1.000000000000000e+00
1479 1479 3.000000000000000e+00
1480 282 -1.000000000000000e+00
1480 529 -1.000000000000000e+00
1480 600 -1.000000000000000e+00
1480 1009 -1.000000000000000e+00
1480 1271 -1.000000000000000e+00
1480 1480 5.000000000000000e+00
1481 27 -2.000000000000000e+00
1481 156 -1.000000000000000e+00
1481 352 -1.000000000000000e+00
1481 1087 -1.000000000000000e+00
1481 1481 5.000000000000000e+00
1482 8 -2.000000000000000e+00
1482 282 -1.000000000000000e+00
1482 664 -1.000000000000000e+00
1482 1356 -1.000000000000000e+00
1482 1482 5.000000000000000e+00
1483 297 -1.000000000000000e+00
1483 330 -1.000000000000000e+00
1483 488 -1.000000000000000e+00
1483 807 -1.000000000000000e+00
1483 1338 -1.000000000000000e+00
1483 1483 5.000000000000000e+00
1484 42 -1.000000000000000e+00
1484 82 -2.000000000000000e+00
1484 335 -1.000000000000000e+00
1484 1299 -1.000000000000000e+00
1484 1484 5.000000000000000e+00
1485 78 -2.000000000000000e+00
1485 250 -1.000000000000000e+00
1485 450 -2.000000000000000e+00
1485 1485 5.000000000000000e+00
1486 5 -2.000000000000000e+00
1486 78 -1.000000000000000e+00
1486 695 -1.000000000000000e+00
1486 1059 -1.000000000000000e+00
1486 1486 5.000000000000000e+00
1487 139 -1.000000000000000e+00
1487 267 -1.000000000000000e+00
1487 448 -1.000000000000000e+00
1487 1487 3.000000000000000e+00
1488 56 -1.000000000000000e+00
1488 568 -1.000000000000000e+00
1488 618 -1.000000000000000e+00
1488 1488 3.000000000000000e+00
1489 475 -1.000000000000000e+00
1489 738 -2.000000000000000e+00
1489 754 -1.000000000000000e+00
1489 1405 -1.000000000000000e+00
1489 1489 5.000000000000000e+00
1490 23 -2.000000000000000e+00
1490 58 -1.000000000000000e+00
1490 1247 -1.000000000000000e+00
1490 1298 -1.000000000000000e+00
1490 1490 5.000000000000000e+00
1491 4 -1.000000000000000e+00
1491 26 -1.000000000000000e+00
1491 476 -2.000000000000000e+00
1491 1054 -1.000000000000000e+00
1491 1491 5.000000000000000e+00
1492 53 -1.000000000000000e+00
1492 95 -1.000000000000000e+00
1492 114 -2.000000000000000e+00
1492 116 -1.000000000000000e+00
1492 1492 5.000000000000000e+00
1493 2 -1.000000000000000e+00
1493 616 -2.000000000000000e+00
1493 755 -2.000000000000000e+00
1493 1493 5.000000000000000e+00
1494 10 -1.000000000000000e+00
1494 34 -1.000000000000000e+00
1494 235 -1.000000000000000e+00
1494 547 -1.000000000000000e+00
1494 1126 -1.000000000000000e+00
1494 1494 5.000000000000000e+00
1495 57 -1.000000000000000e+00
1495 87 -1.000000000000000e+00
1495 456 -1.000000000000000e+00
1495 599 -1.000000000000000e+00
1495 1174 -1.000000000000000e+00
1495 1495 5.000000000000000e+00
1496 23 -2.000000000000000e+00
1496 111 -1.000000000000000e+00
1496 1247 -1.000000000000000e+00
1496 1425 -1.000000000000000e+00
1496 1496 5.000000000000000e+00
1497 11 -1.000000000000000e+00
1497 90 -1.000000000000000e+00
1497 479 -1.000000000000000e+00
1497 1025 -1.000000000000000e+00
1497 1400 -1.000000000000000e+00
1497 1497 5.000000000000000e+00
1498 117 -1.000000000000000e+00
1498 153 -1.000000000000000e+00
1498 775 -2.000000000000000e+00
1498 1116 -1.000000000000000e+00
1498 1498 5.000000000000000e+00
1499 30 -1.000000000000000e+00
1499 47 -1.000000000000000e+00
1499 118 -2.000000000000000e+00
1499 190 -1.000000000000000e+00
1499 1499 5.000000000000000e+00
1500 574 -1.000000000000000e+00
1500 758 -1.000000000000000e+00
1500 814 -1.000000000000000e+00
1500 891 -2.000000000000000e+00
1500 1500 5.000000000000000e+00
