%%MatrixMarket matrix coordinate integer symmetric
%
1500 1500 5991
1 1 56
2 1 -1
2 2 38
3 1 -1
3 3 4
4 1 -1
4 4 62
5 1 -1
5 3 -1
5 4 -1
5 5 125
6 1 -1
6 2 -1
6 5 -1
6 6 103
7 1 -1
7 3 -1
7 6 -1
7 7 101
8 1 -1
8 6 -1
8 7 -1
8 8 96
9 2 -1
9 6 -1
9 7 -1
9 9 56
10 5 -1
10 6 -1
10 8 -1
10 10 41
11 1 -1
11 5 -1
11 8 -1
11 11 49
12 5 -1
12 6 -1
12 7 -1
12 12 16
13 2 -1
13 5 -1
13 7 -1
13 13 68
14 1 -1
14 4 -1
14 7 -1
14 14 23
15 4 -1
15 8 -1
15 9 -1
15 15 31
16 6 -1
16 8 -1
16 13 -1
16 16 19
17 5 -1
17 6 -1
17 15 -1
17 17 38
18 6 -1
18 11 -1
18 15 -1
18 18 8
19 1 -1
19 4 -1
19 6 -1
19 19 19
20 4 -1
20 8 -1
20 11 -1
20 20 19
21 5 -1
21 6 -1
21 8 -1
21 21 21
22 1 -1
22 5 -1
22 8 -1
22 22 15
23 9 -1
23 13 -1
23 17 -1
23 23 47
24 6 -1
24 11 -1
24 21 -1
24 24 21
25 6 -1
25 7 -1
25 11 -1
25 25 6
26 1 -1
26 5 -1
26 8 -1
26 26 38
27 7 -1
27 10 -1
27 26 -1
27 27 32
28 4 -1
28 15 -1
28 23 -1
28 28 14
29 7 -1
29 17 -1
29 27 -1
29 29 18
30 4 -1
30 5 -1
30 13 -1
30 30 18
31 5 -1
31 8 -1
31 15 -1
31 31 24
32 2 -1
32 6 -1
32 23 -1
32 32 16
33 2 -1
33 15 -1
33 31 -1
33 33 14
34 6 -1
34 8 -1
34 20 -1
34 34 27
35 4 -1
35 5 -1
35 23 -1
35 35 48
36 9 -1
36 14 -1
36 35 -1
36 36 9
37 4 -1
37 26 -1
37 27 -1
37 37 13
38 5 -1
38 28 -1
38 35 -1
38 38 13
39 5 -1
39 6 -1
39 28 -1
39 39 19
40 7 -1
40 9 -1
40 25 -1
40 40 10
41 7 -1
41 11 -1
41 35 -1
41 41 5
42 1 -1
42 8 -1
42 40 -1
42 42 21
43 10 -1
43 30 -1
43 37 -1
43 43 15
44 1 -1
44 2 -1
44 7 -1
44 44 15
45 4 -1
45 6 -1
45 8 -1
45 45 7
46 7 -1
46 23 -1
46 26 -1
46 46 27
47 4 -1
47 7 -1
47 13 -1
47 47 17
48 2 -1
48 13 -1
48 26 -1
48 48 23
49 11 -1
49 15 -1
49 17 -1
49 49 13
50 1 -1
50 8 -1
50 42 -1
50 50 15
51 4 -1
51 13 -1
51 46 -1
51 51 16
52 2 -1
52 7 -1
52 13 -1
52 52 17
53 5 -1
53 20 -1
53 35 -1
53 53 8
54 1 -1
54 11 -1
54 17 -1
54 54 13
55 1 -1
55 31 -1
55 45 -1
55 55 14
56 5 -1
56 13 -1
56 34 -1
56 56 8
57 5 -1
57 6 -1
57 8 -1
57 57 48
58 7 -1
58 10 -1
58 24 -1
58 58 7
59 5 -1
59 8 -1
59 9 -1
59 59 19
60 14 -1
60 15 -1
60 44 -1
60 60 11
61 11 -1
61 26 -1
61 50 -1
61 61 17
62 9 -1
62 17 -1
62 55 -1
62 62 11
63 1 -1
63 5 -1
63 62 -1
63 63 10
64 11 -1
64 30 -1
64 35 -1
64 64 3
65 7 -1
65 8 -1
65 35 -1
65 65 21
66 4 -1
66 26 -1
66 42 -1
66 66 14
67 7 -1
67 11 -1
67 17 -1
67 67 11
68 1 -1
68 5 -1
68 32 -1
68 68 6
69 1 -1
69 13 -1
69 23 -1
69 69 12
70 2 -1
70 5 -1
70 22 -1
70 70 17
71 2 -1
71 30 -1
71 57 -1
71 71 21
72 6 -1
72 9 -1
72 23 -1
72 72 24
73 5 -1
73 6 -1
73 47 -1
73 73 5
74 21 -1
74 27 -1
74 50 -1
74 74 16
75 1 -1
75 5 -1
75 8 -1
75 75 16
76 4 -1
76 52 -1
76 65 -1
76 76 9
77 7 -1
77 20 -1
77 24 -1
77 77 23
78 7 -1
78 70 -1
78 72 -1
78 78 19
79 4 -1
79 5 -1
79 38 -1
79 79 20
80 6 -1
80 14 -1
80 40 -1
80 80 9
81 6 -1
81 9 -1
81 28 -1
81 81 15
82 4 -1
82 43 -1
82 77 -1
82 82 37
83 8 -1
83 26 -1
83 59 -1
83 83 5
84 6 -1
84 7 -1
84 9 -1
84 84 6
85 5 -1
85 26 -1
85 32 -1
85 85 18
86 5 -1
86 6 -1
86 77 -1
86 86 17
87 4 -1
87 6 -1
87 8 -1
87 87 10
88 8 -1
88 15 -1
88 49 -1
88 88 7
89 9 -1
89 19 -1
89 27 -1
89 89 11
90 16 -1
90 46 -1
90 82 -1
90 90 7
91 12 -1
91 20 -1
91 79 -1
91 91 3
92 6 -1
92 7 -1
92 19 -1
92 92 18
93 23 -1
93 47 -1
93 86 -1
93 93 10
94 5 -1
94 7 -1
94 23 -1
94 94 11
95 1 -1
95 2 -1
95 68 -1
95 95 18
96 1 -1
96 11 -1
96 70 -1
96 96 27
97 4 -1
97 52 -1
97 81 -1
97 97 10
98 13 -1
98 14 -1
98 54 -1
98 98 19
99 11 -1
99 13 -1
99 96 -1
99 99 15
100 7 -1
100 13 -1
100 57 -1
100 100 21
101 12 -1
101 32 -1
101 89 -1
101 101 10
102 13 -1
102 30 -1
102 94 -1
102 102 12
103 17 -1
103 35 -1
103 90 -1
103 103 16
104 1 -1
104 15 -1
104 72 -1
104 104 19
105 6 -1
105 12 -1
105 26 -1
105 105 8
106 6 -1
106 10 -1
106 102 -1
106 106 13
107 17 -1
107 75 -1
107 103 -1
107 107 16
108 7 -1
108 57 -1
108 86 -1
108 108 10
109 38 -1
109 48 -1
109 57 -1
109 109 16
110 11 -1
110 44 -1
110 71 -1
110 110 4
111 8 -1
111 43 -1
111 45 -1
111 111 12
112 5 -1
112 8 -1
112 57 -1
112 112 5
113 4 -1
113 11 -1
113 57 -1
113 113 10
114 5 -1
114 16 -1
114 95 -1
114 114 21
115 7 -1
115 11 -1
115 16 -1
115 115 10
116 15 -1
116 26 -1
116 63 -1
116 116 21
117 17 -1
117 45 -1
117 52 -1
117 117 13
118 30 -1
118 78 -1
118 96 -1
118 118 31
119 7 -1
119 55 -1
119 115 -1
119 119 10
120 4 -1
120 7 -1
120 117 -1
120 120 4
121 1 -1
121 52 -1
121 98 -1
121 121 14
122 17 -1
122 21 -1
122 26 -1
122 122 8
123 5 -1
123 14 -1
123 23 -1
123 123 15
124 2 -1
124 8 -1
124 30 -1
124 124 7
125 39 -1
125 62 -1
125 75 -1
125 125 5
126 5 -1
126 38 -1
126 98 -1
126 126 7
127 8 -1
127 17 -1
127 46 -1
127 127 7
128 12 -1
128 19 -1
128 46 -1
128 128 8
129 5 -1
129 13 -1
129 52 -1
129 129 11
130 2 -1
130 11 -1
130 60 -1
130 130 9
131 5 -1
131 48 -1
131 112 -1
131 131 10
132 31 -1
132 38 -1
132 130 -1
132 132 16
133 8 -1
133 54 -1
133 76 -1
133 133 11
134 5 -1
134 9 -1
134 99 -1
134 134 5
135 7 -1
135 16 -1
135 121 -1
135 135 16
136 5 -1
136 17 -1
136 81 -1
136 136 6
137 13 -1
137 27 -1
137 35 -1
137 137 13
138 1 -1
138 24 -1
138 25 -1
138 138 9
139 4 -1
139 10 -1
139 56 -1
139 139 15
140 7 -1
140 35 -1
140 39 -1
140 140 11
141 21 -1
141 46 -1
141 117 -1
141 141 6
142 30 -1
142 35 -1
142 99 -1
142 142 9
143 47 -1
143 109 -1
143 131 -1
143 143 7
144 7 -1
144 13 -1
144 31 -1
144 144 4
145 6 -1
145 99 -1
145 140 -1
145 145 6
146 6 -1
146 21 -1
146 34 -1
146 146 4
147 60 -1
147 129 -1
147 137 -1
147 147 6
148 27 -1
148 30 -1
148 140 -1
148 148 6
149 13 -1
149 23 -1
149 99 -1
149 149 5
150 15 -1
150 24 -1
150 49 -1
150 150 9
151 8 -1
151 13 -1
151 123 -1
151 151 9
152 6 -1
152 10 -1
152 150 -1
152 152 11
153 35 -1
153 41 -1
153 47 -1
153 153 19
154 34 -1
154 63 -1
154 82 -1
154 154 9
155 13 -1
155 139 -1
155 152 -1
155 155 4
156 1 -1
156 42 -1
156 116 -1
156 156 11
157 9 -1
157 36 -1
157 44 -1
157 157 23
158 15 -1
158 51 -1
158 151 -1
158 158 11
159 51 -1
159 63 -1
159 135 -1
159 159 10
160 4 -1
160 6 -1
160 90 -1
160 160 4
161 95 -1
161 119 -1
161 147 -1
161 161 10
162 8 -1
162 23 -1
162 60 -1
162 162 18
163 8 -1
163 48 -1
163 153 -1
163 163 14
164 10 -1
164 11 -1
164 17 -1
164 164 7
165 22 -1
165 70 -1
165 105 -1
165 165 11
166 1 -1
166 46 -1
166 62 -1
166 166 9
167 57 -1
167 72 -1
167 103 -1
167 167 4
168 20 -1
168 23 -1
168 69 -1
168 168 9
169 14 -1
169 94 -1
169 157 -1
169 169 8
170 7 -1
170 11 -1
170 124 -1
170 170 9
171 1 -1
171 72 -1
171 92 -1
171 171 8
172 95 -1
172 141 -1
172 161 -1
172 172 6
173 11 -1
173 98 -1
173 126 -1
173 173 6
174 96 -1
174 129 -1
174 130 -1
174 174 9
175 2 -1
175 12 -1
175 13 -1
175 175 3
176 27 -1
176 43 -1
176 116 -1
176 176 6
177 46 -1
177 106 -1
177 109 -1
177 177 4
178 16 -1
178 46 -1
178 47 -1
178 178 5
179 7 -1
179 23 -1
179 104 -1
179 179 6
180 8 -1
180 62 -1
180 147 -1
180 180 5
181 1 -1
181 106 -1
181 142 -1
181 181 4
182 75 -1
182 101 -1
182 107 -1
182 182 8
183 113 -1
183 150 -1
183 162 -1
183 183 3
184 16 -1
184 76 -1
184 154 -1
184 184 8
185 32 -1
185 61 -1
185 165 -1
185 185 6
186 96 -1
186 100 -1
186 179 -1
186 186 8
187 6 -1
187 35 -1
187 109 -1
187 187 9
188 1 -1
188 71 -1
188 80 -1
188 188 5
189 7 -1
189 19 -1
189 87 -1
189 189 8
190 28 -1
190 46 -1
190 135 -1
190 190 9
191 6 -1
191 22 -1
191 121 -1
191 191 10
192 6 -1
192 7 -1
192 172 -1
192 192 11
193 5 -1
193 7 -1
193 11 -1
193 193 8
194 35 -1
194 78 -1
194 99 -1
194 194 12
195 5 -1
195 162 -1
195 180 -1
195 195 5
196 8 -1
196 9 -1
196 35 -1
196 196 6
197 49 -1
197 159 -1
197 162 -1
197 197 7
198 5 -1
198 61 -1
198 194 -1
198 198 10
199 116 -1
199 139 -1
199 149 -1
199 199 10
200 7 -1
200 42 -1
200 121 -1
200 200 17
201 1 -1
201 7 -1
201 157 -1
201 201 12
202 8 -1
202 98 -1
202 181 -1
202 202 5
203 85 -1
203 94 -1
203 97 -1
203 203 6
204 13 -1
204 82 -1
204 101 -1
204 204 7
205 9 -1
205 96 -1
205 118 -1
205 205 9
206 31 -1
206 57 -1
206 80 -1
206 206 6
207 13 -1
207 31 -1
207 82 -1
207 207 14
208 20 -1
208 34 -1
208 134 -1
208 208 7
209 25 -1
209 131 -1
209 145 -1
209 209 16
210 19 -1
210 116 -1
210 153 -1
210 210 11
211 6 -1
211 74 -1
211 145 -1
211 211 4
212 94 -1
212 136 -1
212 137 -1
212 212 6
213 10 -1
213 133 -1
213 200 -1
213 213 3
214 1 -1
214 2 -1
214 166 -1
214 214 15
215 35 -1
215 105 -1
215 129 -1
215 215 9
216 135 -1
216 187 -1
216 209 -1
216 216 4
217 5 -1
217 78 -1
217 170 -1
217 217 6
218 81 -1
218 152 -1
218 169 -1
218 218 10
219 13 -1
219 118 -1
219 136 -1
219 219 9
220 15 -1
220 35 -1
220 163 -1
220 220 6
221 47 -1
221 100 -1
221 135 -1
221 221 8
222 5 -1
222 24 -1
222 57 -1
222 222 4
223 5 -1
223 32 -1
223 196 -1
223 223 8
224 15 -1
224 32 -1
224 42 -1
224 224 8
225 5 -1
225 26 -1
225 161 -1
225 225 10
226 8 -1
226 92 -1
226 115 -1
226 226 3
227 51 -1
227 52 -1
227 115 -1
227 227 8
228 8 -1
228 55 -1
228 98 -1
228 228 7
229 31 -1
229 82 -1
229 147 -1
229 229 10
230 1 -1
230 10 -1
230 164 -1
230 230 12
231 21 -1
231 23 -1
231 80 -1
231 231 17
232 8 -1
232 10 -1
232 225 -1
232 232 5
233 8 -1
233 14 -1
233 17 -1
233 233 9
234 9 -1
234 10 -1
234 209 -1
234 234 7
235 4 -1
235 32 -1
235 34 -1
235 235 7
236 10 -1
236 165 -1
236 232 -1
236 236 7
237 72 -1
237 162 -1
237 196 -1
237 237 8
238 11 -1
238 79 -1
238 129 -1
238 238 5
239 10 -1
239 74 -1
239 210 -1
239 239 19
240 40 -1
240 44 -1
240 59 -1
240 240 4
241 12 -1
241 71 -1
241 201 -1
241 241 10
242 4 -1
242 130 -1
242 200 -1
242 242 11
243 29 -1
243 56 -1
243 71 -1
243 243 15
244 57 -1
244 81 -1
244 239 -1
244 244 9
245 38 -1
245 86 -1
245 241 -1
245 245 6
246 106 -1
246 208 -1
246 237 -1
246 246 7
247 6 -1
247 11 -1
247 162 -1
247 247 8
248 15 -1
248 122 -1
248 185 -1
248 248 12
249 27 -1
249 60 -1
249 229 -1
249 249 7
250 7 -1
250 161 -1
250 176 -1
250 250 5
251 6 -1
251 92 -1
251 137 -1
251 251 6
252 9 -1
252 127 -1
252 151 -1
252 252 6
253 86 -1
253 160 -1
253 220 -1
253 253 12
254 5 -1
254 35 -1
254 152 -1
254 254 7
255 107 -1
255 115 -1
255 152 -1
255 255 8
256 2 -1
256 11 -1
256 187 -1
256 256 20
257 14 -1
257 152 -1
257 162 -1
257 257 8
258 31 -1
258 95 -1
258 253 -1
258 258 7
259 5 -1
259 33 -1
259 87 -1
259 259 11
260 6 -1
260 13 -1
260 157 -1
260 260 6
261 157 -1
261 162 -1
261 198 -1
261 261 5
262 8 -1
262 94 -1
262 225 -1
262 262 4
263 13 -1
263 118 -1
263 172 -1
263 263 7
264 7 -1
264 26 -1
264 114 -1
264 264 7
265 4 -1
265 6 -1
265 75 -1
265 265 6
266 31 -1
266 96 -1
266 117 -1
266 266 6
267 13 -1
267 56 -1
267 193 -1
267 267 9
268 6 -1
268 8 -1
268 13 -1
268 268 5
269 6 -1
269 15 -1
269 249 -1
269 269 6
270 142 -1
270 170 -1
270 193 -1
270 270 6
271 5 -1
271 239 -1
271 262 -1
271 271 5
272 32 -1
272 166 -1
272 246 -1
272 272 5
273 9 -1
273 156 -1
273 171 -1
273 273 7
274 35 -1
274 72 -1
274 79 -1
274 274 10
275 4 -1
275 35 -1
275 59 -1
275 275 6
276 108 -1
276 202 -1
276 230 -1
276 276 4
277 129 -1
277 165 -1
277 192 -1
277 277 6
278 13 -1
278 52 -1
278 61 -1
278 278 3
279 116 -1
279 191 -1
279 258 -1
279 279 7
280 2 -1
280 158 -1
280 243 -1
280 280 11
281 70 -1
281 89 -1
281 108 -1
281 281 4
282 6 -1
282 7 -1
282 82 -1
282 282 17
283 44 -1
283 69 -1
283 111 -1
283 283 4
284 114 -1
284 186 -1
284 257 -1
284 284 6
285 11 -1
285 23 -1
285 239 -1
285 285 3
286 77 -1
286 157 -1
286 187 -1
286 286 6
287 14 -1
287 92 -1
287 118 -1
287 287 6
288 113 -1
288 118 -1
288 207 -1
288 288 3
289 28 -1
289 100 -1
289 118 -1
289 289 5
290 5 -1
290 26 -1
290 81 -1
290 290 6
291 7 -1
291 46 -1
291 75 -1
291 291 4
292 8 -1
292 100 -1
292 245 -1
292 292 9
293 13 -1
293 19 -1
293 97 -1
293 293 4
294 22 -1
294 103 -1
294 192 -1
294 294 4
295 4 -1
295 130 -1
295 221 -1
295 295 3
296 28 -1
296 171 -1
296 260 -1
296 296 6
297 6 -1
297 89 -1
297 199 -1
297 297 15
298 10 -1
298 34 -1
298 72 -1
298 298 6
299 21 -1
299 66 -1
299 117 -1
299 299 3
300 10 -1
300 46 -1
300 57 -1
300 300 5
301 5 -1
301 42 -1
301 284 -1
301 301 7
302 27 -1
302 140 -1
302 171 -1
302 302 11
303 11 -1
303 200 -1
303 218 -1
303 303 5
304 5 -1
304 54 -1
304 55 -1
304 304 7
305 9 -1
305 107 -1
305 280 -1
305 305 15
306 2 -1
306 7 -1
306 88 -1
306 306 9
307 34 -1
307 78 -1
307 264 -1
307 307 7
308 31 -1
308 210 -1
308 273 -1
308 308 6
309 9 -1
309 105 -1
309 268 -1
309 309 3
310 75 -1
310 133 -1
310 157 -1
310 310 7
311 6 -1
311 139 -1
311 297 -1
311 311 9
312 24 -1
312 86 -1
312 204 -1
312 312 7
313 24 -1
313 194 -1
313 215 -1
313 313 10
314 37 -1
314 137 -1
314 256 -1
314 314 5
315 7 -1
315 74 -1
315 217 -1
315 315 13
316 7 -1
316 31 -1
316 65 -1
316 316 6
317 31 -1
317 57 -1
317 85 -1
317 317 11
318 5 -1
318 7 -1
318 29 -1
318 318 4
319 4 -1
319 8 -1
319 47 -1
319 319 9
320 157 -1
320 206 -1
320 210 -1
320 320 10
321 9 -1
321 11 -1
321 35 -1
321 321 7
322 26 -1
322 38 -1
322 94 -1
322 322 6
323 100 -1
323 199 -1
323 243 -1
323 323 7
324 23 -1
324 158 -1
324 238 -1
324 324 8
325 7 -1
325 8 -1
325 83 -1
325 325 10
326 35 -1
326 78 -1
326 272 -1
326 326 7
327 13 -1
327 118 -1
327 229 -1
327 327 6
328 71 -1
328 99 -1
328 322 -1
328 328 5
329 37 -1
329 80 -1
329 189 -1
329 329 5
330 54 -1
330 137 -1
330 161 -1
330 330 11
331 52 -1
331 94 -1
331 157 -1
331 331 3
332 6 -1
332 15 -1
332 60 -1
332 332 6
333 82 -1
333 108 -1
333 274 -1
333 333 6
334 23 -1
334 61 -1
334 259 -1
334 334 9
335 7 -1
335 102 -1
335 153 -1
335 335 8
336 23 -1
336 74 -1
336 163 -1
336 336 3
337 46 -1
337 107 -1
337 242 -1
337 337 5
338 96 -1
338 174 -1
338 325 -1
338 338 5
339 47 -1
339 71 -1
339 172 -1
339 339 5
340 8 -1
340 17 -1
340 34 -1
340 340 5
341 8 -1
341 254 -1
341 307 -1
341 341 8
342 5 -1
342 27 -1
342 153 -1
342 342 9
343 5 -1
343 12 -1
343 43 -1
343 343 6
344 6 -1
344 9 -1
344 118 -1
344 344 6
345 7 -1
345 13 -1
345 297 -1
345 345 6
346 8 -1
346 11 -1
346 187 -1
346 346 8
347 7 -1
347 123 -1
347 305 -1
347 347 6
348 127 -1
348 193 -1
348 301 -1
348 348 7
349 4 -1
349 324 -1
349 339 -1
349 349 4
350 231 -1
350 241 -1
350 282 -1
350 350 14
351 5 -1
351 8 -1
351 113 -1
351 351 4
352 11 -1
352 27 -1
352 82 -1
352 352 3
353 17 -1
353 192 -1
353 200 -1
353 353 6
354 35 -1
354 218 -1
354 256 -1
354 354 3
355 26 -1
355 116 -1
355 224 -1
355 355 4
356 3 -1
356 116 -1
356 279 -1
356 356 3
357 8 -1
357 11 -1
357 157 -1
357 357 5
358 130 -1
358 250 -1
358 357 -1
358 358 3
359 5 -1
359 118 -1
359 305 -1
359 359 6
360 23 -1
360 100 -1
360 142 -1
360 360 5
361 200 -1
361 218 -1
361 334 -1
361 361 7
362 23 -1
362 72 -1
362 86 -1
362 362 4
363 7 -1
363 57 -1
363 209 -1
363 363 5
364 36 -1
364 67 -1
364 282 -1
364 364 7
365 4 -1
365 6 -1
365 57 -1
365 365 4
366 8 -1
366 85 -1
366 118 -1
366 366 6
367 108 -1
367 190 -1
367 287 -1
367 367 5
368 7 -1
368 272 -1
368 315 -1
368 368 6
369 9 -1
369 102 -1
369 265 -1
369 369 6
370 4 -1
370 51 -1
370 350 -1
370 370 9
371 10 -1
371 92 -1
371 192 -1
371 371 5
372 5 -1
372 96 -1
372 350 -1
372 372 7
373 49 -1
373 174 -1
373 207 -1
373 373 3
374 6 -1
374 308 -1
374 371 -1
374 374 7
375 230 -1
375 239 -1
375 334 -1
375 375 4
376 261 -1
376 314 -1
376 374 -1
376 376 7
377 57 -1
377 132 -1
377 223 -1
377 377 3
378 6 -1
378 48 -1
378 114 -1
378 378 9
379 33 -1
379 135 -1
379 326 -1
379 379 4
380 26 -1
380 107 -1
380 267 -1
380 380 4
381 27 -1
381 46 -1
381 153 -1
381 381 3
382 72 -1
382 230 -1
382 346 -1
382 382 9
383 9 -1
383 57 -1
383 304 -1
383 383 7
384 7 -1
384 94 -1
384 315 -1
384 384 8
385 1 -1
385 48 -1
385 283 -1
385 385 6
386 34 -1
386 184 -1
386 324 -1
386 386 6
387 55 -1
387 58 -1
387 59 -1
387 387 4
388 7 -1
388 35 -1
388 118 -1
388 388 4
389 28 -1
389 207 -1
389 242 -1
389 389 3
390 10 -1
390 42 -1
390 50 -1
390 390 6
391 10 -1
391 51 -1
391 65 -1
391 391 8
392 2 -1
392 72 -1
392 306 -1
392 392 4
393 23 -1
393 117 -1
393 134 -1
393 393 8
394 5 -1
394 8 -1
394 23 -1
394 394 4
395 82 -1
395 248 -1
395 259 -1
395 395 9
396 10 -1
396 35 -1
396 170 -1
396 396 7
397 42 -1
397 239 -1
397 366 -1
397 397 3
398 4 -1
398 123 -1
398 126 -1
398 398 10
399 23 -1
399 57 -1
399 75 -1
399 399 8
400 101 -1
400 162 -1
400 343 -1
400 400 4
401 46 -1
401 317 -1
401 318 -1
401 401 6
402 8 -1
402 47 -1
402 321 -1
402 402 4
403 7 -1
403 57 -1
403 111 -1
403 403 8
404 11 -1
404 239 -1
404 305 -1
404 404 8
405 20 -1
405 174 -1
405 293 -1
405 405 4
406 19 -1
406 139 -1
406 315 -1
406 406 6
407 76 -1
407 266 -1
407 333 -1
407 407 8
408 7 -1
408 8 -1
408 165 -1
408 408 6
409 27 -1
409 170 -1
409 205 -1
409 409 5
410 18 -1
410 79 -1
410 205 -1
410 410 4
411 6 -1
411 9 -1
411 42 -1
411 411 7
412 4 -1
412 43 -1
412 149 -1
412 412 7
413 95 -1
413 153 -1
413 244 -1
413 413 8
414 2 -1
414 52 -1
414 133 -1
414 414 5
415 5 -1
415 30 -1
415 214 -1
415 415 4
416 26 -1
416 304 -1
416 399 -1
416 416 6
417 65 -1
417 93 -1
417 220 -1
417 417 4
418 51 -1
418 96 -1
418 287 -1
418 418 4
419 7 -1
419 21 -1
419 123 -1
419 419 9
420 8 -1
420 253 -1
420 350 -1
420 420 8
421 28 -1
421 63 -1
421 346 -1
421 421 3
422 96 -1
422 104 -1
422 332 -1
422 422 5
423 4 -1
423 82 -1
423 323 -1
423 423 9
424 31 -1
424 51 -1
424 57 -1
424 424 6
425 4 -1
425 7 -1
425 253 -1
425 425 8
426 13 -1
426 65 -1
426 156 -1
426 426 4
427 4 -1
427 8 -1
427 184 -1
427 427 3
428 182 -1
428 255 -1
428 256 -1
428 428 4
429 57 -1
429 114 -1
429 257 -1
429 429 4
430 77 -1
430 163 -1
430 325 -1
430 430 6
431 5 -1
431 59 -1
431 426 -1
431 431 6
432 8 -1
432 139 -1
432 227 -1
432 432 8
433 4 -1
433 19 -1
433 320 -1
433 433 4
434 83 -1
434 96 -1
434 282 -1
434 434 5
435 7 -1
435 34 -1
435 211 -1
435 435 3
436 22 -1
436 34 -1
436 59 -1
436 436 6
437 10 -1
437 96 -1
437 370 -1
437 437 5
438 6 -1
438 14 -1
438 313 -1
438 438 4
439 81 -1
439 372 -1
439 404 -1
439 439 7
440 48 -1
440 71 -1
440 92 -1
440 440 6
441 51 -1
441 282 -1
441 325 -1
441 441 6
442 8 -1
442 194 -1
442 256 -1
442 442 11
443 6 -1
443 306 -1
443 307 -1
443 443 4
444 70 -1
444 71 -1
444 251 -1
444 444 9
445 70 -1
445 254 -1
445 375 -1
445 445 10
446 8 -1
446 248 -1
446 275 -1
446 446 4
447 7 -1
447 8 -1
447 133 -1
447 447 7
448 66 -1
448 148 -1
448 256 -1
448 448 6
449 194 -1
449 411 -1
449 440 -1
449 449 4
450 18 -1
450 38 -1
450 231 -1
450 450 8
451 89 -1
451 124 -1
451 207 -1
451 451 13
452 13 -1
452 50 -1
452 72 -1
452 452 6
453 6 -1
453 8 -1
453 11 -1
453 453 5
454 55 -1
454 104 -1
454 153 -1
454 454 7
455 5 -1
455 102 -1
455 410 -1
455 455 7
456 2 -1
456 92 -1
456 372 -1
456 456 6
457 4 -1
457 5 -1
457 21 -1
457 457 6
458 1 -1
458 93 -1
458 248 -1
458 458 5
459 62 -1
459 161 -1
459 405 -1
459 459 3
460 14 -1
460 122 -1
460 165 -1
460 460 3
461 7 -1
461 39 -1
461 90 -1
461 461 9
462 7 -1
462 57 -1
462 81 -1
462 462 3
463 137 -1
463 157 -1
463 189 -1
463 463 3
464 27 -1
464 72 -1
464 256 -1
464 464 8
465 13 -1
465 312 -1
465 347 -1
465 465 5
466 33 -1
466 423 -1
466 453 -1
466 466 6
467 209 -1
467 316 -1
467 359 -1
467 467 3
468 6 -1
468 45 -1
468 307 -1
468 468 7
469 61 -1
469 130 -1
469 330 -1
469 469 3
470 77 -1
470 306 -1
470 338 -1
470 470 3
471 1 -1
471 9 -1
471 223 -1
471 471 5
472 12 -1
472 21 -1
472 48 -1
472 472 5
473 77 -1
473 82 -1
473 191 -1
473 473 3
474 48 -1
474 59 -1
474 403 -1
474 474 5
475 114 -1
475 225 -1
475 411 -1
475 475 4
476 118 -1
476 313 -1
476 324 -1
476 476 9
477 71 -1
477 220 -1
477 297 -1
477 477 3
478 43 -1
478 256 -1
478 450 -1
478 478 4
479 107 -1
479 150 -1
479 297 -1
479 479 7
480 77 -1
480 86 -1
480 159 -1
480 480 5
481 32 -1
481 108 -1
481 313 -1
481 481 3
482 68 -1
482 78 -1
482 287 -1
482 482 6
483 1 -1
483 78 -1
483 221 -1
483 483 13
484 46 -1
484 86 -1
484 259 -1
484 484 7
485 49 -1
485 327 -1
485 472 -1
485 485 6
486 4 -1
486 9 -1
486 67 -1
486 486 3
487 31 -1
487 69 -1
487 298 -1
487 487 7
488 44 -1
488 92 -1
488 383 -1
488 488 9
489 55 -1
489 82 -1
489 239 -1
489 489 6
490 7 -1
490 8 -1
490 114 -1
490 490 3
491 86 -1
491 93 -1
491 292 -1
491 491 6
492 7 -1
492 28 -1
492 413 -1
492 492 3
493 5 -1
493 57 -1
493 74 -1
493 493 3
494 13 -1
494 231 -1
494 398 -1
494 494 10
495 13 -1
495 109 -1
495 274 -1
495 495 4
496 9 -1
496 29 -1
496 77 -1
496 496 6
497 77 -1
497 254 -1
497 383 -1
497 497 7
498 15 -1
498 35 -1
498 395 -1
498 498 4
499 256 -1
499 296 -1
499 386 -1
499 499 3
500 422 -1
500 442 -1
500 464 -1
500 500 5
501 21 -1
501 315 -1
501 419 -1
501 501 3
502 11 -1
502 71 -1
502 186 -1
502 502 4
503 17 -1
503 23 -1
503 190 -1
503 503 4
504 214 -1
504 235 -1
504 483 -1
504 504 4
505 6 -1
505 127 -1
505 243 -1
505 505 8
506 101 -1
506 390 -1
506 452 -1
506 506 5
507 51 -1
507 100 -1
507 277 -1
507 507 6
508 24 -1
508 59 -1
508 66 -1
508 508 4
509 85 -1
509 150 -1
509 260 -1
509 509 4
510 236 -1
510 290 -1
510 313 -1
510 510 6
511 8 -1
511 216 -1
511 256 -1
511 511 6
512 5 -1
512 51 -1
512 496 -1
512 512 4
513 9 -1
513 39 -1
513 61 -1
513 513 7
514 8 -1
514 44 -1
514 425 -1
514 514 4
515 27 -1
515 37 -1
515 59 -1
515 515 3
516 88 -1
516 189 -1
516 455 -1
516 516 5
517 13 -1
517 96 -1
517 335 -1
517 517 7
518 135 -1
518 286 -1
518 305 -1
518 518 6
519 81 -1
519 123 -1
519 353 -1
519 519 3
520 79 -1
520 199 -1
520 239 -1
520 520 5
521 159 -1
521 316 -1
521 466 -1
521 521 5
522 163 -1
522 363 -1
522 408 -1
522 522 12
523 4 -1
523 62 -1
523 214 -1
523 523 5
524 153 -1
524 154 -1
524 273 -1
524 524 4
525 6 -1
525 7 -1
525 143 -1
525 525 4
526 97 -1
526 140 -1
526 209 -1
526 526 8
527 16 -1
527 201 -1
527 525 -1
527 527 5
528 6 -1
528 85 -1
528 227 -1
528 528 3
529 297 -1
529 343 -1
529 513 -1
529 529 4
530 6 -1
530 123 -1
530 263 -1
530 530 5
531 46 -1
531 95 -1
531 367 -1
531 531 7
532 48 -1
532 122 -1
532 345 -1
532 532 4
533 20 -1
533 35 -1
533 245 -1
533 533 5
534 32 -1
534 301 -1
534 510 -1
534 534 5
535 5 -1
535 16 -1
535 317 -1
535 535 7
536 42 -1
536 89 -1
536 217 -1
536 536 3
537 2 -1
537 248 -1
537 383 -1
537 537 3
538 28 -1
538 201 -1
538 282 -1
538 538 4
539 6 -1
539 82 -1
539 280 -1
539 539 4
540 98 -1
540 225 -1
540 425 -1
540 540 11
541 5 -1
541 137 -1
541 474 -1
541 541 4
542 27 -1
542 35 -1
542 52 -1
542 542 5
543 5 -1
543 11 -1
543 315 -1
543 543 3
544 57 -1
544 192 -1
544 361 -1
544 544 5
545 9 -1
545 79 -1
545 215 -1
545 545 8
546 13 -1
546 80 -1
546 235 -1
546 546 3
547 34 -1
547 118 -1
547 535 -1
547 547 12
548 27 -1
548 59 -1
548 81 -1
548 548 4
549 5 -1
549 82 -1
549 118 -1
549 549 4
550 242 -1
550 243 -1
550 533 -1
550 550 6
551 104 -1
551 444 -1
551 500 -1
551 551 3
552 27 -1
552 70 -1
552 103 -1
552 552 3
553 21 -1
553 138 -1
553 178 -1
553 553 3
554 5 -1
554 7 -1
554 522 -1
554 554 4
555 31 -1
555 207 -1
555 363 -1
555 555 3
556 124 -1
556 432 -1
556 531 -1
556 556 4
557 254 -1
557 320 -1
557 353 -1
557 557 7
558 388 -1
558 399 -1
558 522 -1
558 558 4
559 133 -1
559 207 -1
559 468 -1
559 559 4
560 325 -1
560 437 -1
560 442 -1
560 560 3
561 139 -1
561 219 -1
561 224 -1
561 561 7
562 17 -1
562 50 -1
562 54 -1
562 562 5
563 34 -1
563 238 -1
563 305 -1
563 563 4
564 191 -1
564 210 -1
564 547 -1
564 564 4
565 40 -1
565 81 -1
565 407 -1
565 565 5
566 54 -1
566 215 -1
566 231 -1
566 566 3
567 29 -1
567 47 -1
567 312 -1
567 567 5
568 42 -1
568 199 -1
568 255 -1
568 568 6
569 13 -1
569 65 -1
569 251 -1
569 569 5
570 241 -1
570 409 -1
570 423 -1
570 570 3
571 96 -1
571 101 -1
571 319 -1
571 571 6
572 24 -1
572 72 -1
572 544 -1
572 572 7
573 2 -1
573 297 -1
573 556 -1
573 573 3
574 23 -1
574 132 -1
574 448 -1
574 574 6
575 32 -1
575 65 -1
575 328 -1
575 575 5
576 7 -1
576 11 -1
576 106 -1
576 576 6
577 74 -1
577 311 -1
577 557 -1
577 577 4
578 79 -1
578 491 -1
578 575 -1
578 578 6
579 61 -1
579 70 -1
579 127 -1
579 579 3
580 30 -1
580 98 -1
580 121 -1
580 580 4
581 298 -1
581 302 -1
581 303 -1
581 581 5
582 350 -1
582 360 -1
582 361 -1
582 582 4
583 8 -1
583 151 -1
583 258 -1
583 583 4
584 8 -1
584 44 -1
584 49 -1
584 584 3
585 234 -1
585 359 -1
585 532 -1
585 585 4
586 39 -1
586 43 -1
586 542 -1
586 586 4
587 8 -1
587 434 -1
587 445 -1
587 587 4
588 48 -1
588 68 -1
588 82 -1
588 588 4
589 209 -1
589 267 -1
589 384 -1
589 589 3
590 27 -1
590 35 -1
590 197 -1
590 590 4
591 13 -1
591 30 -1
591 359 -1
591 591 9
592 59 -1
592 106 -1
592 231 -1
592 592 3
593 4 -1
593 100 -1
593 401 -1
593 593 5
594 215 -1
594 242 -1
594 451 -1
594 594 4
595 271 -1
595 372 -1
595 480 -1
595 595 3
596 19 -1
596 205 -1
596 487 -1
596 596 3
597 61 -1
597 129 -1
597 385 -1
597 597 7
598 162 -1
598 192 -1
598 307 -1
598 598 3
599 20 -1
599 55 -1
599 468 -1
599 599 5
600 7 -1
600 483 -1
600 569 -1
600 600 7
601 24 -1
601 209 -1
601 471 -1
601 601 3
602 67 -1
602 70 -1
602 461 -1
602 602 5
603 97 -1
603 113 -1
603 137 -1
603 603 3
604 8 -1
604 214 -1
604 251 -1
604 604 4
605 15 -1
605 17 -1
605 196 -1
605 605 3
606 121 -1
606 201 -1
606 335 -1
606 606 5
607 97 -1
607 109 -1
607 158 -1
607 607 6
608 30 -1
608 56 -1
608 205 -1
608 608 3
609 5 -1
609 52 -1
609 350 -1
609 609 3
610 6 -1
610 96 -1
610 132 -1
610 610 3
611 59 -1
611 109 -1
611 209 -1
611 611 5
612 29 -1
612 233 -1
612 455 -1
612 612 5
613 201 -1
613 425 -1
613 461 -1
613 613 8
614 23 -1
614 157 -1
614 411 -1
614 614 3
615 8 -1
615 38 -1
615 114 -1
615 615 3
616 263 -1
616 476 -1
616 571 -1
616 616 6
617 17 -1
617 124 -1
617 325 -1
617 617 6
618 33 -1
618 77 -1
618 302 -1
618 618 6
619 114 -1
619 252 -1
619 465 -1
619 619 5
620 1 -1
620 78 -1
620 109 -1
620 620 3
621 198 -1
621 420 -1
621 517 -1
621 621 6
622 27 -1
622 82 -1
622 133 -1
622 622 3
623 103 -1
623 163 -1
623 368 -1
623 623 3
624 35 -1
624 280 -1
624 531 -1
624 624 4
625 132 -1
625 158 -1
625 420 -1
625 625 5
626 5 -1
626 107 -1
626 209 -1
626 626 5
627 23 -1
627 47 -1
627 304 -1
627 627 7
628 5 -1
628 8 -1
628 297 -1
628 628 6
629 123 -1
629 264 -1
629 282 -1
629 629 5
630 114 -1
630 289 -1
630 561 -1
630 630 6
631 39 -1
631 416 -1
631 550 -1
631 631 4
632 14 -1
632 174 -1
632 599 -1
632 632 5
633 39 -1
633 60 -1
633 441 -1
633 633 3
634 152 -1
634 382 -1
634 600 -1
634 634 6
635 50 -1
635 303 -1
635 489 -1
635 635 3
636 9 -1
636 116 -1
636 234 -1
636 636 4
637 11 -1
637 198 -1
637 524 -1
637 637 3
638 4 -1
638 46 -1
638 310 -1
638 638 3
639 82 -1
639 104 -1
639 256 -1
639 639 4
640 66 -1
640 302 -1
640 319 -1
640 640 5
641 155 -1
641 561 -1
641 625 -1
641 641 3
642 242 -1
642 311 -1
642 607 -1
642 642 3
643 5 -1
643 92 -1
643 104 -1
643 643 3
644 7 -1
644 274 -1
644 346 -1
644 644 3
645 5 -1
645 164 -1
645 267 -1
645 645 5
646 44 -1
646 59 -1
646 259 -1
646 646 6
647 17 -1
647 221 -1
647 256 -1
647 647 4
648 71 -1
648 491 -1
648 576 -1
648 648 6
649 57 -1
649 232 -1
649 447 -1
649 649 4
650 4 -1
650 97 -1
650 103 -1
650 650 6
651 114 -1
651 199 -1
651 423 -1
651 651 5
652 96 -1
652 107 -1
652 326 -1
652 652 5
653 98 -1
653 163 -1
653 485 -1
653 653 5
654 57 -1
654 75 -1
654 158 -1
654 654 4
655 7 -1
655 10 -1
655 133 -1
655 655 5
656 13 -1
656 16 -1
656 178 -1
656 656 4
657 10 -1
657 132 -1
657 378 -1
657 657 6
658 419 -1
658 464 -1
658 645 -1
658 658 4
659 67 -1
659 79 -1
659 292 -1
659 659 5
660 46 -1
660 200 -1
660 533 -1
660 660 3
661 6 -1
661 36 -1
661 209 -1
661 661 3
662 71 -1
662 166 -1
662 290 -1
662 662 4
663 65 -1
663 114 -1
663 545 -1
663 663 4
664 46 -1
664 79 -1
664 328 -1
664 664 4
665 6 -1
665 13 -1
665 621 -1
665 665 4
666 4 -1
666 7 -1
666 369 -1
666 666 4
667 14 -1
667 355 -1
667 396 -1
667 667 3
668 30 -1
668 202 -1
668 494 -1
668 668 3
669 1 -1
669 89 -1
669 423 -1
669 669 3
670 69 -1
670 244 -1
670 393 -1
670 670 4
671 131 -1
671 207 -1
671 457 -1
671 671 4
672 55 -1
672 165 -1
672 200 -1
672 672 5
673 7 -1
673 42 -1
673 423 -1
673 673 6
674 57 -1
674 239 -1
674 654 -1
674 674 4
675 231 -1
675 350 -1
675 540 -1
675 675 4
676 17 -1
676 230 -1
676 270 -1
676 676 3
677 33 -1
677 324 -1
677 483 -1
677 677 4
678 13 -1
678 437 -1
678 673 -1
678 678 4
679 44 -1
679 106 -1
679 258 -1
679 679 7
680 9 -1
680 35 -1
680 247 -1
680 680 6
681 1 -1
681 10 -1
681 168 -1
681 681 5
682 214 -1
682 432 -1
682 452 -1
682 682 4
683 74 -1
683 317 -1
683 530 -1
683 683 4
684 230 -1
684 505 -1
684 520 -1
684 684 4
685 1 -1
685 6 -1
685 244 -1
685 685 6
686 34 -1
686 207 -1
686 376 -1
686 686 4
687 29 -1
687 46 -1
687 378 -1
687 687 4
688 1 -1
688 82 -1
688 252 -1
688 688 3
689 11 -1
689 404 -1
689 628 -1
689 689 5
690 63 -1
690 116 -1
690 230 -1
690 690 4
691 11 -1
691 184 -1
691 434 -1
691 691 4
692 103 -1
692 349 -1
692 547 -1
692 692 3
693 53 -1
693 264 -1
693 394 -1
693 693 3
694 5 -1
694 13 -1
694 86 -1
694 694 3
695 57 -1
695 173 -1
695 390 -1
695 695 6
696 8 -1
696 242 -1
696 600 -1
696 696 4
697 33 -1
697 466 -1
697 531 -1
697 697 3
698 168 -1
698 317 -1
698 505 -1
698 698 5
699 116 -1
699 315 -1
699 583 -1
699 699 5
700 111 -1
700 176 -1
700 591 -1
700 700 4
701 13 -1
701 20 -1
701 442 -1
701 701 3
702 11 -1
702 407 -1
702 451 -1
702 702 3
703 104 -1
703 585 -1
703 612 -1
703 703 4
704 132 -1
704 231 -1
704 483 -1
704 704 6
705 23 -1
705 61 -1
705 472 -1
705 705 3
706 4 -1
706 378 -1
706 597 -1
706 706 4
707 102 -1
707 442 -1
707 558 -1
707 707 6
708 24 -1
708 46 -1
708 704 -1
708 708 4
709 51 -1
709 198 -1
709 461 -1
709 709 3
710 43 -1
710 78 -1
710 95 -1
710 710 6
711 395 -1
711 483 -1
711 526 -1
711 711 3
712 13 -1
712 77 -1
712 200 -1
712 712 3
713 132 -1
713 236 -1
713 511 -1
713 713 4
714 108 -1
714 191 -1
714 243 -1
714 714 3
715 4 -1
715 384 -1
715 535 -1
715 715 4
716 6 -1
716 158 -1
716 344 -1
716 716 3
717 6 -1
717 95 -1
717 710 -1
717 717 3
718 48 -1
718 164 -1
718 200 -1
718 718 3
719 118 -1
719 296 -1
719 461 -1
719 719 6
720 165 -1
720 393 -1
720 674 -1
720 720 3
721 19 -1
721 26 -1
721 72 -1
721 721 4
722 239 -1
722 517 -1
722 611 -1
722 722 5
723 48 -1
723 123 -1
723 256 -1
723 723 3
724 92 -1
724 343 -1
724 413 -1
724 724 4
725 13 -1
725 241 -1
725 497 -1
725 725 3
726 157 -1
726 169 -1
726 698 -1
726 726 5
727 13 -1
727 193 -1
727 229 -1
727 727 5
728 39 -1
728 496 -1
728 678 -1
728 728 3
729 106 -1
729 507 -1
729 607 -1
729 729 3
730 93 -1
730 121 -1
730 156 -1
730 730 6
731 547 -1
731 657 -1
731 721 -1
731 731 5
732 104 -1
732 305 -1
732 564 -1
732 732 5
733 2 -1
733 12 -1
733 436 -1
733 733 5
734 66 -1
734 95 -1
734 302 -1
734 734 4
735 7 -1
735 151 -1
735 403 -1
735 735 4
736 62 -1
736 594 -1
736 690 -1
736 736 6
737 79 -1
737 173 -1
737 395 -1
737 737 7
738 21 -1
738 212 -1
738 228 -1
738 738 4
739 161 -1
739 311 -1
739 444 -1
739 739 5
740 118 -1
740 200 -1
740 391 -1
740 740 4
741 111 -1
741 187 -1
741 246 -1
741 741 3
742 93 -1
742 174 -1
742 378 -1
742 742 4
743 104 -1
743 131 -1
743 230 -1
743 743 3
744 10 -1
744 214 -1
744 237 -1
744 744 3
745 14 -1
745 42 -1
745 464 -1
745 745 6
746 6 -1
746 26 -1
746 114 -1
746 746 3
747 8 -1
747 291 -1
747 572 -1
747 747 3
748 23 -1
748 304 -1
748 683 -1
748 748 4
749 65 -1
749 96 -1
749 399 -1
749 749 9
750 18 -1
750 85 -1
750 103 -1
750 750 3
751 96 -1
751 214 -1
751 219 -1
751 751 4
752 6 -1
752 282 -1
752 310 -1
752 752 3
753 6 -1
753 121 -1
753 430 -1
753 753 4
754 59 -1
754 439 -1
754 475 -1
754 754 6
755 182 -1
755 442 -1
755 509 -1
755 755 5
756 148 -1
756 259 -1
756 439 -1
756 756 3
757 9 -1
757 92 -1
757 640 -1
757 757 5
758 5 -1
758 8 -1
758 617 -1
758 758 6
759 5 -1
759 17 -1
759 101 -1
759 759 4
760 6 -1
760 342 -1
760 574 -1
760 760 5
761 57 -1
761 89 -1
761 430 -1
761 761 4
762 13 -1
762 221 -1
762 230 -1
762 762 4
763 561 -1
763 684 -1
763 706 -1
763 763 3
764 35 -1
764 74 -1
764 253 -1
764 764 4
765 5 -1
765 126 -1
765 540 -1
765 765 7
766 5 -1
766 297 -1
766 332 -1
766 766 4
767 5 -1
767 22 -1
767 485 -1
767 767 5
768 35 -1
768 646 -1
768 679 -1
768 768 3
769 5 -1
769 9 -1
769 736 -1
769 769 5
770 150 -1
770 186 -1
770 231 -1
770 770 4
771 23 -1
771 57 -1
771 554 -1
771 771 4
772 65 -1
772 503 -1
772 550 -1
772 772 6
773 57 -1
773 73 -1
773 269 -1
773 773 7
774 5 -1
774 123 -1
774 498 -1
774 774 3
775 72 -1
775 103 -1
775 367 -1
775 775 5
776 385 -1
776 618 -1
776 754 -1
776 776 5
777 46 -1
777 81 -1
777 179 -1
777 777 6
778 466 -1
778 513 -1
778 541 -1
778 778 3
779 190 -1
779 200 -1
779 765 -1
779 779 3
780 27 -1
780 275 -1
780 315 -1
780 780 3
781 58 -1
781 65 -1
781 686 -1
781 781 5
782 5 -1
782 121 -1
782 458 -1
782 782 3
783 236 -1
783 627 -1
783 650 -1
783 783 3
784 31 -1
784 194 -1
784 707 -1
784 784 4
785 225 -1
785 438 -1
785 451 -1
785 785 7
786 157 -1
786 412 -1
786 540 -1
786 786 4
787 696 -1
787 699 -1
787 730 -1
787 787 6
788 244 -1
788 672 -1
788 772 -1
788 788 4
789 26 -1
789 96 -1
789 506 -1
789 789 3
790 2 -1
790 153 -1
790 572 -1
790 790 4
791 7 -1
791 57 -1
791 651 -1
791 791 3
792 50 -1
792 314 -1
792 366 -1
792 792 3
793 236 -1
793 659 -1
793 719 -1
793 793 4
794 205 -1
794 214 -1
794 334 -1
794 794 4
795 4 -1
795 82 -1
795 785 -1
795 795 3
796 7 -1
796 29 -1
796 201 -1
796 796 5
797 139 -1
797 210 -1
797 575 -1
797 797 3
798 7 -1
798 547 -1
798 567 -1
798 798 7
799 9 -1
799 11 -1
799 647 -1
799 799 3
800 77 -1
800 118 -1
800 192 -1
800 800 4
801 10 -1
801 447 -1
801 769 -1
801 801 3
802 8 -1
802 72 -1
802 135 -1
802 802 3
803 40 -1
803 631 -1
803 731 -1
803 803 4
804 223 -1
804 487 -1
804 749 -1
804 804 4
805 6 -1
805 266 -1
805 364 -1
805 805 4
806 340 -1
806 384 -1
806 765 -1
806 806 4
807 79 -1
807 297 -1
807 411 -1
807 807 4
808 118 -1
808 398 -1
808 671 -1
808 808 4
809 67 -1
809 86 -1
809 436 -1
809 809 5
810 5 -1
810 223 -1
810 396 -1
810 810 3
811 7 -1
811 745 -1
811 786 -1
811 811 5
812 114 -1
812 408 -1
812 542 -1
812 812 6
813 26 -1
813 203 -1
813 400 -1
813 813 3
814 111 -1
814 396 -1
814 476 -1
814 814 11
815 218 -1
815 419 -1
815 607 -1
815 815 4
816 28 -1
816 279 -1
816 311 -1
816 816 3
817 23 -1
817 308 -1
817 374 -1
817 817 3
818 6 -1
818 41 -1
818 364 -1
818 818 4
819 6 -1
819 153 -1
819 330 -1
819 819 3
820 106 -1
820 204 -1
820 321 -1
820 820 4
821 75 -1
821 140 -1
821 199 -1
821 821 3
822 117 -1
822 454 -1
822 648 -1
822 822 3
823 1 -1
823 182 -1
823 191 -1
823 823 3
824 219 -1
824 485 -1
824 559 -1
824 824 5
825 35 -1
825 108 -1
825 655 -1
825 825 3
826 84 -1
826 393 -1
826 442 -1
826 826 4
827 9 -1
827 98 -1
827 787 -1
827 827 5
828 29 -1
828 54 -1
828 734 -1
828 828 3
829 53 -1
829 57 -1
829 574 -1
829 829 4
830 31 -1
830 235 -1
830 247 -1
830 830 3
831 1 -1
831 16 -1
831 75 -1
831 831 4
832 6 -1
832 200 -1
832 826 -1
832 832 4
833 7 -1
833 150 -1
833 392 -1
833 833 4
834 280 -1
834 719 -1
834 745 -1
834 834 3
835 13 -1
835 103 -1
835 109 -1
835 835 3
836 13 -1
836 92 -1
836 376 -1
836 836 3
837 102 -1
837 157 -1
837 225 -1
837 837 3
838 116 -1
838 253 -1
838 630 -1
838 838 4
839 17 -1
839 72 -1
839 406 -1
839 839 4
840 190 -1
840 243 -1
840 267 -1
840 840 4
841 116 -1
841 557 -1
841 587 -1
841 841 4
842 21 -1
842 451 -1
842 707 -1
842 842 4
843 2 -1
843 99 -1
843 444 -1
843 843 4
844 195 -1
844 445 -1
844 655 -1
844 844 3
845 5 -1
845 100 -1
845 342 -1
845 845 6
846 325 -1
846 527 -1
846 613 -1
846 846 4
847 153 -1
847 368 -1
847 399 -1
847 847 5
848 11 -1
848 19 -1
848 540 -1
848 848 4
849 218 -1
849 326 -1
849 494 -1
849 849 4
850 22 -1
850 88 -1
850 256 -1
850 850 5
851 57 -1
851 422 -1
851 557 -1
851 851 3
852 10 -1
852 116 -1
852 428 -1
852 852 3
853 99 -1
853 406 -1
853 505 -1
853 853 4
854 11 -1
854 96 -1
854 305 -1
854 854 3
855 10 -1
855 132 -1
855 656 -1
855 855 3
856 1 -1
856 425 -1
856 571 -1
856 856 3
857 646 -1
857 737 -1
857 753 -1
857 857 3
858 23 -1
858 171 -1
858 341 -1
858 858 5
859 72 -1
859 115 -1
859 613 -1
859 859 3
860 110 -1
860 241 -1
860 497 -1
860 860 4
861 15 -1
861 44 -1
861 123 -1
861 861 4
862 2 -1
862 5 -1
862 751 -1
862 862 3
863 208 -1
863 736 -1
863 785 -1
863 863 4
864 191 -1
864 228 -1
864 451 -1
864 864 4
865 109 -1
865 114 -1
865 162 -1
865 865 3
866 19 -1
866 118 -1
866 207 -1
866 866 3
867 29 -1
867 79 -1
867 700 -1
867 867 4
868 154 -1
868 163 -1
868 704 -1
868 868 4
869 319 -1
869 627 -1
869 773 -1
869 869 4
870 50 -1
870 82 -1
870 766 -1
870 870 5
871 33 -1
871 424 -1
871 544 -1
871 871 4
872 1 -1
872 8 -1
872 301 -1
872 872 4
873 65 -1
873 103 -1
873 793 -1
873 873 3
874 12 -1
874 360 -1
874 403 -1
874 874 5
875 13 -1
875 77 -1
875 742 -1
875 875 3
876 13 -1
876 395 -1
876 648 -1
876 876 4
877 50 -1
877 188 -1
877 249 -1
877 877 3
878 37 -1
878 140 -1
878 577 -1
878 878 4
879 81 -1
879 263 -1
879 516 -1
879 879 4
880 113 -1
880 185 -1
880 391 -1
880 880 3
881 165 -1
881 247 -1
881 478 -1
881 881 3
882 169 -1
882 540 -1
882 737 -1
882 882 3
883 8 -1
883 177 -1
883 273 -1
883 883 3
884 4 -1
884 6 -1
884 9 -1
884 884 8
885 8 -1
885 156 -1
885 258 -1
885 885 4
886 317 -1
886 341 -1
886 521 -1
886 886 4
887 215 -1
887 476 -1
887 632 -1
887 887 4
888 51 -1
888 107 -1
888 198 -1
888 888 5
889 7 -1
889 47 -1
889 843 -1
889 889 5
890 7 -1
890 23 -1
890 332 -1
890 890 3
891 95 -1
891 141 -1
891 814 -1
891 891 4
892 49 -1
892 106 -1
892 613 -1
892 892 4
893 22 -1
893 30 -1
893 325 -1
893 893 3
894 113 -1
894 138 -1
894 323 -1
894 894 4
895 9 -1
895 300 -1
895 740 -1
895 895 5
896 180 -1
896 398 -1
896 691 -1
896 896 4
897 323 -1
897 404 -1
897 790 -1
897 897 5
898 50 -1
898 204 -1
898 441 -1
898 898 4
899 26 -1
899 118 -1
899 199 -1
899 899 4
900 305 -1
900 568 -1
900 715 -1
900 900 3
901 6 -1
901 52 -1
901 379 -1
901 901 4
902 29 -1
902 74 -1
902 811 -1
902 902 5
903 445 -1
903 762 -1
903 858 -1
903 903 3
904 1 -1
904 48 -1
904 680 -1
904 904 3
905 153 -1
905 169 -1
905 393 -1
905 905 3
906 72 -1
906 224 -1
906 372 -1
906 906 3
907 95 -1
907 207 -1
907 517 -1
907 907 3
908 107 -1
908 228 -1
908 650 -1
908 908 3
909 82 -1
909 311 -1
909 414 -1
909 909 4
910 1 -1
910 82 -1
910 234 -1
910 910 4
911 312 -1
911 572 -1
911 771 -1
911 911 4
912 35 -1
912 727 -1
912 764 -1
912 912 3
913 82 -1
913 335 -1
913 510 -1
913 913 3
914 281 -1
914 454 -1
914 886 -1
914 914 3
915 33 -1
915 111 -1
915 510 -1
915 915 3
916 11 -1
916 114 -1
916 151 -1
916 916 3
917 21 -1
917 370 -1
917 518 -1
917 917 3
918 57 -1
918 98 -1
918 829 -1
918 918 3
919 35 -1
919 260 -1
919 765 -1
919 919 4
920 5 -1
920 10 -1
920 658 -1
920 920 4
921 100 -1
921 417 -1
921 458 -1
921 921 4
922 19 -1
922 24 -1
922 118 -1
922 922 5
923 10 -1
923 102 -1
923 657 -1
923 923 4
924 53 -1
924 69 -1
924 545 -1
924 924 3
925 306 -1
925 330 -1
925 757 -1
925 925 3
926 42 -1
926 523 -1
926 640 -1
926 926 5
927 494 -1
927 732 -1
927 889 -1
927 927 3
928 4 -1
928 218 -1
928 274 -1
928 928 7
929 302 -1
929 483 -1
929 682 -1
929 929 3
930 51 -1
930 138 -1
930 267 -1
930 930 3
931 59 -1
931 70 -1
931 313 -1
931 931 6
932 2 -1
932 42 -1
932 65 -1
932 932 3
933 1 -1
933 85 -1
933 100 -1
933 933 4
934 5 -1
934 447 -1
934 794 -1
934 934 4
935 132 -1
935 137 -1
935 266 -1
935 935 4
936 5 -1
936 104 -1
936 271 -1
936 936 4
937 339 -1
937 522 -1
937 781 -1
937 937 4
938 685 -1
938 755 -1
938 897 -1
938 938 4
939 224 -1
939 457 -1
939 464 -1
939 939 4
940 60 -1
940 113 -1
940 673 -1
940 940 4
941 34 -1
941 233 -1
941 484 -1
941 941 3
942 85 -1
942 162 -1
942 670 -1
942 942 6
943 115 -1
943 237 -1
943 391 -1
943 943 3
944 6 -1
944 42 -1
944 296 -1
944 944 4
945 5 -1
945 6 -1
945 151 -1
945 945 3
946 12 -1
946 29 -1
946 191 -1
946 946 5
947 96 -1
947 162 -1
947 319 -1
947 947 3
948 8 -1
948 19 -1
948 302 -1
948 948 3
949 86 -1
949 513 -1
949 626 -1
949 949 4
950 86 -1
950 847 -1
950 874 -1
950 950 6
951 454 -1
951 663 -1
951 845 -1
951 951 4
952 1 -1
952 7 -1
952 393 -1
952 952 7
953 2 -1
953 92 -1
953 730 -1
953 953 4
954 4 -1
954 26 -1
954 565 -1
954 954 3
955 7 -1
955 33 -1
955 726 -1
955 955 5
956 10 -1
956 248 -1
956 689 -1
956 956 4
957 53 -1
957 591 -1
957 956 -1
957 957 4
958 49 -1
958 135 -1
958 248 -1
958 958 4
959 13 -1
959 82 -1
959 719 -1
959 959 3
960 22 -1
960 117 -1
960 722 -1
960 960 5
961 348 -1
961 368 -1
961 487 -1
961 961 8
962 39 -1
962 111 -1
962 545 -1
962 962 3
963 72 -1
963 399 -1
963 630 -1
963 963 4
964 24 -1
964 74 -1
964 955 -1
964 964 5
965 5 -1
965 413 -1
965 937 -1
965 965 3
966 13 -1
966 814 -1
966 896 -1
966 966 3
967 131 -1
967 320 -1
967 521 -1
967 967 4
968 518 -1
968 653 -1
968 758 -1
968 968 3
969 16 -1
969 80 -1
969 103 -1
969 969 3
970 116 -1
970 237 -1
970 963 -1
970 970 4
971 376 -1
971 487 -1
971 884 -1
971 971 3
972 2 -1
972 99 -1
972 776 -1
972 972 4
973 17 -1
973 241 -1
973 317 -1
973 973 4
974 292 -1
974 626 -1
974 777 -1
974 974 4
975 67 -1
975 163 -1
975 371 -1
975 975 5
976 105 -1
976 386 -1
976 685 -1
976 976 5
977 269 -1
977 464 -1
977 902 -1
977 977 4
978 48 -1
978 248 -1
978 320 -1
978 978 4
979 6 -1
979 7 -1
979 286 -1
979 979 3
980 200 -1
980 269 -1
980 547 -1
980 980 5
981 57 -1
981 225 -1
981 412 -1
981 981 3
982 6 -1
982 773 -1
982 777 -1
982 982 3
983 5 -1
983 274 -1
983 378 -1
983 983 4
984 162 -1
984 227 -1
984 456 -1
984 984 4
985 5 -1
985 43 -1
985 687 -1
985 985 4
986 7 -1
986 13 -1
986 324 -1
986 986 3
987 107 -1
987 320 -1
987 600 -1
987 987 3
988 247 -1
988 330 -1
988 451 -1
988 988 4
989 374 -1
989 449 -1
989 545 -1
989 989 5
990 7 -1
990 132 -1
990 869 -1
990 990 4
991 7 -1
991 465 -1
991 673 -1
991 991 3
992 17 -1
992 489 -1
992 516 -1
992 992 3
993 65 -1
993 257 -1
993 593 -1
993 993 6
994 224 -1
994 522 -1
994 803 -1
994 994 3
995 1 -1
995 76 -1
995 848 -1
995 995 3
996 8 -1
996 72 -1
996 977 -1
996 996 5
997 26 -1
997 214 -1
997 369 -1
997 997 3
998 319 -1
998 522 -1
998 975 -1
998 998 3
999 22 -1
999 214 -1
999 535 -1
999 999 3
1000 23 -1
1000 29 -1
1000 128 -1
1000 1000 6
1001 1 -1
1001 59 -1
1001 424 -1
1001 1001 5
1002 13 -1
1002 143 -1
1002 350 -1
1002 1002 3
1003 14 -1
1003 184 -1
1003 259 -1
1003 1003 3
1004 231 -1
1004 253 -1
1004 616 -1
1004 1004 6
1005 219 -1
1005 430 -1
1005 703 -1
1005 1005 3
1006 38 -1
1006 39 -1
1006 99 -1
1006 1006 3
1007 5 -1
1007 69 -1
1007 760 -1
1007 1007 3
1008 153 -1
1008 446 -1
1008 820 -1
1008 1008 4
1009 8 -1
1009 20 -1
1009 529 -1
1009 1009 4
1010 119 -1
1010 245 -1
1010 568 -1
1010 1010 5
1011 7 -1
1011 767 -1
1011 993 -1
1011 1011 4
1012 235 -1
1012 384 -1
1012 784 -1
1012 1012 4
1013 32 -1
1013 523 -1
1013 939 -1
1013 1013 4
1014 10 -1
1014 193 -1
1014 214 -1
1014 1014 3
1015 85 -1
1015 350 -1
1015 483 -1
1015 1015 3
1016 10 -1
1016 16 -1
1016 385 -1
1016 1016 4
1017 244 -1
1017 380 -1
1017 578 -1
1017 1017 4
1018 6 -1
1018 57 -1
1018 77 -1
1018 1018 3
1019 340 -1
1019 347 -1
1019 451 -1
1019 1019 3
1020 646 -1
1020 680 -1
1020 814 -1
1020 1020 3
1021 270 -1
1021 282 -1
1021 845 -1
1021 1021 3
1022 49 -1
1022 188 -1
1022 419 -1
1022 1022 3
1023 5 -1
1023 57 -1
1023 457 -1
1023 1023 4
1024 453 -1
1024 522 -1
1024 850 -1
1024 1024 3
1025 17 -1
1025 90 -1
1025 591 -1
1025 1025 5
1026 189 -1
1026 815 -1
1026 892 -1
1026 1026 3
1027 52 -1
1027 441 -1
1027 827 -1
1027 1027 5
1028 61 -1
1028 92 -1
1028 419 -1
1028 1028 4
1029 246 -1
1029 432 -1
1029 547 -1
1029 1029 5
1030 401 -1
1030 439 -1
1030 760 -1
1030 1030 3
1031 154 -1
1031 239 -1
1031 952 -1
1031 1031 4
1032 2 -1
1032 334 -1
1032 448 -1
1032 1032 3
1033 96 -1
1033 386 -1
1033 425 -1
1033 1033 3
1034 71 -1
1034 135 -1
1034 773 -1
1034 1034 3
1035 276 -1
1035 748 -1
1035 812 -1
1035 1035 3
1036 249 -1
1036 442 -1
1036 934 -1
1036 1036 3
1037 40 -1
1037 382 -1
1037 996 -1
1037 1037 3
1038 26 -1
1038 602 -1
1038 884 -1
1038 1038 3
1039 14 -1
1039 401 -1
1039 949 -1
1039 1039 3
1040 562 -1
1040 685 -1
1040 922 -1
1040 1040 3
1041 93 -1
1041 99 -1
1041 868 -1
1041 1041 5
1042 23 -1
1042 348 -1
1042 445 -1
1042 1042 3
1043 166 -1
1043 581 -1
1043 980 -1
1043 1043 4
1044 17 -1
1044 104 -1
1044 518 -1
1044 1044 4
1045 204 -1
1045 645 -1
1045 798 -1
1045 1045 4
1046 444 -1
1046 695 -1
1046 733 -1
1046 1046 3
1047 6 -1
1047 8 -1
1047 65 -1
1047 1047 3
1048 1 -1
1048 494 -1
1048 961 -1
1048 1048 3
1049 77 -1
1049 395 -1
1049 814 -1
1049 1049 6
1050 4 -1
1050 35 -1
1050 342 -1
1050 1050 3
1051 488 -1
1051 901 -1
1051 911 -1
1051 1051 3
1052 21 -1
1052 632 -1
1052 840 -1
1052 1052 3
1053 30 -1
1053 772 -1
1053 884 -1
1053 1053 4
1054 476 -1
1054 549 -1
1054 928 -1
1054 1054 3
1055 456 -1
1055 591 -1
1055 1031 -1
1055 1055 6
1056 15 -1
1056 138 -1
1056 148 -1
1056 1056 3
1057 20 -1
1057 34 -1
1057 157 -1
1057 1057 4
1058 77 -1
1058 765 -1
1058 1023 -1
1058 1058 7
1059 96 -1
1059 796 -1
1059 942 -1
1059 1059 5
1060 305 -1
1060 514 -1
1060 612 -1
1060 1060 4
1061 201 -1
1061 234 -1
1061 1058 -1
1061 1061 3
1062 807 -1
1062 931 -1
1062 946 -1
1062 1062 4
1063 29 -1
1063 209 -1
1063 474 -1
1063 1063 4
1064 37 -1
1064 146 -1
1064 545 -1
1064 1064 5
1065 98 -1
1065 333 -1
1065 571 -1
1065 1065 3
1066 8 -1
1066 159 -1
1066 1000 -1
1066 1066 3
1067 48 -1
1067 429 -1
1067 479 -1
1067 1067 4
1068 77 -1
1068 384 -1
1068 625 -1
1068 1068 4
1069 57 -1
1069 65 -1
1069 479 -1
1069 1069 4
1070 27 -1
1070 461 -1
1070 989 -1
1070 1070 3
1071 404 -1
1071 621 -1
1071 726 -1
1071 1071 3
1072 35 -1
1072 95 -1
1072 413 -1
1072 1072 3
1073 34 -1
1073 95 -1
1073 292 -1
1073 1073 3
1074 35 -1
1074 48 -1
1074 888 -1
1074 1074 3
1075 8 -1
1075 483 -1
1075 928 -1
1075 1075 4
1076 4 -1
1076 242 -1
1076 708 -1
1076 1076 5
1077 222 -1
1077 455 -1
1077 757 -1
1077 1077 3
1078 43 -1
1078 634 -1
1078 679 -1
1078 1078 3
1079 320 -1
1079 353 -1
1079 863 -1
1079 1079 3
1080 31 -1
1080 37 -1
1080 255 -1
1080 1080 3
1081 6 -1
1081 242 -1
1081 361 -1
1081 1081 4
1082 21 -1
1082 43 -1
1082 1010 -1
1082 1082 3
1083 156 -1
1083 617 -1
1083 812 -1
1083 1083 3
1084 5 -1
1084 35 -1
1084 534 -1
1084 1084 4
1085 6 -1
1085 284 -1
1085 814 -1
1085 1085 3
1086 239 -1
1086 315 -1
1086 964 -1
1086 1086 3
1087 27 -1
1087 142 -1
1087 366 -1
1087 1087 6
1088 5 -1
1088 23 -1
1088 395 -1
1088 1088 4
1089 9 -1
1089 194 -1
1089 628 -1
1089 1089 3
1090 23 -1
1090 159 -1
1090 919 -1
1090 1090 5
1091 55 -1
1091 724 -1
1091 876 -1
1091 1091 3
1092 153 -1
1092 431 -1
1092 534 -1
1092 1092 3
1093 6 -1
1093 539 -1
1093 838 -1
1093 1093 3
1094 159 -1
1094 297 -1
1094 484 -1
1094 1094 3
1095 239 -1
1095 282 -1
1095 846 -1
1095 1095 3
1096 18 -1
1096 923 -1
1096 967 -1
1096 1096 3
1097 119 -1
1097 809 -1
1097 842 -1
1097 1097 3
1098 186 -1
1098 431 -1
1098 921 -1
1098 1098 3
1099 164 -1
1099 329 -1
1099 420 -1
1099 1099 3
1100 163 -1
1100 253 -1
1100 513 -1
1100 1100 5
1101 13 -1
1101 49 -1
1101 950 -1
1101 1101 4
1102 32 -1
1102 65 -1
1102 364 -1
1102 1102 3
1103 6 -1
1103 527 -1
1103 788 -1
1103 1103 4
1104 257 -1
1104 494 -1
1104 581 -1
1104 1104 3
1105 737 -1
1105 871 -1
1105 950 -1
1105 1105 5
1106 240 -1
1106 761 -1
1106 884 -1
1106 1106 4
1107 126 -1
1107 231 -1
1107 672 -1
1107 1107 3
1108 87 -1
1108 195 -1
1108 433 -1
1108 1108 4
1109 7 -1
1109 619 -1
1109 849 -1
1109 1109 3
1110 5 -1
1110 398 -1
1110 665 -1
1110 1110 4
1111 85 -1
1111 135 -1
1111 142 -1
1111 1111 3
1112 5 -1
1112 770 -1
1112 895 -1
1112 1112 3
1113 562 -1
1113 679 -1
1113 938 -1
1113 1113 4
1114 96 -1
1114 231 -1
1114 973 -1
1114 1114 5
1115 8 -1
1115 131 -1
1115 132 -1
1115 1115 4
1116 26 -1
1116 116 -1
1116 775 -1
1116 1116 4
1117 9 -1
1117 980 -1
1117 1090 -1
1117 1117 3
1118 48 -1
1118 326 -1
1118 402 -1
1118 1118 3
1119 123 -1
1119 212 -1
1119 310 -1
1119 1119 4
1120 8 -1
1120 233 -1
1120 1069 -1
1120 1120 3
1121 618 -1
1121 1017 -1
1121 1058 -1
1121 1121 4
1122 35 -1
1122 754 -1
1122 1049 -1
1122 1122 3
1123 13 -1
1123 158 -1
1123 785 -1
1123 1123 5
1124 159 -1
1124 369 -1
1124 931 -1
1124 1124 3
1125 10 -1
1125 504 -1
1125 745 -1
1125 1125 4
1126 60 -1
1126 382 -1
1126 1041 -1
1126 1126 5
1127 606 -1
1127 749 -1
1127 985 -1
1127 1127 3
1128 8 -1
1128 140 -1
1128 143 -1
1128 1128 4
1129 398 -1
1129 1008 -1
1129 1029 -1
1129 1129 3
1130 26 -1
1130 79 -1
1130 341 -1
1130 1130 3
1131 33 -1
1131 362 -1
1131 479 -1
1131 1131 5
1132 122 -1
1132 123 -1
1132 137 -1
1132 1132 3
1133 10 -1
1133 895 -1
1133 1062 -1
1133 1133 3
1134 290 -1
1134 327 -1
1134 1110 -1
1134 1134 5
1135 806 -1
1135 944 -1
1135 993 -1
1135 1135 4
1136 157 -1
1136 292 -1
1136 482 -1
1136 1136 3
1137 230 -1
1137 588 -1
1137 867 -1
1137 1137 4
1138 5 -1
1138 99 -1
1138 1075 -1
1138 1138 3
1139 157 -1
1139 286 -1
1139 1114 -1
1139 1139 4
1140 5 -1
1140 26 -1
1140 1103 -1
1140 1140 3
1141 387 -1
1141 482 -1
1141 730 -1
1141 1141 3
1142 233 -1
1142 739 -1
1142 818 -1
1142 1142 3
1143 403 -1
1143 413 -1
1143 445 -1
1143 1143 3
1144 57 -1
1144 265 -1
1144 785 -1
1144 1144 3
1145 70 -1
1145 597 -1
1145 1116 -1
1145 1145 3
1146 9 -1
1146 87 -1
1146 419 -1
1146 1146 3
1147 84 -1
1147 565 -1
1147 1076 -1
1147 1147 3
1148 109 -1
1148 382 -1
1148 899 -1
1148 1148 4
1149 61 -1
1149 344 -1
1149 961 -1
1149 1149 5
1150 67 -1
1150 203 -1
1150 443 -1
1150 1150 3
1151 341 -1
1151 993 -1
1151 1043 -1
1151 1151 3
1152 55 -1
1152 98 -1
1152 732 -1
1152 1152 3
1153 50 -1
1153 79 -1
1153 194 -1
1153 1153 3
1154 44 -1
1154 370 -1
1154 569 -1
1154 1154 3
1155 17 -1
1155 420 -1
1155 455 -1
1155 1155 3
1156 627 -1
1156 1053 -1
1156 1088 -1
1156 1156 3
1157 5 -1
1157 522 -1
1157 707 -1
1157 1157 3
1158 383 -1
1158 952 -1
1158 1027 -1
1158 1158 3
1159 69 -1
1159 507 -1
1159 624 -1
1159 1159 4
1160 6 -1
1160 450 -1
1160 798 -1
1160 1160 7
1161 616 -1
1161 1060 -1
1161 1160 -1
1161 1161 4
1162 48 -1
1162 629 -1
1162 1001 -1
1162 1162 3
1163 689 -1
1163 870 -1
1163 910 -1
1163 1163 3
1164 16 -1
1164 23 -1
1164 57 -1
1164 1164 3
1165 5 -1
1165 34 -1
1165 733 -1
1165 1165 4
1166 19 -1
1166 341 -1
1166 590 -1
1166 1166 3
1167 106 -1
1167 370 -1
1167 444 -1
1167 1167 6
1168 10 -1
1168 347 -1
1168 1134 -1
1168 1168 3
1169 101 -1
1169 214 -1
1169 659 -1
1169 1169 3
1170 666 -1
1170 776 -1
1170 1167 -1
1170 1170 4
1171 77 -1
1171 255 -1
1171 935 -1
1171 1171 4
1172 2 -1
1172 66 -1
1172 1044 -1
1172 1172 3
1173 139 -1
1173 858 -1
1173 888 -1
1173 1173 4
1174 5 -1
1174 87 -1
1174 416 -1
1174 1174 6
1175 173 -1
1175 219 -1
1175 1174 -1
1175 1175 3
1176 4 -1
1176 23 -1
1176 606 -1
1176 1176 3
1177 42 -1
1177 82 -1
1177 243 -1
1177 1177 3
1178 26 -1
1178 95 -1
1178 154 -1
1178 1178 4
1179 100 -1
1179 112 -1
1179 114 -1
1179 1179 3
1180 9 -1
1180 345 -1
1180 897 -1
1180 1180 3
1181 116 -1
1181 511 -1
1181 572 -1
1181 1181 4
1182 74 -1
1182 229 -1
1182 889 -1
1182 1182 3
1183 9 -1
1183 171 -1
1183 346 -1
1183 1183 3
1184 76 -1
1184 812 -1
1184 958 -1
1184 1184 3
1185 27 -1
1185 323 -1
1185 898 -1
1185 1185 3
1186 128 -1
1186 133 -1
1186 964 -1
1186 1186 3
1187 4 -1
1187 10 -1
1187 221 -1
1187 1187 3
1188 61 -1
1188 71 -1
1188 814 -1
1188 1188 3
1189 2 -1
1189 132 -1
1189 312 -1
1189 1189 5
1190 9 -1
1190 16 -1
1190 611 -1
1190 1190 3
1191 82 -1
1191 953 -1
1191 1119 -1
1191 1191 3
1192 168 -1
1192 580 -1
1192 1178 -1
1192 1192 4
1193 13 -1
1193 16 -1
1193 951 -1
1193 1193 3
1194 100 -1
1194 201 -1
1194 316 -1
1194 1194 3
1195 125 -1
1195 494 -1
1195 1001 -1
1195 1195 3
1196 143 -1
1196 144 -1
1196 431 -1
1196 1196 5
1197 22 -1
1197 412 -1
1197 505 -1
1197 1197 4
1198 305 -1
1198 526 -1
1198 1114 -1
1198 1198 3
1199 185 -1
1199 334 -1
1199 1197 -1
1199 1199 4
1200 139 -1
1200 879 -1
1200 928 -1
1200 1200 4
1201 39 -1
1201 52 -1
1201 73 -1
1201 1201 4
1202 15 -1
1202 95 -1
1202 157 -1
1202 1202 3
1203 78 -1
1203 98 -1
1203 604 -1
1203 1203 3
1204 7 -1
1204 294 -1
1204 861 -1
1204 1204 4
1205 210 -1
1205 215 -1
1205 1025 -1
1205 1205 3
1206 100 -1
1206 205 -1
1206 484 -1
1206 1206 3
1207 21 -1
1207 154 -1
1207 300 -1
1207 1207 3
1208 117 -1
1208 162 -1
1208 952 -1
1208 1208 3
1209 161 -1
1209 808 -1
1209 1000 -1
1209 1209 3
1210 85 -1
1210 197 -1
1210 483 -1
1210 1210 3
1211 35 -1
1211 194 -1
1211 320 -1
1211 1211 3
1212 9 -1
1212 27 -1
1212 346 -1
1212 1212 3
1213 115 -1
1213 342 -1
1213 759 -1
1213 1213 4
1214 182 -1
1214 824 -1
1214 988 -1
1214 1214 3
1215 117 -1
1215 833 -1
1215 1067 -1
1215 1215 3
1216 40 -1
1216 946 -1
1216 1161 -1
1216 1216 3
1217 902 -1
1217 1160 -1
1217 1199 -1
1217 1217 3
1218 284 -1
1218 415 -1
1218 710 -1
1218 1218 3
1219 261 -1
1219 699 -1
1219 832 -1
1219 1219 3
1220 17 -1
1220 407 -1
1220 538 -1
1220 1220 3
1221 35 -1
1221 78 -1
1221 317 -1
1221 1221 4
1222 330 -1
1222 679 -1
1222 1087 -1
1222 1222 3
1223 82 -1
1223 157 -1
1223 530 -1
1223 1223 4
1224 34 -1
1224 77 -1
1224 814 -1
1224 1224 4
1225 100 -1
1225 497 -1
1225 1160 -1
1225 1225 3
1226 8 -1
1226 34 -1
1226 77 -1
1226 1226 4
1227 76 -1
1227 100 -1
1227 345 -1
1227 1227 3
1228 275 -1
1228 344 -1
1228 578 -1
1228 1228 3
1229 104 -1
1229 502 -1
1229 749 -1
1229 1229 3
1230 17 -1
1230 239 -1
1230 798 -1
1230 1230 3
1231 26 -1
1231 103 -1
1231 1055 -1
1231 1231 3
1232 11 -1
1232 22 -1
1232 805 -1
1232 1232 4
1233 24 -1
1233 298 -1
1233 361 -1
1233 1233 3
1234 86 -1
1234 535 -1
1234 1081 -1
1234 1234 3
1235 5 -1
1235 82 -1
1235 695 -1
1235 1235 3
1236 1 -1
1236 488 -1
1236 976 -1
1236 1236 3
1237 39 -1
1237 319 -1
1237 350 -1
1237 1237 3
1238 116 -1
1238 138 -1
1238 878 -1
1238 1238 3
1239 100 -1
1239 212 -1
1239 736 -1
1239 1239 4
1240 78 -1
1240 136 -1
1240 382 -1
1240 1240 3
1241 4 -1
1241 111 -1
1241 451 -1
1241 1241 3
1242 70 -1
1242 209 -1
1242 231 -1
1242 1242 3
1243 18 -1
1243 62 -1
1243 248 -1
1243 1243 3
1244 82 -1
1244 444 -1
1244 804 -1
1244 1244 3
1245 445 -1
1245 814 -1
1245 933 -1
1245 1245 3
1246 7 -1
1246 184 -1
1246 737 -1
1246 1246 3
1247 471 -1
1247 957 -1
1247 1000 -1
1247 1247 3
1248 26 -1
1248 329 -1
1248 1159 -1
1248 1248 3
1249 61 -1
1249 121 -1
1249 337 -1
1249 1249 3
1250 8 -1
1250 163 -1
1250 839 -1
1250 1250 3
1251 4 -1
1251 13 -1
1251 156 -1
1251 1251 4
1252 29 -1
1252 335 -1
1252 1016 -1
1252 1252 3
1253 57 -1
1253 85 -1
1253 243 -1
1253 1253 3
1254 6 -1
1254 961 -1
1254 970 -1
1254 1254 3
1255 6 -1
1255 227 -1
1255 681 -1
1255 1255 3
1256 71 -1
1256 78 -1
1256 200 -1
1256 1256 4
1257 34 -1
1257 330 -1
1257 1126 -1
1257 1257 3
1258 231 -1
1258 357 -1
1258 511 -1
1258 1258 3
1259 109 -1
1259 461 -1
1259 1027 -1
1259 1259 3
1260 370 -1
1260 1004 -1
1260 1196 -1
1260 1260 3
1261 20 -1
1261 70 -1
1261 182 -1
1261 1261 4
1262 1 -1
1262 7 -1
1262 1232 -1
1262 1262 3
1263 197 -1
1263 239 -1
1263 1105 -1
1263 1263 3
1264 20 -1
1264 57 -1
1264 118 -1
1264 1264 3
1265 651 -1
1265 860 -1
1265 976 -1
1265 1265 4
1266 38 -1
1266 158 -1
1266 168 -1
1266 1266 3
1267 13 -1
1267 79 -1
1267 495 -1
1267 1267 3
1268 34 -1
1268 243 -1
1268 777 -1
1268 1268 3
1269 218 -1
1269 231 -1
1269 452 -1
1269 1269 3
1270 11 -1
1270 31 -1
1270 1059 -1
1270 1270 3
1271 69 -1
1271 787 -1
1271 1224 -1
1271 1271 4
1272 119 -1
1272 315 -1
1272 990 -1
1272 1272 3
1273 7 -1
1273 350 -1
1273 698 -1
1273 1273 4
1274 23 -1
1274 35 -1
1274 74 -1
1274 1274 3
1275 20 -1
1275 66 -1
1275 337 -1
1275 1275 3
1276 491 -1
1276 500 -1
1276 526 -1
1276 1276 3
1277 15 -1
1277 208 -1
1277 1004 -1
1277 1277 3
1278 13 -1
1278 20 -1
1278 1174 -1
1278 1278 3
1279 758 -1
1279 1100 -1
1279 1251 -1
1279 1279 3
1280 85 -1
1280 118 -1
1280 978 -1
1280 1280 3
1281 6 -1
1281 310 -1
1281 576 -1
1281 1281 3
1282 6 -1
1282 24 -1
1282 342 -1
1282 1282 3
1283 6 -1
1283 440 -1
1283 600 -1
1283 1283 3
1284 31 -1
1284 71 -1
1284 1131 -1
1284 1284 3
1285 9 -1
1285 57 -1
1285 404 -1
1285 1285 3
1286 10 -1
1286 75 -1
1286 695 -1
1286 1286 3
1287 248 -1
1287 308 -1
1287 364 -1
1287 1287 3
1288 46 -1
1288 66 -1
1288 104 -1
1288 1288 3
1289 39 -1
1289 54 -1
1289 82 -1
1289 1289 4
1290 128 -1
1290 207 -1
1290 305 -1
1290 1290 4
1291 5 -1
1291 255 -1
1291 450 -1
1291 1291 3
1292 17 -1
1292 121 -1
1292 627 -1
1292 1292 3
1293 14 -1
1293 277 -1
1293 507 -1
1293 1293 3
1294 321 -1
1294 483 -1
1294 773 -1
1294 1294 3
1295 11 -1
1295 418 -1
1295 1013 -1
1295 1295 4
1296 102 -1
1296 198 -1
1296 506 -1
1296 1296 3
1297 677 -1
1297 811 -1
1297 1058 -1
1297 1297 3
1298 29 -1
1298 253 -1
1298 270 -1
1298 1298 4
1299 24 -1
1299 85 -1
1299 445 -1
1299 1299 4
1300 209 -1
1300 338 -1
1300 1090 -1
1300 1300 4
1301 12 -1
1301 563 -1
1301 1004 -1
1301 1301 4
1302 26 -1
1302 36 -1
1302 104 -1
1302 1302 3
1303 203 -1
1303 301 -1
1303 476 -1
1303 1303 4
1304 5 -1
1304 950 -1
1304 1201 -1
1304 1304 4
1305 5 -1
1305 7 -1
1305 104 -1
1305 1305 3
1306 6 -1
1306 517 -1
1306 922 -1
1306 1306 3
1307 870 -1
1307 996 -1
1307 1011 -1
1307 1307 3
1308 145 -1
1308 257 -1
1308 423 -1
1308 1308 3
1309 37 -1
1309 229 -1
1309 557 -1
1309 1309 3
1310 5 -1
1310 85 -1
1310 675 -1
1310 1310 3
1311 5 -1
1311 34 -1
1311 975 -1
1311 1311 3
1312 63 -1
1312 210 -1
1312 1261 -1
1312 1312 3
1313 713 -1
1313 749 -1
1313 952 -1
1313 1313 4
1314 567 -1
1314 960 -1
1314 1226 -1
1314 1314 3
1315 17 -1
1315 512 -1
1315 629 -1
1315 1315 4
1316 5 -1
1316 119 -1
1316 796 -1
1316 1316 3
1317 5 -1
1317 100 -1
1317 403 -1
1317 1317 3
1318 6 -1
1318 27 -1
1318 1123 -1
1318 1318 3
1319 9 -1
1319 114 -1
1319 190 -1
1319 1319 3
1320 75 -1
1320 228 -1
1320 597 -1
1320 1320 3
1321 23 -1
1321 47 -1
1321 229 -1
1321 1321 3
1322 243 -1
1322 282 -1
1322 1165 -1
1322 1322 3
1323 119 -1
1323 540 -1
1323 960 -1
1323 1323 3
1324 153 -1
1324 440 -1
1324 1139 -1
1324 1324 3
1325 14 -1
1325 82 -1
1325 334 -1
1325 1325 3
1326 17 -1
1326 105 -1
1326 322 -1
1326 1326 4
1327 189 -1
1327 280 -1
1327 1068 -1
1327 1327 3
1328 135 -1
1328 152 -1
1328 1055 -1
1328 1328 3
1329 8 -1
1329 140 -1
1329 187 -1
1329 1329 4
1330 302 -1
1330 432 -1
1330 617 -1
1330 1330 3
1331 168 -1
1331 468 -1
1331 735 -1
1331 1331 3
1332 74 -1
1332 229 -1
1332 1055 -1
1332 1332 3
1333 14 -1
1333 420 -1
1333 424 -1
1333 1333 3
1334 365 -1
1334 636 -1
1334 1167 -1
1334 1334 3
1335 8 -1
1335 118 -1
1335 167 -1
1335 1335 3
1336 7 -1
1336 940 -1
1336 1106 -1
1336 1336 3
1337 7 -1
1337 13 -1
1337 122 -1
1337 1337 3
1338 9 -1
1338 297 -1
1338 827 -1
1338 1338 4
1339 451 -1
1339 597 -1
1339 1173 -1
1339 1339 4
1340 128 -1
1340 206 -1
1340 974 -1
1340 1340 3
1341 322 -1
1341 342 -1
1341 489 -1
1341 1341 3
1342 9 -1
1342 61 -1
1342 70 -1
1342 1342 3
1343 5 -1
1343 43 -1
1343 928 -1
1343 1343 3
1344 23 -1
1344 71 -1
1344 1123 -1
1344 1344 4
1345 531 -1
1345 1170 -1
1345 1303 -1
1345 1345 4
1346 198 -1
1346 561 -1
1346 591 -1
1346 1346 3
1347 54 -1
1347 297 -1
1347 442 -1
1347 1347 3
1348 131 -1
1348 634 -1
1348 1101 -1
1348 1348 3
1349 169 -1
1349 194 -1
1349 1087 -1
1349 1349 3
1350 4 -1
1350 15 -1
1350 1137 -1
1350 1350 3
1351 264 -1
1351 989 -1
1351 1345 -1
1351 1351 3
1352 75 -1
1352 274 -1
1352 1128 -1
1352 1352 3
1353 5 -1
1353 233 -1
1353 550 -1
1353 1353 3
1354 4 -1
1354 864 -1
1354 1131 -1
1354 1354 3
1355 9 -1
1355 118 -1
1355 223 -1
1355 1355 3
1356 8 -1
1356 1113 -1
1356 1256 -1
1356 1356 3
1357 19 -1
1357 33 -1
1357 102 -1
1357 1357 3
1358 273 -1
1358 488 -1
1358 885 -1
1358 1358 4
1359 179 -1
1359 350 -1
1359 1108 -1
1359 1359 3
1360 129 -1
1360 1160 -1
1360 1239 -1
1360 1360 3
1361 87 -1
1361 157 -1
1361 456 -1
1361 1361 3
1362 9 -1
1362 92 -1
1362 1290 -1
1362 1362 3
1363 5 -1
1363 8 -1
1363 39 -1
1363 1363 3
1364 480 -1
1364 787 -1
1364 1265 -1
1364 1364 3
1365 5 -1
1365 593 -1
1365 1125 -1
1365 1365 3
1366 2 -1
1366 168 -1
1366 526 -1
1366 1366 3
1367 239 -1
1367 586 -1
1367 936 -1
1367 1367 3
1368 69 -1
1368 82 -1
1368 89 -1
1368 1368 3
1369 34 -1
1369 135 -1
1369 259 -1
1369 1369 3
1370 98 -1
1370 409 -1
1370 1221 -1
1370 1370 3
1371 526 -1
1371 540 -1
1371 809 -1
1371 1371 3
1372 170 -1
1372 210 -1
1372 1029 -1
1372 1372 3
1373 243 -1
1373 767 -1
1373 1049 -1
1373 1373 3
1374 378 -1
1374 548 -1
1374 1148 -1
1374 1374 3
1375 6 -1
1375 520 -1
1375 961 -1
1375 1375 4
1376 280 -1
1376 984 -1
1376 1313 -1
1376 1376 3
1377 391 -1
1377 540 -1
1377 1375 -1
1377 1377 3
1378 174 -1
1378 274 -1
1378 1064 -1
1378 1378 3
1379 5 -1
1379 67 -1
1379 874 -1
1379 1379 3
1380 9 -1
1380 57 -1
1380 163 -1
1380 1380 3
1381 121 -1
1381 547 -1
1381 639 -1
1381 1381 3
1382 192 -1
1382 439 -1
1382 680 -1
1382 1382 3
1383 156 -1
1383 662 -1
1383 731 -1
1383 1383 3
1384 97 -1
1384 972 -1
1384 1064 -1
1384 1384 3
1385 256 -1
1385 484 -1
1385 649 -1
1385 1385 3
1386 8 -1
1386 9 -1
1386 983 -1
1386 1386 3
1387 2 -1
1387 305 -1
1387 955 -1
1387 1387 4
1388 78 -1
1388 634 -1
1388 847 -1
1388 1388 3
1389 5 -1
1389 107 -1
1389 176 -1
1389 1389 3
1390 24 -1
1390 36 -1
1390 104 -1
1390 1390 3
1391 5 -1
1391 24 -1
1391 37 -1
1391 1391 3
1392 142 -1
1392 522 -1
1392 909 -1
1392 1392 3
1393 447 -1
1393 488 -1
1393 887 -1
1393 1393 3
1394 63 -1
1394 166 -1
1394 333 -1
1394 1394 3
1395 128 -1
1395 306 -1
1395 390 -1
1395 1395 3
1396 5 -1
1396 98 -1
1396 850 -1
1396 1396 3
1397 54 -1
1397 279 -1
1397 657 -1
1397 1397 3
1398 282 -1
1398 376 -1
1398 884 -1
1398 1398 3
1399 50 -1
1399 1167 -1
1399 1196 -1
1399 1399 3
1400 48 -1
1400 479 -1
1400 613 -1
1400 1400 4
1401 382 -1
1401 482 -1
1401 841 -1
1401 1401 3
1402 82 -1
1402 351 -1
1402 398 -1
1402 1402 3
1403 7 -1
1403 8 -1
1403 292 -1
1403 1403 3
1404 109 -1
1404 315 -1
1404 872 -1
1404 1404 3
1405 35 -1
1405 118 -1
1405 1358 -1
1405 1405 4
1406 107 -1
1406 135 -1
1406 653 -1
1406 1406 3
1407 7 -1
1407 648 -1
1407 845 -1
1407 1407 3
1408 237 -1
1408 920 -1
1408 1223 -1
1408 1408 3
1409 4 -1
1409 39 -1
1409 576 -1
1409 1409 3
1410 6 -1
1410 87 -1
1410 348 -1
1410 1410 3
1411 6 -1
1411 66 -1
1411 704 -1
1411 1411 3
1412 16 -1
1412 1057 -1
1412 1200 -1
1412 1412 3
1413 93 -1
1413 1134 -1
1413 1149 -1
1413 1413 3
1414 15 -1
1414 602 -1
1414 630 -1
1414 1414 3
1415 280 -1
1415 749 -1
1415 1028 -1
1415 1415 3
1416 66 -1
1416 488 -1
1416 619 -1
1416 1416 3
1417 2 -1
1417 118 -1
1417 436 -1
1417 1417 3
1418 12 -1
1418 58 -1
1418 710 -1
1418 1418 3
1419 206 -1
1419 289 -1
1419 781 -1
1419 1419 3
1420 6 -1
1420 246 -1
1420 468 -1
1420 1420 3
1421 208 -1
1421 253 -1
1421 926 -1
1421 1421 3
1422 88 -1
1422 243 -1
1422 1181 -1
1422 1422 3
1423 432 -1
1423 454 -1
1423 1189 -1
1423 1423 3
1424 15 -1
1424 280 -1
1424 650 -1
1424 1424 3
1425 407 -1
1425 522 -1
1425 1121 -1
1425 1425 4
1426 311 -1
1426 496 -1
1426 772 -1
1426 1426 3
1427 139 -1
1427 265 -1
1427 652 -1
1427 1427 3
1428 4 -1
1428 1076 -1
1428 1344 -1
1428 1428 3
1429 7 -1
1429 152 -1
1429 374 -1
1429 1429 3
1430 71 -1
1430 398 -1
1430 1171 -1
1430 1430 5
1431 5 -1
1431 268 -1
1431 1315 -1
1431 1431 3
1432 27 -1
1432 65 -1
1432 306 -1
1432 1432 3
1433 227 -1
1433 800 -1
1433 1058 -1
1433 1433 3
1434 8 -1
1434 613 -1
1434 628 -1
1434 1434 3
1435 727 -1
1435 1289 -1
1435 1339 -1
1435 1435 4
1436 252 -1
1436 508 -1
1436 931 -1
1436 1436 3
1437 578 -1
1437 1012 -1
1437 1045 -1
1437 1437 3
1438 39 -1
1438 125 -1
1438 317 -1
1438 1438 3
1439 722 -1
1439 1204 -1
1439 1273 -1
1439 1439 3
1440 79 -1
1440 256 -1
1440 621 -1
1440 1440 3
1441 13 -1
1441 141 -1
1441 416 -1
1441 1441 3
1442 129 -1
1442 327 -1
1442 942 -1
1442 1442 3
1443 132 -1
1443 170 -1
1443 201 -1
1443 1443 3
1444 84 -1
1444 1300 -1
1444 1430 -1
1444 1444 3
1445 256 -1
1445 321 -1
1445 1304 -1
1445 1445 3
1446 98 -1
1446 219 -1
1446 1010 -1
1446 1446 3
1447 406 -1
1447 749 -1
1447 961 -1
1447 1447 3
1448 15 -1
1448 313 -1
1448 798 -1
1448 1448 3
1449 6 -1
1449 14 -1
1449 582 -1
1449 1449 3
1450 120 -1
1450 348 -1
1450 450 -1
1450 1450 3
1451 31 -1
1451 217 -1
1451 1192 -1
1451 1451 3
1452 46 -1
1452 249 -1
1452 407 -1
1452 1452 3
1453 186 -1
1453 241 -1
1453 1063 -1
1453 1453 3
1454 5 -1
1454 9 -1
1454 894 -1
1454 1454 3
1455 37 -1
1455 681 -1
1455 1189 -1
1455 1455 3
1456 139 -1
1456 1149 -1
1456 1430 -1
1456 1456 3
1457 408 -1
1457 412 -1
1457 1135 -1
1457 1457 3
1458 8 -1
1458 277 -1
1458 279 -1
1458 1458 3
1459 451 -1
1459 942 -1
1459 1041 -1
1459 1459 3
1460 497 -1
1460 1049 -1
1460 1329 -1
1460 1460 3
1461 6 -1
1461 48 -1
1461 1295 -1
1461 1461 3
1462 259 -1
1462 396 -1
1462 494 -1
1462 1462 3
1463 109 -1
1463 1084 -1
1463 1100 -1
1463 1463 3
1464 138 -1
1464 414 -1
1464 652 -1
1464 1464 3
1465 79 -1
1465 282 -1
1465 1301 -1
1465 1465 3
1466 5 -1
1466 831 -1
1466 926 -1
1466 1466 3
1467 505 -1
1467 591 -1
1467 769 -1
1467 1467 3
1468 5 -1
1468 166 -1
1468 370 -1
1468 1468 3
1469 391 -1
1469 824 -1
1469 1213 -1
1469 1469 3
1470 233 -1
1470 247 -1
1470 739 -1
1470 1470 3
1471 197 -1
1471 302 -1
1471 335 -1
1471 1471 3
1472 15 -1
1472 1115 -1
1472 1326 -1
1472 1472 3
1473 17 -1
1473 36 -1
1473 66 -1
1473 1473 3
1474 162 -1
1474 313 -1
1474 853 -1
1474 1474 3
1475 6 -1
1475 1105 -1
1475 1387 -1
1475 1475 3
1476 26 -1
1476 256 -1
1476 1435 -1
1476 1476 3
1477 27 -1
1477 119 -1
1477 263 -1
1477 1477 3
1478 7 -1
1478 8 -1
1478 244 -1
1478 1478 3
1479 35 -1
1479 330 -1
1479 547 -1
1479 1479 3
1480 282 -1
1480 1009 -1
1480 1271 -1
1480 1480 3
1481 27 -1
1481 156 -1
1481 1087 -1
1481 1481 3
1482 8 -1
1482 282 -1
1482 664 -1
1482 1482 3
1483 330 -1
1483 488 -1
1483 1338 -1
1483 1483 3
1484 42 -1
1484 82 -1
1484 1299 -1
1484 1484 3
1485 78 -1
1485 250 -1
1485 450 -1
1485 1485 3
1486 5 -1
1486 78 -1
1486 1059 -1
1486 1486 3
1487 139 -1
1487 267 -1
1487 448 -1
1487 1487 3
1488 56 -1
1488 568 -1
1488 618 -1
1488 1488 3
1489 738 -1
1489 754 -1
1489 1405 -1
1489 1489 3
1490 23 -1
1490 58 -1
1490 1298 -1
1490 1490 3
1491 4 -1
1491 26 -1
1491 476 -1
1491 1491 3
1492 53 -1
1492 114 -1
1492 116 -1
1492 1492 3
1493 2 -1
1493 616 -1
1493 755 -1
1493 1493 3
1494 10 -1
1494 547 -1
1494 1126 -1
1494 1494 3
1495 57 -1
1495 599 -1
1495 1174 -1
1495 1495 3
1496 23 -1
1496 111 -1
1496 1425 -1
1496 1496 3
1497 11 -1
1497 1025 -1
1497 1400 -1
1497 1497 3
1498 117 -1
1498 153 -1
1498 775 -1
1498 1498 3
1499 47 -1
1499 118 -1
1499 190 -1
1499 1499 3
1500 574 -1
1500 758 -1
1500 891 -1
1500 1500 3
