%%MatrixMarket matrix coordinate integer symmetric
%
4057 4057 16219
1 1 92
2 1 -1
2 2 61
3 1 -1
3 3 8
4 1 -1
4 4 91
5 1 -1
5 3 -1
5 4 -1
5 5 232
6 1 -1
6 2 -1
6 5 -1
6 6 155
7 1 -1
7 3 -1
7 6 -1
7 7 182
8 1 -1
8 6 -1
8 7 -1
8 8 160
9 2 -1
9 6 -1
9 7 -1
9 9 87
10 5 -1
10 6 -1
10 8 -1
10 10 64
11 1 -1
11 5 -1
11 8 -1
11 11 75
12 5 -1
12 6 -1
12 7 -1
12 12 28
13 2 -1
13 5 -1
13 7 -1
13 13 99
14 1 -1
14 4 -1
14 7 -1
14 14 34
15 4 -1
15 8 -1
15 9 -1
15 15 50
16 6 -1
16 8 -1
16 13 -1
16 16 36
17 5 -1
17 6 -1
17 15 -1
17 17 65
18 6 -1
18 11 -1
18 15 -1
18 18 12
19 1 -1
19 4 -1
19 6 -1
19 19 41
20 4 -1
20 8 -1
20 11 -1
20 20 31
21 5 -1
21 6 -1
21 8 -1
21 21 36
22 1 -1
22 5 -1
22 8 -1
22 22 25
23 9 -1
23 13 -1
23 17 -1
23 23 82
24 6 -1
24 11 -1
24 21 -1
24 24 39
25 6 -1
25 7 -1
25 11 -1
25 25 7
26 1 -1
26 5 -1
26 8 -1
26 26 70
27 7 -1
27 10 -1
27 26 -1
27 27 53
28 4 -1
28 15 -1
28 23 -1
28 28 25
29 7 -1
29 17 -1
29 27 -1
29 29 29
30 4 -1
30 5 -1
30 13 -1
30 30 40
31 5 -1
31 8 -1
31 15 -1
31 31 44
32 2 -1
32 6 -1
32 23 -1
32 32 26
33 2 -1
33 15 -1
33 31 -1
33 33 24
34 6 -1
34 8 -1
34 20 -1
34 34 46
35 4 -1
35 5 -1
35 23 -1
35 35 79
36 9 -1
36 14 -1
36 35 -1
36 36 14
37 4 -1
37 26 -1
37 27 -1
37 37 19
38 5 -1
38 28 -1
38 35 -1
38 38 24
39 5 -1
39 6 -1
39 28 -1
39 39 28
40 7 -1
40 9 -1
40 25 -1
40 40 18
41 7 -1
41 11 -1
41 35 -1
41 41 9
42 1 -1
42 8 -1
42 40 -1
42 42 32
43 10 -1
43 30 -1
43 37 -1
43 43 31
44 1 -1
44 2 -1
44 7 -1
44 44 23
45 4 -1
45 6 -1
45 8 -1
45 45 17
46 7 -1
46 23 -1
46 26 -1
46 46 49
47 4 -1
47 7 -1
47 13 -1
47 47 27
48 2 -1
48 13 -1
48 26 -1
48 48 40
49 11 -1
49 15 -1
49 17 -1
49 49 21
50 1 -1
50 8 -1
50 42 -1
50 50 23
51 4 -1
51 13 -1
51 46 -1
51 51 26
52 2 -1
52 7 -1
52 13 -1
52 52 33
53 5 -1
53 20 -1
53 35 -1
53 53 10
54 1 -1
54 11 -1
54 17 -1
54 54 17
55 1 -1
55 31 -1
55 45 -1
55 55 22
56 5 -1
56 13 -1
56 34 -1
56 56 18
57 5 -1
57 6 -1
57 8 -1
57 57 77
58 7 -1
58 10 -1
58 24 -1
58 58 8
59 5 -1
59 8 -1
59 9 -1
59 59 31
60 14 -1
60 15 -1
60 44 -1
60 60 19
61 11 -1
61 26 -1
61 50 -1
61 61 25
62 9 -1
62 17 -1
62 55 -1
62 62 18
63 1 -1
63 5 -1
63 62 -1
63 63 15
64 11 -1
64 30 -1
64 35 -1
64 64 3
65 7 -1
65 8 -1
65 35 -1
65 65 28
66 4 -1
66 26 -1
66 42 -1
66 66 19
67 7 -1
67 11 -1
67 17 -1
67 67 22
68 1 -1
68 5 -1
68 32 -1
68 68 14
69 1 -1
69 13 -1
69 23 -1
69 69 16
70 2 -1
70 5 -1
70 22 -1
70 70 24
71 2 -1
71 30 -1
71 57 -1
71 71 37
72 6 -1
72 9 -1
72 23 -1
72 72 33
73 5 -1
73 6 -1
73 47 -1
73 73 10
74 21 -1
74 27 -1
74 50 -1
74 74 25
75 1 -1
75 5 -1
75 8 -1
75 75 24
76 4 -1
76 52 -1
76 65 -1
76 76 15
77 7 -1
77 20 -1
77 24 -1
77 77 30
78 7 -1
78 70 -1
78 72 -1
78 78 37
79 4 -1
79 5 -1
79 38 -1
79 79 30
80 6 -1
80 14 -1
80 40 -1
80 80 18
81 6 -1
81 9 -1
81 28 -1
81 81 22
82 4 -1
82 43 -1
82 77 -1
82 82 60
83 8 -1
83 26 -1
83 59 -1
83 83 8
84 6 -1
84 7 -1
84 9 -1
84 84 9
85 5 -1
85 26 -1
85 32 -1
85 85 30
86 5 -1
86 6 -1
86 77 -1
86 86 25
87 4 -1
87 6 -1
87 8 -1
87 87 16
88 8 -1
88 15 -1
88 49 -1
88 88 7
89 9 -1
89 19 -1
89 27 -1
89 89 14
90 16 -1
90 46 -1
90 82 -1
90 90 15
91 12 -1
91 20 -1
91 79 -1
91 91 6
92 6 -1
92 7 -1
92 19 -1
92 92 34
93 23 -1
93 47 -1
93 86 -1
93 93 16
94 5 -1
94 7 -1
94 23 -1
94 94 16
95 1 -1
95 2 -1
95 68 -1
95 95 29
96 1 -1
96 11 -1
96 70 -1
96 96 41
97 4 -1
97 52 -1
97 81 -1
97 97 18
98 13 -1
98 14 -1
98 54 -1
98 98 30
99 11 -1
99 13 -1
99 96 -1
99 99 29
100 7 -1
100 13 -1
100 57 -1
100 100 28
101 12 -1
101 32 -1
101 89 -1
101 101 20
102 13 -1
102 30 -1
102 94 -1
102 102 15
103 17 -1
103 35 -1
103 90 -1
103 103 30
104 1 -1
104 15 -1
104 72 -1
104 104 24
105 6 -1
105 12 -1
105 26 -1
105 105 13
106 6 -1
106 10 -1
106 102 -1
106 106 20
107 17 -1
107 75 -1
107 103 -1
107 107 27
108 7 -1
108 57 -1
108 86 -1
108 108 13
109 38 -1
109 48 -1
109 57 -1
109 109 25
110 11 -1
110 44 -1
110 71 -1
110 110 6
111 8 -1
111 43 -1
111 45 -1
111 111 25
112 5 -1
112 8 -1
112 57 -1
112 112 14
113 4 -1
113 11 -1
113 57 -1
113 113 13
114 5 -1
114 16 -1
114 95 -1
114 114 41
115 7 -1
115 11 -1
115 16 -1
115 115 14
116 15 -1
116 26 -1
116 63 -1
116 116 33
117 17 -1
117 45 -1
117 52 -1
117 117 24
118 30 -1
118 78 -1
118 96 -1
118 118 47
119 7 -1
119 55 -1
119 115 -1
119 119 15
120 4 -1
120 7 -1
120 117 -1
120 120 6
121 1 -1
121 52 -1
121 98 -1
121 121 23
122 17 -1
122 21 -1
122 26 -1
122 122 13
123 5 -1
123 14 -1
123 23 -1
123 123 31
124 2 -1
124 8 -1
124 30 -1
124 124 9
125 39 -1
125 62 -1
125 75 -1
125 125 6
126 5 -1
126 38 -1
126 98 -1
126 126 13
127 8 -1
127 17 -1
127 46 -1
127 127 12
128 12 -1
128 19 -1
128 46 -1
128 128 10
129 5 -1
129 13 -1
129 52 -1
129 129 18
130 2 -1
130 11 -1
130 60 -1
130 130 14
131 5 -1
131 48 -1
131 112 -1
131 131 13
132 31 -1
132 38 -1
132 130 -1
132 132 25
133 8 -1
133 54 -1
133 76 -1
133 133 14
134 5 -1
134 9 -1
134 99 -1
134 134 8
135 7 -1
135 16 -1
135 121 -1
135 135 29
136 5 -1
136 17 -1
136 81 -1
136 136 10
137 13 -1
137 27 -1
137 35 -1
137 137 21
138 1 -1
138 24 -1
138 25 -1
138 138 19
139 4 -1
139 10 -1
139 56 -1
139 139 23
140 7 -1
140 35 -1
140 39 -1
140 140 17
141 21 -1
141 46 -1
141 117 -1
141 141 8
142 30 -1
142 35 -1
142 99 -1
142 142 14
143 47 -1
143 109 -1
143 131 -1
143 143 11
144 7 -1
144 13 -1
144 31 -1
144 144 5
145 6 -1
145 99 -1
145 140 -1
145 145 11
146 6 -1
146 21 -1
146 34 -1
146 146 6
147 60 -1
147 129 -1
147 137 -1
147 147 8
148 27 -1
148 30 -1
148 140 -1
148 148 15
149 13 -1
149 23 -1
149 99 -1
149 149 10
150 15 -1
150 24 -1
150 49 -1
150 150 26
151 8 -1
151 13 -1
151 123 -1
151 151 22
152 6 -1
152 10 -1
152 150 -1
152 152 21
153 35 -1
153 41 -1
153 47 -1
153 153 32
154 34 -1
154 63 -1
154 82 -1
154 154 13
155 13 -1
155 139 -1
155 152 -1
155 155 5
156 1 -1
156 42 -1
156 116 -1
156 156 22
157 9 -1
157 36 -1
157 44 -1
157 157 35
158 15 -1
158 51 -1
158 151 -1
158 158 15
159 51 -1
159 63 -1
159 135 -1
159 159 19
160 4 -1
160 6 -1
160 90 -1
160 160 5
161 95 -1
161 119 -1
161 147 -1
161 161 15
162 8 -1
162 23 -1
162 60 -1
162 162 30
163 8 -1
163 48 -1
163 153 -1
163 163 21
164 10 -1
164 11 -1
164 17 -1
164 164 10
165 22 -1
165 70 -1
165 105 -1
165 165 17
166 1 -1
166 46 -1
166 62 -1
166 166 12
167 57 -1
167 72 -1
167 103 -1
167 167 12
168 20 -1
168 23 -1
168 69 -1
168 168 18
169 14 -1
169 94 -1
169 157 -1
169 169 14
170 7 -1
170 11 -1
170 124 -1
170 170 12
171 1 -1
171 72 -1
171 92 -1
171 171 15
172 95 -1
172 141 -1
172 161 -1
172 172 8
173 11 -1
173 98 -1
173 126 -1
173 173 7
174 96 -1
174 129 -1
174 130 -1
174 174 11
175 2 -1
175 12 -1
175 13 -1
175 175 4
176 27 -1
176 43 -1
176 116 -1
176 176 17
177 46 -1
177 106 -1
177 109 -1
177 177 4
178 16 -1
178 46 -1
178 47 -1
178 178 9
179 7 -1
179 23 -1
179 104 -1
179 179 9
180 8 -1
180 62 -1
180 147 -1
180 180 6
181 1 -1
181 106 -1
181 142 -1
181 181 5
182 75 -1
182 101 -1
182 107 -1
182 182 12
183 113 -1
183 150 -1
183 162 -1
183 183 3
184 16 -1
184 76 -1
184 154 -1
184 184 16
185 32 -1
185 61 -1
185 165 -1
185 185 14
186 96 -1
186 100 -1
186 179 -1
186 186 13
187 6 -1
187 35 -1
187 109 -1
187 187 14
188 1 -1
188 71 -1
188 80 -1
188 188 7
189 7 -1
189 19 -1
189 87 -1
189 189 14
190 28 -1
190 46 -1
190 135 -1
190 190 13
191 6 -1
191 22 -1
191 121 -1
191 191 14
192 6 -1
192 7 -1
192 172 -1
192 192 16
193 5 -1
193 7 -1
193 11 -1
193 193 15
194 35 -1
194 78 -1
194 99 -1
194 194 19
195 5 -1
195 162 -1
195 180 -1
195 195 5
196 8 -1
196 9 -1
196 35 -1
196 196 7
197 49 -1
197 159 -1
197 162 -1
197 197 9
198 5 -1
198 61 -1
198 194 -1
198 198 20
199 116 -1
199 139 -1
199 149 -1
199 199 19
200 7 -1
200 42 -1
200 121 -1
200 200 34
201 1 -1
201 7 -1
201 157 -1
201 201 18
202 8 -1
202 98 -1
202 181 -1
202 202 5
203 85 -1
203 94 -1
203 97 -1
203 203 15
204 13 -1
204 82 -1
204 101 -1
204 204 12
205 9 -1
205 96 -1
205 118 -1
205 205 13
206 31 -1
206 57 -1
206 80 -1
206 206 9
207 13 -1
207 31 -1
207 82 -1
207 207 18
208 20 -1
208 34 -1
208 134 -1
208 208 11
209 25 -1
209 131 -1
209 145 -1
209 209 24
210 19 -1
210 116 -1
210 153 -1
210 210 15
211 6 -1
211 74 -1
211 145 -1
211 211 5
212 94 -1
212 136 -1
212 137 -1
212 212 11
213 10 -1
213 133 -1
213 200 -1
213 213 5
214 1 -1
214 2 -1
214 166 -1
214 214 25
215 35 -1
215 105 -1
215 129 -1
215 215 12
216 135 -1
216 187 -1
216 209 -1
216 216 7
217 5 -1
217 78 -1
217 170 -1
217 217 8
218 81 -1
218 152 -1
218 169 -1
218 218 19
219 13 -1
219 118 -1
219 136 -1
219 219 16
220 15 -1
220 35 -1
220 163 -1
220 220 9
221 47 -1
221 100 -1
221 135 -1
221 221 8
222 5 -1
222 24 -1
222 57 -1
222 222 11
223 5 -1
223 32 -1
223 196 -1
223 223 12
224 15 -1
224 32 -1
224 42 -1
224 224 14
225 5 -1
225 26 -1
225 161 -1
225 225 11
226 8 -1
226 92 -1
226 115 -1
226 226 4
227 51 -1
227 52 -1
227 115 -1
227 227 12
228 8 -1
228 55 -1
228 98 -1
228 228 13
229 31 -1
229 82 -1
229 147 -1
229 229 11
230 1 -1
230 10 -1
230 164 -1
230 230 16
231 21 -1
231 23 -1
231 80 -1
231 231 24
232 8 -1
232 10 -1
232 225 -1
232 232 8
233 8 -1
233 14 -1
233 17 -1
233 233 21
234 9 -1
234 10 -1
234 209 -1
234 234 13
235 4 -1
235 32 -1
235 34 -1
235 235 9
236 10 -1
236 165 -1
236 232 -1
236 236 13
237 72 -1
237 162 -1
237 196 -1
237 237 8
238 11 -1
238 79 -1
238 129 -1
238 238 7
239 10 -1
239 74 -1
239 210 -1
239 239 35
240 40 -1
240 44 -1
240 59 -1
240 240 5
241 12 -1
241 71 -1
241 201 -1
241 241 15
242 4 -1
242 130 -1
242 200 -1
242 242 21
243 29 -1
243 56 -1
243 71 -1
243 243 20
244 57 -1
244 81 -1
244 239 -1
244 244 16
245 38 -1
245 86 -1
245 241 -1
245 245 8
246 106 -1
246 208 -1
246 237 -1
246 246 14
247 6 -1
247 11 -1
247 162 -1
247 247 14
248 15 -1
248 122 -1
248 185 -1
248 248 15
249 27 -1
249 60 -1
249 229 -1
249 249 13
250 7 -1
250 161 -1
250 176 -1
250 250 7
251 6 -1
251 92 -1
251 137 -1
251 251 7
252 9 -1
252 127 -1
252 151 -1
252 252 8
253 86 -1
253 160 -1
253 220 -1
253 253 19
254 5 -1
254 35 -1
254 152 -1
254 254 11
255 107 -1
255 115 -1
255 152 -1
255 255 10
256 2 -1
256 11 -1
256 187 -1
256 256 30
257 14 -1
257 152 -1
257 162 -1
257 257 13
258 31 -1
258 95 -1
258 253 -1
258 258 11
259 5 -1
259 33 -1
259 87 -1
259 259 17
260 6 -1
260 13 -1
260 157 -1
260 260 10
261 157 -1
261 162 -1
261 198 -1
261 261 8
262 8 -1
262 94 -1
262 225 -1
262 262 4
263 13 -1
263 118 -1
263 172 -1
263 263 10
264 7 -1
264 26 -1
264 114 -1
264 264 16
265 4 -1
265 6 -1
265 75 -1
265 265 8
266 31 -1
266 96 -1
266 117 -1
266 266 11
267 13 -1
267 56 -1
267 193 -1
267 267 11
268 6 -1
268 8 -1
268 13 -1
268 268 7
269 6 -1
269 15 -1
269 249 -1
269 269 15
270 142 -1
270 170 -1
270 193 -1
270 270 20
271 5 -1
271 239 -1
271 262 -1
271 271 9
272 32 -1
272 166 -1
272 246 -1
272 272 6
273 9 -1
273 156 -1
273 171 -1
273 273 10
274 35 -1
274 72 -1
274 79 -1
274 274 12
275 4 -1
275 35 -1
275 59 -1
275 275 10
276 108 -1
276 202 -1
276 230 -1
276 276 8
277 129 -1
277 165 -1
277 192 -1
277 277 8
278 13 -1
278 52 -1
278 61 -1
278 278 3
279 116 -1
279 191 -1
279 258 -1
279 279 8
280 2 -1
280 158 -1
280 243 -1
280 280 21
281 70 -1
281 89 -1
281 108 -1
281 281 10
282 6 -1
282 7 -1
282 82 -1
282 282 28
283 44 -1
283 69 -1
283 111 -1
283 283 6
284 114 -1
284 186 -1
284 257 -1
284 284 9
285 11 -1
285 23 -1
285 239 -1
285 285 7
286 77 -1
286 157 -1
286 187 -1
286 286 12
287 14 -1
287 92 -1
287 118 -1
287 287 14
288 113 -1
288 118 -1
288 207 -1
288 288 7
289 28 -1
289 100 -1
289 118 -1
289 289 9
290 5 -1
290 26 -1
290 81 -1
290 290 10
291 7 -1
291 46 -1
291 75 -1
291 291 5
292 8 -1
292 100 -1
292 245 -1
292 292 20
293 13 -1
293 19 -1
293 97 -1
293 293 5
294 22 -1
294 103 -1
294 192 -1
294 294 12
295 4 -1
295 130 -1
295 221 -1
295 295 6
296 28 -1
296 171 -1
296 260 -1
296 296 8
297 6 -1
297 89 -1
297 199 -1
297 297 19
298 10 -1
298 34 -1
298 72 -1
298 298 10
299 21 -1
299 66 -1
299 117 -1
299 299 4
300 10 -1
300 46 -1
300 57 -1
300 300 7
301 5 -1
301 42 -1
301 284 -1
301 301 9
302 27 -1
302 140 -1
302 171 -1
302 302 18
303 11 -1
303 200 -1
303 218 -1
303 303 8
304 5 -1
304 54 -1
304 55 -1
304 304 13
305 9 -1
305 107 -1
305 280 -1
305 305 27
306 2 -1
306 7 -1
306 88 -1
306 306 15
307 34 -1
307 78 -1
307 264 -1
307 307 11
308 31 -1
308 210 -1
308 273 -1
308 308 8
309 9 -1
309 105 -1
309 268 -1
309 309 4
310 75 -1
310 133 -1
310 157 -1
310 310 12
311 6 -1
311 139 -1
311 297 -1
311 311 15
312 24 -1
312 86 -1
312 204 -1
312 312 12
313 24 -1
313 194 -1
313 215 -1
313 313 14
314 37 -1
314 137 -1
314 256 -1
314 314 8
315 7 -1
315 74 -1
315 217 -1
315 315 20
316 7 -1
316 31 -1
316 65 -1
316 316 13
317 31 -1
317 57 -1
317 85 -1
317 317 20
318 5 -1
318 7 -1
318 29 -1
318 318 6
319 4 -1
319 8 -1
319 47 -1
319 319 11
320 157 -1
320 206 -1
320 210 -1
320 320 15
321 9 -1
321 11 -1
321 35 -1
321 321 11
322 26 -1
322 38 -1
322 94 -1
322 322 7
323 100 -1
323 199 -1
323 243 -1
323 323 10
324 23 -1
324 158 -1
324 238 -1
324 324 18
325 7 -1
325 8 -1
325 83 -1
325 325 19
326 35 -1
326 78 -1
326 272 -1
326 326 13
327 13 -1
327 118 -1
327 229 -1
327 327 11
328 71 -1
328 99 -1
328 322 -1
328 328 5
329 37 -1
329 80 -1
329 189 -1
329 329 10
330 54 -1
330 137 -1
330 161 -1
330 330 23
331 52 -1
331 94 -1
331 157 -1
331 331 5
332 6 -1
332 15 -1
332 60 -1
332 332 15
333 82 -1
333 108 -1
333 274 -1
333 333 14
334 23 -1
334 61 -1
334 259 -1
334 334 11
335 7 -1
335 102 -1
335 153 -1
335 335 17
336 23 -1
336 74 -1
336 163 -1
336 336 4
337 46 -1
337 107 -1
337 242 -1
337 337 6
338 96 -1
338 174 -1
338 325 -1
338 338 6
339 47 -1
339 71 -1
339 172 -1
339 339 8
340 8 -1
340 17 -1
340 34 -1
340 340 8
341 8 -1
341 254 -1
341 307 -1
341 341 11
342 5 -1
342 27 -1
342 153 -1
342 342 10
343 5 -1
343 12 -1
343 43 -1
343 343 11
344 6 -1
344 9 -1
344 118 -1
344 344 7
345 7 -1
345 13 -1
345 297 -1
345 345 6
346 8 -1
346 11 -1
346 187 -1
346 346 11
347 7 -1
347 123 -1
347 305 -1
347 347 8
348 127 -1
348 193 -1
348 301 -1
348 348 14
349 4 -1
349 324 -1
349 339 -1
349 349 5
350 231 -1
350 241 -1
350 282 -1
350 350 31
351 5 -1
351 8 -1
351 113 -1
351 351 7
352 11 -1
352 27 -1
352 82 -1
352 352 3
353 17 -1
353 192 -1
353 200 -1
353 353 9
354 35 -1
354 218 -1
354 256 -1
354 354 5
355 26 -1
355 116 -1
355 224 -1
355 355 5
356 3 -1
356 116 -1
356 279 -1
356 356 4
357 8 -1
357 11 -1
357 157 -1
357 357 7
358 130 -1
358 250 -1
358 357 -1
358 358 4
359 5 -1
359 118 -1
359 305 -1
359 359 7
360 23 -1
360 100 -1
360 142 -1
360 360 7
361 200 -1
361 218 -1
361 334 -1
361 361 9
362 23 -1
362 72 -1
362 86 -1
362 362 4
363 7 -1
363 57 -1
363 209 -1
363 363 9
364 36 -1
364 67 -1
364 282 -1
364 364 11
365 4 -1
365 6 -1
365 57 -1
365 365 8
366 8 -1
366 85 -1
366 118 -1
366 366 8
367 108 -1
367 190 -1
367 287 -1
367 367 8
368 7 -1
368 272 -1
368 315 -1
368 368 7
369 9 -1
369 102 -1
369 265 -1
369 369 13
370 4 -1
370 51 -1
370 350 -1
370 370 18
371 10 -1
371 92 -1
371 192 -1
371 371 11
372 5 -1
372 96 -1
372 350 -1
372 372 16
373 49 -1
373 174 -1
373 207 -1
373 373 4
374 6 -1
374 308 -1
374 371 -1
374 374 14
375 230 -1
375 239 -1
375 334 -1
375 375 4
376 261 -1
376 314 -1
376 374 -1
376 376 16
377 57 -1
377 132 -1
377 223 -1
377 377 4
378 6 -1
378 48 -1
378 114 -1
378 378 18
379 33 -1
379 135 -1
379 326 -1
379 379 6
380 26 -1
380 107 -1
380 267 -1
380 380 4
381 27 -1
381 46 -1
381 153 -1
381 381 5
382 72 -1
382 230 -1
382 346 -1
382 382 12
383 9 -1
383 57 -1
383 304 -1
383 383 17
384 7 -1
384 94 -1
384 315 -1
384 384 9
385 1 -1
385 48 -1
385 283 -1
385 385 9
386 34 -1
386 184 -1
386 324 -1
386 386 8
387 55 -1
387 58 -1
387 59 -1
387 387 7
388 7 -1
388 35 -1
388 118 -1
388 388 4
389 28 -1
389 207 -1
389 242 -1
389 389 6
390 10 -1
390 42 -1
390 50 -1
390 390 12
391 10 -1
391 51 -1
391 65 -1
391 391 12
392 2 -1
392 72 -1
392 306 -1
392 392 5
393 23 -1
393 117 -1
393 134 -1
393 393 20
394 5 -1
394 8 -1
394 23 -1
394 394 5
395 82 -1
395 248 -1
395 259 -1
395 395 10
396 10 -1
396 35 -1
396 170 -1
396 396 12
397 42 -1
397 239 -1
397 366 -1
397 397 3
398 4 -1
398 123 -1
398 126 -1
398 398 12
399 23 -1
399 57 -1
399 75 -1
399 399 12
400 101 -1
400 162 -1
400 343 -1
400 400 11
401 46 -1
401 317 -1
401 318 -1
401 401 8
402 8 -1
402 47 -1
402 321 -1
402 402 7
403 7 -1
403 57 -1
403 111 -1
403 403 14
404 11 -1
404 239 -1
404 305 -1
404 404 15
405 20 -1
405 174 -1
405 293 -1
405 405 4
406 19 -1
406 139 -1
406 315 -1
406 406 9
407 76 -1
407 266 -1
407 333 -1
407 407 12
408 7 -1
408 8 -1
408 165 -1
408 408 11
409 27 -1
409 170 -1
409 205 -1
409 409 11
410 18 -1
410 79 -1
410 205 -1
410 410 6
411 6 -1
411 9 -1
411 42 -1
411 411 18
412 4 -1
412 43 -1
412 149 -1
412 412 14
413 95 -1
413 153 -1
413 244 -1
413 413 10
414 2 -1
414 52 -1
414 133 -1
414 414 9
415 5 -1
415 30 -1
415 214 -1
415 415 6
416 26 -1
416 304 -1
416 399 -1
416 416 13
417 65 -1
417 93 -1
417 220 -1
417 417 7
418 51 -1
418 96 -1
418 287 -1
418 418 7
419 7 -1
419 21 -1
419 123 -1
419 419 12
420 8 -1
420 253 -1
420 350 -1
420 420 14
421 28 -1
421 63 -1
421 346 -1
421 421 6
422 96 -1
422 104 -1
422 332 -1
422 422 8
423 4 -1
423 82 -1
423 323 -1
423 423 17
424 31 -1
424 51 -1
424 57 -1
424 424 14
425 4 -1
425 7 -1
425 253 -1
425 425 14
426 13 -1
426 65 -1
426 156 -1
426 426 6
427 4 -1
427 8 -1
427 184 -1
427 427 4
428 182 -1
428 255 -1
428 256 -1
428 428 5
429 57 -1
429 114 -1
429 257 -1
429 429 10
430 77 -1
430 163 -1
430 325 -1
430 430 11
431 5 -1
431 59 -1
431 426 -1
431 431 8
432 8 -1
432 139 -1
432 227 -1
432 432 14
433 4 -1
433 19 -1
433 320 -1
433 433 7
434 83 -1
434 96 -1
434 282 -1
434 434 9
435 7 -1
435 34 -1
435 211 -1
435 435 7
436 22 -1
436 34 -1
436 59 -1
436 436 7
437 10 -1
437 96 -1
437 370 -1
437 437 8
438 6 -1
438 14 -1
438 313 -1
438 438 8
439 81 -1
439 372 -1
439 404 -1
439 439 12
440 48 -1
440 71 -1
440 92 -1
440 440 11
441 51 -1
441 282 -1
441 325 -1
441 441 13
442 8 -1
442 194 -1
442 256 -1
442 442 22
443 6 -1
443 306 -1
443 307 -1
443 443 11
444 70 -1
444 71 -1
444 251 -1
444 444 16
445 70 -1
445 254 -1
445 375 -1
445 445 14
446 8 -1
446 248 -1
446 275 -1
446 446 6
447 7 -1
447 8 -1
447 133 -1
447 447 10
448 66 -1
448 148 -1
448 256 -1
448 448 8
449 194 -1
449 411 -1
449 440 -1
449 449 5
450 18 -1
450 38 -1
450 231 -1
450 450 11
451 89 -1
451 124 -1
451 207 -1
451 451 21
452 13 -1
452 50 -1
452 72 -1
452 452 10
453 6 -1
453 8 -1
453 11 -1
453 453 8
454 55 -1
454 104 -1
454 153 -1
454 454 10
455 5 -1
455 102 -1
455 410 -1
455 455 9
456 2 -1
456 92 -1
456 372 -1
456 456 10
457 4 -1
457 5 -1
457 21 -1
457 457 7
458 1 -1
458 93 -1
458 248 -1
458 458 13
459 62 -1
459 161 -1
459 405 -1
459 459 6
460 14 -1
460 122 -1
460 165 -1
460 460 9
461 7 -1
461 39 -1
461 90 -1
461 461 15
462 7 -1
462 57 -1
462 81 -1
462 462 6
463 137 -1
463 157 -1
463 189 -1
463 463 3
464 27 -1
464 72 -1
464 256 -1
464 464 11
465 13 -1
465 312 -1
465 347 -1
465 465 8
466 33 -1
466 423 -1
466 453 -1
466 466 10
467 209 -1
467 316 -1
467 359 -1
467 467 4
468 6 -1
468 45 -1
468 307 -1
468 468 8
469 61 -1
469 130 -1
469 330 -1
469 469 7
470 77 -1
470 306 -1
470 338 -1
470 470 4
471 1 -1
471 9 -1
471 223 -1
471 471 8
472 12 -1
472 21 -1
472 48 -1
472 472 7
473 77 -1
473 82 -1
473 191 -1
473 473 3
474 48 -1
474 59 -1
474 403 -1
474 474 6
475 114 -1
475 225 -1
475 411 -1
475 475 4
476 118 -1
476 313 -1
476 324 -1
476 476 14
477 71 -1
477 220 -1
477 297 -1
477 477 5
478 43 -1
478 256 -1
478 450 -1
478 478 7
479 107 -1
479 150 -1
479 297 -1
479 479 10
480 77 -1
480 86 -1
480 159 -1
480 480 13
481 32 -1
481 108 -1
481 313 -1
481 481 5
482 68 -1
482 78 -1
482 287 -1
482 482 15
483 1 -1
483 78 -1
483 221 -1
483 483 18
484 46 -1
484 86 -1
484 259 -1
484 484 10
485 49 -1
485 327 -1
485 472 -1
485 485 8
486 4 -1
486 9 -1
486 67 -1
486 486 4
487 31 -1
487 69 -1
487 298 -1
487 487 13
488 44 -1
488 92 -1
488 383 -1
488 488 13
489 55 -1
489 82 -1
489 239 -1
489 489 10
490 7 -1
490 8 -1
490 114 -1
490 490 5
491 86 -1
491 93 -1
491 292 -1
491 491 9
492 7 -1
492 28 -1
492 413 -1
492 492 6
493 5 -1
493 57 -1
493 74 -1
493 493 6
494 13 -1
494 231 -1
494 398 -1
494 494 15
495 13 -1
495 109 -1
495 274 -1
495 495 6
496 9 -1
496 29 -1
496 77 -1
496 496 13
497 77 -1
497 254 -1
497 383 -1
497 497 14
498 15 -1
498 35 -1
498 395 -1
498 498 8
499 256 -1
499 296 -1
499 386 -1
499 499 7
500 422 -1
500 442 -1
500 464 -1
500 500 9
501 21 -1
501 315 -1
501 419 -1
501 501 4
502 11 -1
502 71 -1
502 186 -1
502 502 4
503 17 -1
503 23 -1
503 190 -1
503 503 5
504 214 -1
504 235 -1
504 483 -1
504 504 5
505 6 -1
505 127 -1
505 243 -1
505 505 8
506 101 -1
506 390 -1
506 452 -1
506 506 6
507 51 -1
507 100 -1
507 277 -1
507 507 11
508 24 -1
508 59 -1
508 66 -1
508 508 7
509 85 -1
509 150 -1
509 260 -1
509 509 6
510 236 -1
510 290 -1
510 313 -1
510 510 9
511 8 -1
511 216 -1
511 256 -1
511 511 13
512 5 -1
512 51 -1
512 496 -1
512 512 4
513 9 -1
513 39 -1
513 61 -1
513 513 9
514 8 -1
514 44 -1
514 425 -1
514 514 6
515 27 -1
515 37 -1
515 59 -1
515 515 5
516 88 -1
516 189 -1
516 455 -1
516 516 6
517 13 -1
517 96 -1
517 335 -1
517 517 8
518 135 -1
518 286 -1
518 305 -1
518 518 8
519 81 -1
519 123 -1
519 353 -1
519 519 3
520 79 -1
520 199 -1
520 239 -1
520 520 5
521 159 -1
521 316 -1
521 466 -1
521 521 5
522 163 -1
522 363 -1
522 408 -1
522 522 25
523 4 -1
523 62 -1
523 214 -1
523 523 6
524 153 -1
524 154 -1
524 273 -1
524 524 4
525 6 -1
525 7 -1
525 143 -1
525 525 10
526 97 -1
526 140 -1
526 209 -1
526 526 9
527 16 -1
527 201 -1
527 525 -1
527 527 5
528 6 -1
528 85 -1
528 227 -1
528 528 6
529 297 -1
529 343 -1
529 513 -1
529 529 7
530 6 -1
530 123 -1
530 263 -1
530 530 9
531 46 -1
531 95 -1
531 367 -1
531 531 13
532 48 -1
532 122 -1
532 345 -1
532 532 8
533 20 -1
533 35 -1
533 245 -1
533 533 7
534 32 -1
534 301 -1
534 510 -1
534 534 9
535 5 -1
535 16 -1
535 317 -1
535 535 16
536 42 -1
536 89 -1
536 217 -1
536 536 3
537 2 -1
537 248 -1
537 383 -1
537 537 4
538 28 -1
538 201 -1
538 282 -1
538 538 6
539 6 -1
539 82 -1
539 280 -1
539 539 4
540 98 -1
540 225 -1
540 425 -1
540 540 15
541 5 -1
541 137 -1
541 474 -1
541 541 5
542 27 -1
542 35 -1
542 52 -1
542 542 8
543 5 -1
543 11 -1
543 315 -1
543 543 3
544 57 -1
544 192 -1
544 361 -1
544 544 8
545 9 -1
545 79 -1
545 215 -1
545 545 10
546 13 -1
546 80 -1
546 235 -1
546 546 8
547 34 -1
547 118 -1
547 535 -1
547 547 22
548 27 -1
548 59 -1
548 81 -1
548 548 9
549 5 -1
549 82 -1
549 118 -1
549 549 6
550 242 -1
550 243 -1
550 533 -1
550 550 8
551 104 -1
551 444 -1
551 500 -1
551 551 5
552 27 -1
552 70 -1
552 103 -1
552 552 9
553 21 -1
553 138 -1
553 178 -1
553 553 3
554 5 -1
554 7 -1
554 522 -1
554 554 8
555 31 -1
555 207 -1
555 363 -1
555 555 5
556 124 -1
556 432 -1
556 531 -1
556 556 6
557 254 -1
557 320 -1
557 353 -1
557 557 12
558 388 -1
558 399 -1
558 522 -1
558 558 6
559 133 -1
559 207 -1
559 468 -1
559 559 7
560 325 -1
560 437 -1
560 442 -1
560 560 5
561 139 -1
561 219 -1
561 224 -1
561 561 7
562 17 -1
562 50 -1
562 54 -1
562 562 7
563 34 -1
563 238 -1
563 305 -1
563 563 4
564 191 -1
564 210 -1
564 547 -1
564 564 7
565 40 -1
565 81 -1
565 407 -1
565 565 7
566 54 -1
566 215 -1
566 231 -1
566 566 6
567 29 -1
567 47 -1
567 312 -1
567 567 5
568 42 -1
568 199 -1
568 255 -1
568 568 19
569 13 -1
569 65 -1
569 251 -1
569 569 5
570 241 -1
570 409 -1
570 423 -1
570 570 6
571 96 -1
571 101 -1
571 319 -1
571 571 15
572 24 -1
572 72 -1
572 544 -1
572 572 13
573 2 -1
573 297 -1
573 556 -1
573 573 5
574 23 -1
574 132 -1
574 448 -1
574 574 10
575 32 -1
575 65 -1
575 328 -1
575 575 12
576 7 -1
576 11 -1
576 106 -1
576 576 14
577 74 -1
577 311 -1
577 557 -1
577 577 5
578 79 -1
578 491 -1
578 575 -1
578 578 12
579 61 -1
579 70 -1
579 127 -1
579 579 8
580 30 -1
580 98 -1
580 121 -1
580 580 6
581 298 -1
581 302 -1
581 303 -1
581 581 11
582 350 -1
582 360 -1
582 361 -1
582 582 6
583 8 -1
583 151 -1
583 258 -1
583 583 5
584 8 -1
584 44 -1
584 49 -1
584 584 7
585 234 -1
585 359 -1
585 532 -1
585 585 4
586 39 -1
586 43 -1
586 542 -1
586 586 5
587 8 -1
587 434 -1
587 445 -1
587 587 4
588 48 -1
588 68 -1
588 82 -1
588 588 4
589 209 -1
589 267 -1
589 384 -1
589 589 4
590 27 -1
590 35 -1
590 197 -1
590 590 7
591 13 -1
591 30 -1
591 359 -1
591 591 11
592 59 -1
592 106 -1
592 231 -1
592 592 7
593 4 -1
593 100 -1
593 401 -1
593 593 11
594 215 -1
594 242 -1
594 451 -1
594 594 4
595 271 -1
595 372 -1
595 480 -1
595 595 3
596 19 -1
596 205 -1
596 487 -1
596 596 3
597 61 -1
597 129 -1
597 385 -1
597 597 12
598 162 -1
598 192 -1
598 307 -1
598 598 5
599 20 -1
599 55 -1
599 468 -1
599 599 8
600 7 -1
600 483 -1
600 569 -1
600 600 12
601 24 -1
601 209 -1
601 471 -1
601 601 4
602 67 -1
602 70 -1
602 461 -1
602 602 11
603 97 -1
603 113 -1
603 137 -1
603 603 3
604 8 -1
604 214 -1
604 251 -1
604 604 8
605 15 -1
605 17 -1
605 196 -1
605 605 6
606 121 -1
606 201 -1
606 335 -1
606 606 11
607 97 -1
607 109 -1
607 158 -1
607 607 10
608 30 -1
608 56 -1
608 205 -1
608 608 5
609 5 -1
609 52 -1
609 350 -1
609 609 10
610 6 -1
610 96 -1
610 132 -1
610 610 4
611 59 -1
611 109 -1
611 209 -1
611 611 9
612 29 -1
612 233 -1
612 455 -1
612 612 8
613 201 -1
613 425 -1
613 461 -1
613 613 14
614 23 -1
614 157 -1
614 411 -1
614 614 3
615 8 -1
615 38 -1
615 114 -1
615 615 5
616 263 -1
616 476 -1
616 571 -1
616 616 10
617 17 -1
617 124 -1
617 325 -1
617 617 8
618 33 -1
618 77 -1
618 302 -1
618 618 12
619 114 -1
619 252 -1
619 465 -1
619 619 10
620 1 -1
620 78 -1
620 109 -1
620 620 7
621 198 -1
621 420 -1
621 517 -1
621 621 10
622 27 -1
622 82 -1
622 133 -1
622 622 3
623 103 -1
623 163 -1
623 368 -1
623 623 3
624 35 -1
624 280 -1
624 531 -1
624 624 4
625 132 -1
625 158 -1
625 420 -1
625 625 8
626 5 -1
626 107 -1
626 209 -1
626 626 6
627 23 -1
627 47 -1
627 304 -1
627 627 13
628 5 -1
628 8 -1
628 297 -1
628 628 8
629 123 -1
629 264 -1
629 282 -1
629 629 8
630 114 -1
630 289 -1
630 561 -1
630 630 8
631 39 -1
631 416 -1
631 550 -1
631 631 6
632 14 -1
632 174 -1
632 599 -1
632 632 6
633 39 -1
633 60 -1
633 441 -1
633 633 3
634 152 -1
634 382 -1
634 600 -1
634 634 9
635 50 -1
635 303 -1
635 489 -1
635 635 7
636 9 -1
636 116 -1
636 234 -1
636 636 11
637 11 -1
637 198 -1
637 524 -1
637 637 4
638 4 -1
638 46 -1
638 310 -1
638 638 5
639 82 -1
639 104 -1
639 256 -1
639 639 5
640 66 -1
640 302 -1
640 319 -1
640 640 9
641 155 -1
641 561 -1
641 625 -1
641 641 5
642 242 -1
642 311 -1
642 607 -1
642 642 5
643 5 -1
643 92 -1
643 104 -1
643 643 3
644 7 -1
644 274 -1
644 346 -1
644 644 7
645 5 -1
645 164 -1
645 267 -1
645 645 6
646 44 -1
646 59 -1
646 259 -1
646 646 7
647 17 -1
647 221 -1
647 256 -1
647 647 6
648 71 -1
648 491 -1
648 576 -1
648 648 13
649 57 -1
649 232 -1
649 447 -1
649 649 6
650 4 -1
650 97 -1
650 103 -1
650 650 10
651 114 -1
651 199 -1
651 423 -1
651 651 12
652 96 -1
652 107 -1
652 326 -1
652 652 13
653 98 -1
653 163 -1
653 485 -1
653 653 10
654 57 -1
654 75 -1
654 158 -1
654 654 5
655 7 -1
655 10 -1
655 133 -1
655 655 7
656 13 -1
656 16 -1
656 178 -1
656 656 5
657 10 -1
657 132 -1
657 378 -1
657 657 8
658 419 -1
658 464 -1
658 645 -1
658 658 6
659 67 -1
659 79 -1
659 292 -1
659 659 5
660 46 -1
660 200 -1
660 533 -1
660 660 4
661 6 -1
661 36 -1
661 209 -1
661 661 8
662 71 -1
662 166 -1
662 290 -1
662 662 7
663 65 -1
663 114 -1
663 545 -1
663 663 6
664 46 -1
664 79 -1
664 328 -1
664 664 6
665 6 -1
665 13 -1
665 621 -1
665 665 5
666 4 -1
666 7 -1
666 369 -1
666 666 6
667 14 -1
667 355 -1
667 396 -1
667 667 6
668 30 -1
668 202 -1
668 494 -1
668 668 4
669 1 -1
669 89 -1
669 423 -1
669 669 7
670 69 -1
670 244 -1
670 393 -1
670 670 7
671 131 -1
671 207 -1
671 457 -1
671 671 6
672 55 -1
672 165 -1
672 200 -1
672 672 12
673 7 -1
673 42 -1
673 423 -1
673 673 10
674 57 -1
674 239 -1
674 654 -1
674 674 8
675 231 -1
675 350 -1
675 540 -1
675 675 10
676 17 -1
676 230 -1
676 270 -1
676 676 3
677 33 -1
677 324 -1
677 483 -1
677 677 5
678 13 -1
678 437 -1
678 673 -1
678 678 6
679 44 -1
679 106 -1
679 258 -1
679 679 12
680 9 -1
680 35 -1
680 247 -1
680 680 8
681 1 -1
681 10 -1
681 168 -1
681 681 10
682 214 -1
682 432 -1
682 452 -1
682 682 6
683 74 -1
683 317 -1
683 530 -1
683 683 6
684 230 -1
684 505 -1
684 520 -1
684 684 8
685 1 -1
685 6 -1
685 244 -1
685 685 11
686 34 -1
686 207 -1
686 376 -1
686 686 10
687 29 -1
687 46 -1
687 378 -1
687 687 5
688 1 -1
688 82 -1
688 252 -1
688 688 7
689 11 -1
689 404 -1
689 628 -1
689 689 7
690 63 -1
690 116 -1
690 230 -1
690 690 7
691 11 -1
691 184 -1
691 434 -1
691 691 6
692 103 -1
692 349 -1
692 547 -1
692 692 4
693 53 -1
693 264 -1
693 394 -1
693 693 4
694 5 -1
694 13 -1
694 86 -1
694 694 5
695 57 -1
695 173 -1
695 390 -1
695 695 9
696 8 -1
696 242 -1
696 600 -1
696 696 8
697 33 -1
697 466 -1
697 531 -1
697 697 4
698 168 -1
698 317 -1
698 505 -1
698 698 10
699 116 -1
699 315 -1
699 583 -1
699 699 9
700 111 -1
700 176 -1
700 591 -1
700 700 8
701 13 -1
701 20 -1
701 442 -1
701 701 5
702 11 -1
702 407 -1
702 451 -1
702 702 5
703 104 -1
703 585 -1
703 612 -1
703 703 6
704 132 -1
704 231 -1
704 483 -1
704 704 9
705 23 -1
705 61 -1
705 472 -1
705 705 5
706 4 -1
706 378 -1
706 597 -1
706 706 7
707 102 -1
707 442 -1
707 558 -1
707 707 21
708 24 -1
708 46 -1
708 704 -1
708 708 7
709 51 -1
709 198 -1
709 461 -1
709 709 3
710 43 -1
710 78 -1
710 95 -1
710 710 9
711 395 -1
711 483 -1
711 526 -1
711 711 3
712 13 -1
712 77 -1
712 200 -1
712 712 3
713 132 -1
713 236 -1
713 511 -1
713 713 6
714 108 -1
714 191 -1
714 243 -1
714 714 3
715 4 -1
715 384 -1
715 535 -1
715 715 8
716 6 -1
716 158 -1
716 344 -1
716 716 5
717 6 -1
717 95 -1
717 710 -1
717 717 4
718 48 -1
718 164 -1
718 200 -1
718 718 4
719 118 -1
719 296 -1
719 461 -1
719 719 7
720 165 -1
720 393 -1
720 674 -1
720 720 7
721 19 -1
721 26 -1
721 72 -1
721 721 7
722 239 -1
722 517 -1
722 611 -1
722 722 7
723 48 -1
723 123 -1
723 256 -1
723 723 3
724 92 -1
724 343 -1
724 413 -1
724 724 6
725 13 -1
725 241 -1
725 497 -1
725 725 9
726 157 -1
726 169 -1
726 698 -1
726 726 7
727 13 -1
727 193 -1
727 229 -1
727 727 8
728 39 -1
728 496 -1
728 678 -1
728 728 7
729 106 -1
729 507 -1
729 607 -1
729 729 5
730 93 -1
730 121 -1
730 156 -1
730 730 13
731 547 -1
731 657 -1
731 721 -1
731 731 9
732 104 -1
732 305 -1
732 564 -1
732 732 9
733 2 -1
733 12 -1
733 436 -1
733 733 10
734 66 -1
734 95 -1
734 302 -1
734 734 6
735 7 -1
735 151 -1
735 403 -1
735 735 4
736 62 -1
736 594 -1
736 690 -1
736 736 9
737 79 -1
737 173 -1
737 395 -1
737 737 14
738 21 -1
738 212 -1
738 228 -1
738 738 5
739 161 -1
739 311 -1
739 444 -1
739 739 8
740 118 -1
740 200 -1
740 391 -1
740 740 7
741 111 -1
741 187 -1
741 246 -1
741 741 4
742 93 -1
742 174 -1
742 378 -1
742 742 5
743 104 -1
743 131 -1
743 230 -1
743 743 5
744 10 -1
744 214 -1
744 237 -1
744 744 7
745 14 -1
745 42 -1
745 464 -1
745 745 7
746 6 -1
746 26 -1
746 114 -1
746 746 3
747 8 -1
747 291 -1
747 572 -1
747 747 4
748 23 -1
748 304 -1
748 683 -1
748 748 6
749 65 -1
749 96 -1
749 399 -1
749 749 13
750 18 -1
750 85 -1
750 103 -1
750 750 5
751 96 -1
751 214 -1
751 219 -1
751 751 8
752 6 -1
752 282 -1
752 310 -1
752 752 3
753 6 -1
753 121 -1
753 430 -1
753 753 7
754 59 -1
754 439 -1
754 475 -1
754 754 6
755 182 -1
755 442 -1
755 509 -1
755 755 8
756 148 -1
756 259 -1
756 439 -1
756 756 5
757 9 -1
757 92 -1
757 640 -1
757 757 11
758 5 -1
758 8 -1
758 617 -1
758 758 11
759 5 -1
759 17 -1
759 101 -1
759 759 6
760 6 -1
760 342 -1
760 574 -1
760 760 8
761 57 -1
761 89 -1
761 430 -1
761 761 4
762 13 -1
762 221 -1
762 230 -1
762 762 6
763 561 -1
763 684 -1
763 706 -1
763 763 6
764 35 -1
764 74 -1
764 253 -1
764 764 5
765 5 -1
765 126 -1
765 540 -1
765 765 12
766 5 -1
766 297 -1
766 332 -1
766 766 6
767 5 -1
767 22 -1
767 485 -1
767 767 8
768 35 -1
768 646 -1
768 679 -1
768 768 3
769 5 -1
769 9 -1
769 736 -1
769 769 10
770 150 -1
770 186 -1
770 231 -1
770 770 6
771 23 -1
771 57 -1
771 554 -1
771 771 6
772 65 -1
772 503 -1
772 550 -1
772 772 8
773 57 -1
773 73 -1
773 269 -1
773 773 8
774 5 -1
774 123 -1
774 498 -1
774 774 6
775 72 -1
775 103 -1
775 367 -1
775 775 9
776 385 -1
776 618 -1
776 754 -1
776 776 6
777 46 -1
777 81 -1
777 179 -1
777 777 15
778 466 -1
778 513 -1
778 541 -1
778 778 6
779 190 -1
779 200 -1
779 765 -1
779 779 6
780 27 -1
780 275 -1
780 315 -1
780 780 6
781 58 -1
781 65 -1
781 686 -1
781 781 7
782 5 -1
782 121 -1
782 458 -1
782 782 5
783 236 -1
783 627 -1
783 650 -1
783 783 3
784 31 -1
784 194 -1
784 707 -1
784 784 11
785 225 -1
785 438 -1
785 451 -1
785 785 9
786 157 -1
786 412 -1
786 540 -1
786 786 8
787 696 -1
787 699 -1
787 730 -1
787 787 9
788 244 -1
788 672 -1
788 772 -1
788 788 6
789 26 -1
789 96 -1
789 506 -1
789 789 5
790 2 -1
790 153 -1
790 572 -1
790 790 5
791 7 -1
791 57 -1
791 651 -1
791 791 5
792 50 -1
792 314 -1
792 366 -1
792 792 6
793 236 -1
793 659 -1
793 719 -1
793 793 6
794 205 -1
794 214 -1
794 334 -1
794 794 6
795 4 -1
795 82 -1
795 785 -1
795 795 4
796 7 -1
796 29 -1
796 201 -1
796 796 6
797 139 -1
797 210 -1
797 575 -1
797 797 5
798 7 -1
798 547 -1
798 567 -1
798 798 18
799 9 -1
799 11 -1
799 647 -1
799 799 7
800 77 -1
800 118 -1
800 192 -1
800 800 8
801 10 -1
801 447 -1
801 769 -1
801 801 3
802 8 -1
802 72 -1
802 135 -1
802 802 5
803 40 -1
803 631 -1
803 731 -1
803 803 8
804 223 -1
804 487 -1
804 749 -1
804 804 5
805 6 -1
805 266 -1
805 364 -1
805 805 5
806 340 -1
806 384 -1
806 765 -1
806 806 10
807 79 -1
807 297 -1
807 411 -1
807 807 8
808 118 -1
808 398 -1
808 671 -1
808 808 10
809 67 -1
809 86 -1
809 436 -1
809 809 9
810 5 -1
810 223 -1
810 396 -1
810 810 5
811 7 -1
811 745 -1
811 786 -1
811 811 11
812 114 -1
812 408 -1
812 542 -1
812 812 8
813 26 -1
813 203 -1
813 400 -1
813 813 3
814 111 -1
814 396 -1
814 476 -1
814 814 20
815 218 -1
815 419 -1
815 607 -1
815 815 7
816 28 -1
816 279 -1
816 311 -1
816 816 3
817 23 -1
817 308 -1
817 374 -1
817 817 8
818 6 -1
818 41 -1
818 364 -1
818 818 7
819 6 -1
819 153 -1
819 330 -1
819 819 5
820 106 -1
820 204 -1
820 321 -1
820 820 6
821 75 -1
821 140 -1
821 199 -1
821 821 4
822 117 -1
822 454 -1
822 648 -1
822 822 5
823 1 -1
823 182 -1
823 191 -1
823 823 5
824 219 -1
824 485 -1
824 559 -1
824 824 6
825 35 -1
825 108 -1
825 655 -1
825 825 5
826 84 -1
826 393 -1
826 442 -1
826 826 6
827 9 -1
827 98 -1
827 787 -1
827 827 5
828 29 -1
828 54 -1
828 734 -1
828 828 4
829 53 -1
829 57 -1
829 574 -1
829 829 8
830 31 -1
830 235 -1
830 247 -1
830 830 4
831 1 -1
831 16 -1
831 75 -1
831 831 5
832 6 -1
832 200 -1
832 826 -1
832 832 5
833 7 -1
833 150 -1
833 392 -1
833 833 5
834 280 -1
834 719 -1
834 745 -1
834 834 3
835 13 -1
835 103 -1
835 109 -1
835 835 6
836 13 -1
836 92 -1
836 376 -1
836 836 5
837 102 -1
837 157 -1
837 225 -1
837 837 4
838 116 -1
838 253 -1
838 630 -1
838 838 7
839 17 -1
839 72 -1
839 406 -1
839 839 6
840 190 -1
840 243 -1
840 267 -1
840 840 4
841 116 -1
841 557 -1
841 587 -1
841 841 4
842 21 -1
842 451 -1
842 707 -1
842 842 5
843 2 -1
843 99 -1
843 444 -1
843 843 5
844 195 -1
844 445 -1
844 655 -1
844 844 6
845 5 -1
845 100 -1
845 342 -1
845 845 11
846 325 -1
846 527 -1
846 613 -1
846 846 5
847 153 -1
847 368 -1
847 399 -1
847 847 8
848 11 -1
848 19 -1
848 540 -1
848 848 5
849 218 -1
849 326 -1
849 494 -1
849 849 5
850 22 -1
850 88 -1
850 256 -1
850 850 7
851 57 -1
851 422 -1
851 557 -1
851 851 4
852 10 -1
852 116 -1
852 428 -1
852 852 3
853 99 -1
853 406 -1
853 505 -1
853 853 6
854 11 -1
854 96 -1
854 305 -1
854 854 5
855 10 -1
855 132 -1
855 656 -1
855 855 3
856 1 -1
856 425 -1
856 571 -1
856 856 3
857 646 -1
857 737 -1
857 753 -1
857 857 10
858 23 -1
858 171 -1
858 341 -1
858 858 6
859 72 -1
859 115 -1
859 613 -1
859 859 5
860 110 -1
860 241 -1
860 497 -1
860 860 5
861 15 -1
861 44 -1
861 123 -1
861 861 6
862 2 -1
862 5 -1
862 751 -1
862 862 6
863 208 -1
863 736 -1
863 785 -1
863 863 6
864 191 -1
864 228 -1
864 451 -1
864 864 5
865 109 -1
865 114 -1
865 162 -1
865 865 8
866 19 -1
866 118 -1
866 207 -1
866 866 5
867 29 -1
867 79 -1
867 700 -1
867 867 11
868 154 -1
868 163 -1
868 704 -1
868 868 6
869 319 -1
869 627 -1
869 773 -1
869 869 5
870 50 -1
870 82 -1
870 766 -1
870 870 6
871 33 -1
871 424 -1
871 544 -1
871 871 9
872 1 -1
872 8 -1
872 301 -1
872 872 5
873 65 -1
873 103 -1
873 793 -1
873 873 4
874 12 -1
874 360 -1
874 403 -1
874 874 5
875 13 -1
875 77 -1
875 742 -1
875 875 5
876 13 -1
876 395 -1
876 648 -1
876 876 6
877 50 -1
877 188 -1
877 249 -1
877 877 5
878 37 -1
878 140 -1
878 577 -1
878 878 7
879 81 -1
879 263 -1
879 516 -1
879 879 13
880 113 -1
880 185 -1
880 391 -1
880 880 4
881 165 -1
881 247 -1
881 478 -1
881 881 3
882 169 -1
882 540 -1
882 737 -1
882 882 4
883 8 -1
883 177 -1
883 273 -1
883 883 6
884 4 -1
884 6 -1
884 9 -1
884 884 14
885 8 -1
885 156 -1
885 258 -1
885 885 11
886 317 -1
886 341 -1
886 521 -1
886 886 4
887 215 -1
887 476 -1
887 632 -1
887 887 9
888 51 -1
888 107 -1
888 198 -1
888 888 15
889 7 -1
889 47 -1
889 843 -1
889 889 6
890 7 -1
890 23 -1
890 332 -1
890 890 10
891 95 -1
891 141 -1
891 814 -1
891 891 7
892 49 -1
892 106 -1
892 613 -1
892 892 5
893 22 -1
893 30 -1
893 325 -1
893 893 6
894 113 -1
894 138 -1
894 323 -1
894 894 7
895 9 -1
895 300 -1
895 740 -1
895 895 8
896 180 -1
896 398 -1
896 691 -1
896 896 4
897 323 -1
897 404 -1
897 790 -1
897 897 8
898 50 -1
898 204 -1
898 441 -1
898 898 5
899 26 -1
899 118 -1
899 199 -1
899 899 5
900 305 -1
900 568 -1
900 715 -1
900 900 6
901 6 -1
901 52 -1
901 379 -1
901 901 4
902 29 -1
902 74 -1
902 811 -1
902 902 6
903 445 -1
903 762 -1
903 858 -1
903 903 4
904 1 -1
904 48 -1
904 680 -1
904 904 5
905 153 -1
905 169 -1
905 393 -1
905 905 6
906 72 -1
906 224 -1
906 372 -1
906 906 7
907 95 -1
907 207 -1
907 517 -1
907 907 6
908 107 -1
908 228 -1
908 650 -1
908 908 4
909 82 -1
909 311 -1
909 414 -1
909 909 8
910 1 -1
910 82 -1
910 234 -1
910 910 5
911 312 -1
911 572 -1
911 771 -1
911 911 4
912 35 -1
912 727 -1
912 764 -1
912 912 4
913 82 -1
913 335 -1
913 510 -1
913 913 3
914 281 -1
914 454 -1
914 886 -1
914 914 5
915 33 -1
915 111 -1
915 510 -1
915 915 4
916 11 -1
916 114 -1
916 151 -1
916 916 5
917 21 -1
917 370 -1
917 518 -1
917 917 4
918 57 -1
918 98 -1
918 829 -1
918 918 4
919 35 -1
919 260 -1
919 765 -1
919 919 4
920 5 -1
920 10 -1
920 658 -1
920 920 7
921 100 -1
921 417 -1
921 458 -1
921 921 7
922 19 -1
922 24 -1
922 118 -1
922 922 7
923 10 -1
923 102 -1
923 657 -1
923 923 7
924 53 -1
924 69 -1
924 545 -1
924 924 3
925 306 -1
925 330 -1
925 757 -1
925 925 5
926 42 -1
926 523 -1
926 640 -1
926 926 10
927 494 -1
927 732 -1
927 889 -1
927 927 4
928 4 -1
928 218 -1
928 274 -1
928 928 13
929 302 -1
929 483 -1
929 682 -1
929 929 3
930 51 -1
930 138 -1
930 267 -1
930 930 3
931 59 -1
931 70 -1
931 313 -1
931 931 11
932 2 -1
932 42 -1
932 65 -1
932 932 6
933 1 -1
933 85 -1
933 100 -1
933 933 4
934 5 -1
934 447 -1
934 794 -1
934 934 7
935 132 -1
935 137 -1
935 266 -1
935 935 7
936 5 -1
936 104 -1
936 271 -1
936 936 5
937 339 -1
937 522 -1
937 781 -1
937 937 7
938 685 -1
938 755 -1
938 897 -1
938 938 4
939 224 -1
939 457 -1
939 464 -1
939 939 10
940 60 -1
940 113 -1
940 673 -1
940 940 7
941 34 -1
941 233 -1
941 484 -1
941 941 5
942 85 -1
942 162 -1
942 670 -1
942 942 10
943 115 -1
943 237 -1
943 391 -1
943 943 4
944 6 -1
944 42 -1
944 296 -1
944 944 5
945 5 -1
945 6 -1
945 151 -1
945 945 3
946 12 -1
946 29 -1
946 191 -1
946 946 12
947 96 -1
947 162 -1
947 319 -1
947 947 3
948 8 -1
948 19 -1
948 302 -1
948 948 4
949 86 -1
949 513 -1
949 626 -1
949 949 6
950 86 -1
950 847 -1
950 874 -1
950 950 11
951 454 -1
951 663 -1
951 845 -1
951 951 6
952 1 -1
952 7 -1
952 393 -1
952 952 11
953 2 -1
953 92 -1
953 730 -1
953 953 9
954 4 -1
954 26 -1
954 565 -1
954 954 4
955 7 -1
955 33 -1
955 726 -1
955 955 7
956 10 -1
956 248 -1
956 689 -1
956 956 6
957 53 -1
957 591 -1
957 956 -1
957 957 4
958 49 -1
958 135 -1
958 248 -1
958 958 7
959 13 -1
959 82 -1
959 719 -1
959 959 3
960 22 -1
960 117 -1
960 722 -1
960 960 7
961 348 -1
961 368 -1
961 487 -1
961 961 11
962 39 -1
962 111 -1
962 545 -1
962 962 7
963 72 -1
963 399 -1
963 630 -1
963 963 9
964 24 -1
964 74 -1
964 955 -1
964 964 6
965 5 -1
965 413 -1
965 937 -1
965 965 6
966 13 -1
966 814 -1
966 896 -1
966 966 3
967 131 -1
967 320 -1
967 521 -1
967 967 9
968 518 -1
968 653 -1
968 758 -1
968 968 3
969 16 -1
969 80 -1
969 103 -1
969 969 6
970 116 -1
970 237 -1
970 963 -1
970 970 4
971 376 -1
971 487 -1
971 884 -1
971 971 5
972 2 -1
972 99 -1
972 776 -1
972 972 4
973 17 -1
973 241 -1
973 317 -1
973 973 6
974 292 -1
974 626 -1
974 777 -1
974 974 8
975 67 -1
975 163 -1
975 371 -1
975 975 8
976 105 -1
976 386 -1
976 685 -1
976 976 5
977 269 -1
977 464 -1
977 902 -1
977 977 5
978 48 -1
978 248 -1
978 320 -1
978 978 4
979 6 -1
979 7 -1
979 286 -1
979 979 3
980 200 -1
980 269 -1
980 547 -1
980 980 7
981 57 -1
981 225 -1
981 412 -1
981 981 6
982 6 -1
982 773 -1
982 777 -1
982 982 5
983 5 -1
983 274 -1
983 378 -1
983 983 11
984 162 -1
984 227 -1
984 456 -1
984 984 9
985 5 -1
985 43 -1
985 687 -1
985 985 9
986 7 -1
986 13 -1
986 324 -1
986 986 4
987 107 -1
987 320 -1
987 600 -1
987 987 16
988 247 -1
988 330 -1
988 451 -1
988 988 6
989 374 -1
989 449 -1
989 545 -1
989 989 11
990 7 -1
990 132 -1
990 869 -1
990 990 8
991 7 -1
991 465 -1
991 673 -1
991 991 4
992 17 -1
992 489 -1
992 516 -1
992 992 3
993 65 -1
993 257 -1
993 593 -1
993 993 9
994 224 -1
994 522 -1
994 803 -1
994 994 3
995 1 -1
995 76 -1
995 848 -1
995 995 4
996 8 -1
996 72 -1
996 977 -1
996 996 7
997 26 -1
997 214 -1
997 369 -1
997 997 7
998 319 -1
998 522 -1
998 975 -1
998 998 4
999 22 -1
999 214 -1
999 535 -1
999 999 3
1000 23 -1
1000 29 -1
1000 128 -1
1000 1000 9
1001 1 -1
1001 59 -1
1001 424 -1
1001 1001 10
1002 13 -1
1002 143 -1
1002 350 -1
1002 1002 5
1003 14 -1
1003 184 -1
1003 259 -1
1003 1003 5
1004 231 -1
1004 253 -1
1004 616 -1
1004 1004 8
1005 219 -1
1005 430 -1
1005 703 -1
1005 1005 4
1006 38 -1
1006 39 -1
1006 99 -1
1006 1006 3
1007 5 -1
1007 69 -1
1007 760 -1
1007 1007 3
1008 153 -1
1008 446 -1
1008 820 -1
1008 1008 4
1009 8 -1
1009 20 -1
1009 529 -1
1009 1009 7
1010 119 -1
1010 245 -1
1010 568 -1
1010 1010 6
1011 7 -1
1011 767 -1
1011 993 -1
1011 1011 6
1012 235 -1
1012 384 -1
1012 784 -1
1012 1012 5
1013 32 -1
1013 523 -1
1013 939 -1
1013 1013 6
1014 10 -1
1014 193 -1
1014 214 -1
1014 1014 5
1015 85 -1
1015 350 -1
1015 483 -1
1015 1015 3
1016 10 -1
1016 16 -1
1016 385 -1
1016 1016 7
1017 244 -1
1017 380 -1
1017 578 -1
1017 1017 6
1018 6 -1
1018 57 -1
1018 77 -1
1018 1018 5
1019 340 -1
1019 347 -1
1019 451 -1
1019 1019 5
1020 646 -1
1020 680 -1
1020 814 -1
1020 1020 7
1021 270 -1
1021 282 -1
1021 845 -1
1021 1021 7
1022 49 -1
1022 188 -1
1022 419 -1
1022 1022 7
1023 5 -1
1023 57 -1
1023 457 -1
1023 1023 6
1024 453 -1
1024 522 -1
1024 850 -1
1024 1024 7
1025 17 -1
1025 90 -1
1025 591 -1
1025 1025 6
1026 189 -1
1026 815 -1
1026 892 -1
1026 1026 3
1027 52 -1
1027 441 -1
1027 827 -1
1027 1027 7
1028 61 -1
1028 92 -1
1028 419 -1
1028 1028 7
1029 246 -1
1029 432 -1
1029 547 -1
1029 1029 9
1030 401 -1
1030 439 -1
1030 760 -1
1030 1030 4
1031 154 -1
1031 239 -1
1031 952 -1
1031 1031 8
1032 2 -1
1032 334 -1
1032 448 -1
1032 1032 6
1033 96 -1
1033 386 -1
1033 425 -1
1033 1033 4
1034 71 -1
1034 135 -1
1034 773 -1
1034 1034 3
1035 276 -1
1035 748 -1
1035 812 -1
1035 1035 6
1036 249 -1
1036 442 -1
1036 934 -1
1036 1036 6
1037 40 -1
1037 382 -1
1037 996 -1
1037 1037 5
1038 26 -1
1038 602 -1
1038 884 -1
1038 1038 5
1039 14 -1
1039 401 -1
1039 949 -1
1039 1039 5
1040 562 -1
1040 685 -1
1040 922 -1
1040 1040 5
1041 93 -1
1041 99 -1
1041 868 -1
1041 1041 6
1042 23 -1
1042 348 -1
1042 445 -1
1042 1042 6
1043 166 -1
1043 581 -1
1043 980 -1
1043 1043 5
1044 17 -1
1044 104 -1
1044 518 -1
1044 1044 7
1045 204 -1
1045 645 -1
1045 798 -1
1045 1045 9
1046 444 -1
1046 695 -1
1046 733 -1
1046 1046 4
1047 6 -1
1047 8 -1
1047 65 -1
1047 1047 4
1048 1 -1
1048 494 -1
1048 961 -1
1048 1048 4
1049 77 -1
1049 395 -1
1049 814 -1
1049 1049 9
1050 4 -1
1050 35 -1
1050 342 -1
1050 1050 6
1051 488 -1
1051 901 -1
1051 911 -1
1051 1051 5
1052 21 -1
1052 632 -1
1052 840 -1
1052 1052 4
1053 30 -1
1053 772 -1
1053 884 -1
1053 1053 7
1054 476 -1
1054 549 -1
1054 928 -1
1054 1054 9
1055 456 -1
1055 591 -1
1055 1031 -1
1055 1055 9
1056 15 -1
1056 138 -1
1056 148 -1
1056 1056 5
1057 20 -1
1057 34 -1
1057 157 -1
1057 1057 10
1058 77 -1
1058 765 -1
1058 1023 -1
1058 1058 15
1059 96 -1
1059 796 -1
1059 942 -1
1059 1059 7
1060 305 -1
1060 514 -1
1060 612 -1
1060 1060 5
1061 201 -1
1061 234 -1
1061 1058 -1
1061 1061 6
1062 807 -1
1062 931 -1
1062 946 -1
1062 1062 7
1063 29 -1
1063 209 -1
1063 474 -1
1063 1063 9
1064 37 -1
1064 146 -1
1064 545 -1
1064 1064 12
1065 98 -1
1065 333 -1
1065 571 -1
1065 1065 8
1066 8 -1
1066 159 -1
1066 1000 -1
1066 1066 7
1067 48 -1
1067 429 -1
1067 479 -1
1067 1067 8
1068 77 -1
1068 384 -1
1068 625 -1
1068 1068 8
1069 57 -1
1069 65 -1
1069 479 -1
1069 1069 6
1070 27 -1
1070 461 -1
1070 989 -1
1070 1070 3
1071 404 -1
1071 621 -1
1071 726 -1
1071 1071 4
1072 35 -1
1072 95 -1
1072 413 -1
1072 1072 7
1073 34 -1
1073 95 -1
1073 292 -1
1073 1073 3
1074 35 -1
1074 48 -1
1074 888 -1
1074 1074 5
1075 8 -1
1075 483 -1
1075 928 -1
1075 1075 6
1076 4 -1
1076 242 -1
1076 708 -1
1076 1076 11
1077 222 -1
1077 455 -1
1077 757 -1
1077 1077 4
1078 43 -1
1078 634 -1
1078 679 -1
1078 1078 3
1079 320 -1
1079 353 -1
1079 863 -1
1079 1079 3
1080 31 -1
1080 37 -1
1080 255 -1
1080 1080 6
1081 6 -1
1081 242 -1
1081 361 -1
1081 1081 5
1082 21 -1
1082 43 -1
1082 1010 -1
1082 1082 6
1083 156 -1
1083 617 -1
1083 812 -1
1083 1083 4
1084 5 -1
1084 35 -1
1084 534 -1
1084 1084 5
1085 6 -1
1085 284 -1
1085 814 -1
1085 1085 3
1086 239 -1
1086 315 -1
1086 964 -1
1086 1086 5
1087 27 -1
1087 142 -1
1087 366 -1
1087 1087 10
1088 5 -1
1088 23 -1
1088 395 -1
1088 1088 5
1089 9 -1
1089 194 -1
1089 628 -1
1089 1089 3
1090 23 -1
1090 159 -1
1090 919 -1
1090 1090 8
1091 55 -1
1091 724 -1
1091 876 -1
1091 1091 6
1092 153 -1
1092 431 -1
1092 534 -1
1092 1092 5
1093 6 -1
1093 539 -1
1093 838 -1
1093 1093 3
1094 159 -1
1094 297 -1
1094 484 -1
1094 1094 4
1095 239 -1
1095 282 -1
1095 846 -1
1095 1095 5
1096 18 -1
1096 923 -1
1096 967 -1
1096 1096 8
1097 119 -1
1097 809 -1
1097 842 -1
1097 1097 9
1098 186 -1
1098 431 -1
1098 921 -1
1098 1098 3
1099 164 -1
1099 329 -1
1099 420 -1
1099 1099 4
1100 163 -1
1100 253 -1
1100 513 -1
1100 1100 6
1101 13 -1
1101 49 -1
1101 950 -1
1101 1101 7
1102 32 -1
1102 65 -1
1102 364 -1
1102 1102 3
1103 6 -1
1103 527 -1
1103 788 -1
1103 1103 7
1104 257 -1
1104 494 -1
1104 581 -1
1104 1104 3
1105 737 -1
1105 871 -1
1105 950 -1
1105 1105 13
1106 240 -1
1106 761 -1
1106 884 -1
1106 1106 10
1107 126 -1
1107 231 -1
1107 672 -1
1107 1107 4
1108 87 -1
1108 195 -1
1108 433 -1
1108 1108 8
1109 7 -1
1109 619 -1
1109 849 -1
1109 1109 4
1110 5 -1
1110 398 -1
1110 665 -1
1110 1110 4
1111 85 -1
1111 135 -1
1111 142 -1
1111 1111 4
1112 5 -1
1112 770 -1
1112 895 -1
1112 1112 6
1113 562 -1
1113 679 -1
1113 938 -1
1113 1113 4
1114 96 -1
1114 231 -1
1114 973 -1
1114 1114 5
1115 8 -1
1115 131 -1
1115 132 -1
1115 1115 8
1116 26 -1
1116 116 -1
1116 775 -1
1116 1116 7
1117 9 -1
1117 980 -1
1117 1090 -1
1117 1117 4
1118 48 -1
1118 326 -1
1118 402 -1
1118 1118 3
1119 123 -1
1119 212 -1
1119 310 -1
1119 1119 7
1120 8 -1
1120 233 -1
1120 1069 -1
1120 1120 3
1121 618 -1
1121 1017 -1
1121 1058 -1
1121 1121 4
1122 35 -1
1122 754 -1
1122 1049 -1
1122 1122 4
1123 13 -1
1123 158 -1
1123 785 -1
1123 1123 7
1124 159 -1
1124 369 -1
1124 931 -1
1124 1124 3
1125 10 -1
1125 504 -1
1125 745 -1
1125 1125 10
1126 60 -1
1126 382 -1
1126 1041 -1
1126 1126 7
1127 606 -1
1127 749 -1
1127 985 -1
1127 1127 4
1128 8 -1
1128 140 -1
1128 143 -1
1128 1128 5
1129 398 -1
1129 1008 -1
1129 1029 -1
1129 1129 8
1130 26 -1
1130 79 -1
1130 341 -1
1130 1130 6
1131 33 -1
1131 362 -1
1131 479 -1
1131 1131 11
1132 122 -1
1132 123 -1
1132 137 -1
1132 1132 4
1133 10 -1
1133 895 -1
1133 1062 -1
1133 1133 4
1134 290 -1
1134 327 -1
1134 1110 -1
1134 1134 8
1135 806 -1
1135 944 -1
1135 993 -1
1135 1135 9
1136 157 -1
1136 292 -1
1136 482 -1
1136 1136 4
1137 230 -1
1137 588 -1
1137 867 -1
1137 1137 6
1138 5 -1
1138 99 -1
1138 1075 -1
1138 1138 4
1139 157 -1
1139 286 -1
1139 1114 -1
1139 1139 11
1140 5 -1
1140 26 -1
1140 1103 -1
1140 1140 4
1141 387 -1
1141 482 -1
1141 730 -1
1141 1141 4
1142 233 -1
1142 739 -1
1142 818 -1
1142 1142 4
1143 403 -1
1143 413 -1
1143 445 -1
1143 1143 6
1144 57 -1
1144 265 -1
1144 785 -1
1144 1144 3
1145 70 -1
1145 597 -1
1145 1116 -1
1145 1145 4
1146 9 -1
1146 87 -1
1146 419 -1
1146 1146 6
1147 84 -1
1147 565 -1
1147 1076 -1
1147 1147 6
1148 109 -1
1148 382 -1
1148 899 -1
1148 1148 7
1149 61 -1
1149 344 -1
1149 961 -1
1149 1149 11
1150 67 -1
1150 203 -1
1150 443 -1
1150 1150 4
1151 341 -1
1151 993 -1
1151 1043 -1
1151 1151 4
1152 55 -1
1152 98 -1
1152 732 -1
1152 1152 6
1153 50 -1
1153 79 -1
1153 194 -1
1153 1153 4
1154 44 -1
1154 370 -1
1154 569 -1
1154 1154 4
1155 17 -1
1155 420 -1
1155 455 -1
1155 1155 6
1156 627 -1
1156 1053 -1
1156 1088 -1
1156 1156 6
1157 5 -1
1157 522 -1
1157 707 -1
1157 1157 7
1158 383 -1
1158 952 -1
1158 1027 -1
1158 1158 3
1159 69 -1
1159 507 -1
1159 624 -1
1159 1159 6
1160 6 -1
1160 450 -1
1160 798 -1
1160 1160 10
1161 616 -1
1161 1060 -1
1161 1160 -1
1161 1161 6
1162 48 -1
1162 629 -1
1162 1001 -1
1162 1162 4
1163 689 -1
1163 870 -1
1163 910 -1
1163 1163 5
1164 16 -1
1164 23 -1
1164 57 -1
1164 1164 4
1165 5 -1
1165 34 -1
1165 733 -1
1165 1165 9
1166 19 -1
1166 341 -1
1166 590 -1
1166 1166 3
1167 106 -1
1167 370 -1
1167 444 -1
1167 1167 13
1168 10 -1
1168 347 -1
1168 1134 -1
1168 1168 6
1169 101 -1
1169 214 -1
1169 659 -1
1169 1169 4
1170 666 -1
1170 776 -1
1170 1167 -1
1170 1170 5
1171 77 -1
1171 255 -1
1171 935 -1
1171 1171 7
1172 2 -1
1172 66 -1
1172 1044 -1
1172 1172 4
1173 139 -1
1173 858 -1
1173 888 -1
1173 1173 12
1174 5 -1
1174 87 -1
1174 416 -1
1174 1174 8
1175 173 -1
1175 219 -1
1175 1174 -1
1175 1175 4
1176 4 -1
1176 23 -1
1176 606 -1
1176 1176 6
1177 42 -1
1177 82 -1
1177 243 -1
1177 1177 3
1178 26 -1
1178 95 -1
1178 154 -1
1178 1178 4
1179 100 -1
1179 112 -1
1179 114 -1
1179 1179 4
1180 9 -1
1180 345 -1
1180 897 -1
1180 1180 3
1181 116 -1
1181 511 -1
1181 572 -1
1181 1181 6
1182 74 -1
1182 229 -1
1182 889 -1
1182 1182 5
1183 9 -1
1183 171 -1
1183 346 -1
1183 1183 4
1184 76 -1
1184 812 -1
1184 958 -1
1184 1184 4
1185 27 -1
1185 323 -1
1185 898 -1
1185 1185 6
1186 128 -1
1186 133 -1
1186 964 -1
1186 1186 3
1187 4 -1
1187 10 -1
1187 221 -1
1187 1187 3
1188 61 -1
1188 71 -1
1188 814 -1
1188 1188 3
1189 2 -1
1189 132 -1
1189 312 -1
1189 1189 9
1190 9 -1
1190 16 -1
1190 611 -1
1190 1190 6
1191 82 -1
1191 953 -1
1191 1119 -1
1191 1191 5
1192 168 -1
1192 580 -1
1192 1178 -1
1192 1192 7
1193 13 -1
1193 16 -1
1193 951 -1
1193 1193 5
1194 100 -1
1194 201 -1
1194 316 -1
1194 1194 7
1195 125 -1
1195 494 -1
1195 1001 -1
1195 1195 3
1196 143 -1
1196 144 -1
1196 431 -1
1196 1196 8
1197 22 -1
1197 412 -1
1197 505 -1
1197 1197 9
1198 305 -1
1198 526 -1
1198 1114 -1
1198 1198 4
1199 185 -1
1199 334 -1
1199 1197 -1
1199 1199 11
1200 139 -1
1200 879 -1
1200 928 -1
1200 1200 4
1201 39 -1
1201 52 -1
1201 73 -1
1201 1201 10
1202 15 -1
1202 95 -1
1202 157 -1
1202 1202 5
1203 78 -1
1203 98 -1
1203 604 -1
1203 1203 5
1204 7 -1
1204 294 -1
1204 861 -1
1204 1204 4
1205 210 -1
1205 215 -1
1205 1025 -1
1205 1205 4
1206 100 -1
1206 205 -1
1206 484 -1
1206 1206 4
1207 21 -1
1207 154 -1
1207 300 -1
1207 1207 4
1208 117 -1
1208 162 -1
1208 952 -1
1208 1208 6
1209 161 -1
1209 808 -1
1209 1000 -1
1209 1209 4
1210 85 -1
1210 197 -1
1210 483 -1
1210 1210 5
1211 35 -1
1211 194 -1
1211 320 -1
1211 1211 9
1212 9 -1
1212 27 -1
1212 346 -1
1212 1212 3
1213 115 -1
1213 342 -1
1213 759 -1
1213 1213 11
1214 182 -1
1214 824 -1
1214 988 -1
1214 1214 3
1215 117 -1
1215 833 -1
1215 1067 -1
1215 1215 4
1216 40 -1
1216 946 -1
1216 1161 -1
1216 1216 5
1217 902 -1
1217 1160 -1
1217 1199 -1
1217 1217 4
1218 284 -1
1218 415 -1
1218 710 -1
1218 1218 9
1219 261 -1
1219 699 -1
1219 832 -1
1219 1219 4
1220 17 -1
1220 407 -1
1220 538 -1
1220 1220 8
1221 35 -1
1221 78 -1
1221 317 -1
1221 1221 8
1222 330 -1
1222 679 -1
1222 1087 -1
1222 1222 4
1223 82 -1
1223 157 -1
1223 530 -1
1223 1223 7
1224 34 -1
1224 77 -1
1224 814 -1
1224 1224 6
1225 100 -1
1225 497 -1
1225 1160 -1
1225 1225 4
1226 8 -1
1226 34 -1
1226 77 -1
1226 1226 5
1227 76 -1
1227 100 -1
1227 345 -1
1227 1227 5
1228 275 -1
1228 344 -1
1228 578 -1
1228 1228 4
1229 104 -1
1229 502 -1
1229 749 -1
1229 1229 9
1230 17 -1
1230 239 -1
1230 798 -1
1230 1230 8
1231 26 -1
1231 103 -1
1231 1055 -1
1231 1231 3
1232 11 -1
1232 22 -1
1232 805 -1
1232 1232 7
1233 24 -1
1233 298 -1
1233 361 -1
1233 1233 5
1234 86 -1
1234 535 -1
1234 1081 -1
1234 1234 5
1235 5 -1
1235 82 -1
1235 695 -1
1235 1235 5
1236 1 -1
1236 488 -1
1236 976 -1
1236 1236 4
1237 39 -1
1237 319 -1
1237 350 -1
1237 1237 6
1238 116 -1
1238 138 -1
1238 878 -1
1238 1238 4
1239 100 -1
1239 212 -1
1239 736 -1
1239 1239 9
1240 78 -1
1240 136 -1
1240 382 -1
1240 1240 5
1241 4 -1
1241 111 -1
1241 451 -1
1241 1241 5
1242 70 -1
1242 209 -1
1242 231 -1
1242 1242 5
1243 18 -1
1243 62 -1
1243 248 -1
1243 1243 6
1244 82 -1
1244 444 -1
1244 804 -1
1244 1244 5
1245 445 -1
1245 814 -1
1245 933 -1
1245 1245 5
1246 7 -1
1246 184 -1
1246 737 -1
1246 1246 5
1247 471 -1
1247 957 -1
1247 1000 -1
1247 1247 4
1248 26 -1
1248 329 -1
1248 1159 -1
1248 1248 10
1249 61 -1
1249 121 -1
1249 337 -1
1249 1249 5
1250 8 -1
1250 163 -1
1250 839 -1
1250 1250 5
1251 4 -1
1251 13 -1
1251 156 -1
1251 1251 11
1252 29 -1
1252 335 -1
1252 1016 -1
1252 1252 4
1253 57 -1
1253 85 -1
1253 243 -1
1253 1253 4
1254 6 -1
1254 961 -1
1254 970 -1
1254 1254 7
1255 6 -1
1255 227 -1
1255 681 -1
1255 1255 5
1256 71 -1
1256 78 -1
1256 200 -1
1256 1256 9
1257 34 -1
1257 330 -1
1257 1126 -1
1257 1257 6
1258 231 -1
1258 357 -1
1258 511 -1
1258 1258 3
1259 109 -1
1259 461 -1
1259 1027 -1
1259 1259 3
1260 370 -1
1260 1004 -1
1260 1196 -1
1260 1260 4
1261 20 -1
1261 70 -1
1261 182 -1
1261 1261 8
1262 1 -1
1262 7 -1
1262 1232 -1
1262 1262 4
1263 197 -1
1263 239 -1
1263 1105 -1
1263 1263 7
1264 20 -1
1264 57 -1
1264 118 -1
1264 1264 4
1265 651 -1
1265 860 -1
1265 976 -1
1265 1265 4
1266 38 -1
1266 158 -1
1266 168 -1
1266 1266 4
1267 13 -1
1267 79 -1
1267 495 -1
1267 1267 7
1268 34 -1
1268 243 -1
1268 777 -1
1268 1268 3
1269 218 -1
1269 231 -1
1269 452 -1
1269 1269 6
1270 11 -1
1270 31 -1
1270 1059 -1
1270 1270 4
1271 69 -1
1271 787 -1
1271 1224 -1
1271 1271 9
1272 119 -1
1272 315 -1
1272 990 -1
1272 1272 5
1273 7 -1
1273 350 -1
1273 698 -1
1273 1273 7
1274 23 -1
1274 35 -1
1274 74 -1
1274 1274 4
1275 20 -1
1275 66 -1
1275 337 -1
1275 1275 6
1276 491 -1
1276 500 -1
1276 526 -1
1276 1276 4
1277 15 -1
1277 208 -1
1277 1004 -1
1277 1277 3
1278 13 -1
1278 20 -1
1278 1174 -1
1278 1278 4
1279 758 -1
1279 1100 -1
1279 1251 -1
1279 1279 5
1280 85 -1
1280 118 -1
1280 978 -1
1280 1280 5
1281 6 -1
1281 310 -1
1281 576 -1
1281 1281 3
1282 6 -1
1282 24 -1
1282 342 -1
1282 1282 5
1283 6 -1
1283 440 -1
1283 600 -1
1283 1283 3
1284 31 -1
1284 71 -1
1284 1131 -1
1284 1284 3
1285 9 -1
1285 57 -1
1285 404 -1
1285 1285 4
1286 10 -1
1286 75 -1
1286 695 -1
1286 1286 7
1287 248 -1
1287 308 -1
1287 364 -1
1287 1287 5
1288 46 -1
1288 66 -1
1288 104 -1
1288 1288 5
1289 39 -1
1289 54 -1
1289 82 -1
1289 1289 14
1290 128 -1
1290 207 -1
1290 305 -1
1290 1290 7
1291 5 -1
1291 255 -1
1291 450 -1
1291 1291 4
1292 17 -1
1292 121 -1
1292 627 -1
1292 1292 4
1293 14 -1
1293 277 -1
1293 507 -1
1293 1293 4
1294 321 -1
1294 483 -1
1294 773 -1
1294 1294 5
1295 11 -1
1295 418 -1
1295 1013 -1
1295 1295 8
1296 102 -1
1296 198 -1
1296 506 -1
1296 1296 4
1297 677 -1
1297 811 -1
1297 1058 -1
1297 1297 5
1298 29 -1
1298 253 -1
1298 270 -1
1298 1298 5
1299 24 -1
1299 85 -1
1299 445 -1
1299 1299 9
1300 209 -1
1300 338 -1
1300 1090 -1
1300 1300 9
1301 12 -1
1301 563 -1
1301 1004 -1
1301 1301 10
1302 26 -1
1302 36 -1
1302 104 -1
1302 1302 3
1303 203 -1
1303 301 -1
1303 476 -1
1303 1303 6
1304 5 -1
1304 950 -1
1304 1201 -1
1304 1304 6
1305 5 -1
1305 7 -1
1305 104 -1
1305 1305 4
1306 6 -1
1306 517 -1
1306 922 -1
1306 1306 10
1307 870 -1
1307 996 -1
1307 1011 -1
1307 1307 6
1308 145 -1
1308 257 -1
1308 423 -1
1308 1308 3
1309 37 -1
1309 229 -1
1309 557 -1
1309 1309 8
1310 5 -1
1310 85 -1
1310 675 -1
1310 1310 3
1311 5 -1
1311 34 -1
1311 975 -1
1311 1311 3
1312 63 -1
1312 210 -1
1312 1261 -1
1312 1312 6
1313 713 -1
1313 749 -1
1313 952 -1
1313 1313 5
1314 567 -1
1314 960 -1
1314 1226 -1
1314 1314 7
1315 17 -1
1315 512 -1
1315 629 -1
1315 1315 6
1316 5 -1
1316 119 -1
1316 796 -1
1316 1316 9
1317 5 -1
1317 100 -1
1317 403 -1
1317 1317 4
1318 6 -1
1318 27 -1
1318 1123 -1
1318 1318 6
1319 9 -1
1319 114 -1
1319 190 -1
1319 1319 5
1320 75 -1
1320 228 -1
1320 597 -1
1320 1320 7
1321 23 -1
1321 47 -1
1321 229 -1
1321 1321 6
1322 243 -1
1322 282 -1
1322 1165 -1
1322 1322 6
1323 119 -1
1323 540 -1
1323 960 -1
1323 1323 4
1324 153 -1
1324 440 -1
1324 1139 -1
1324 1324 7
1325 14 -1
1325 82 -1
1325 334 -1
1325 1325 3
1326 17 -1
1326 105 -1
1326 322 -1
1326 1326 5
1327 189 -1
1327 280 -1
1327 1068 -1
1327 1327 6
1328 135 -1
1328 152 -1
1328 1055 -1
1328 1328 4
1329 8 -1
1329 140 -1
1329 187 -1
1329 1329 4
1330 302 -1
1330 432 -1
1330 617 -1
1330 1330 5
1331 168 -1
1331 468 -1
1331 735 -1
1331 1331 4
1332 74 -1
1332 229 -1
1332 1055 -1
1332 1332 8
1333 14 -1
1333 420 -1
1333 424 -1
1333 1333 5
1334 365 -1
1334 636 -1
1334 1167 -1
1334 1334 3
1335 8 -1
1335 118 -1
1335 167 -1
1335 1335 5
1336 7 -1
1336 940 -1
1336 1106 -1
1336 1336 4
1337 7 -1
1337 13 -1
1337 122 -1
1337 1337 5
1338 9 -1
1338 297 -1
1338 827 -1
1338 1338 4
1339 451 -1
1339 597 -1
1339 1173 -1
1339 1339 8
1340 128 -1
1340 206 -1
1340 974 -1
1340 1340 6
1341 322 -1
1341 342 -1
1341 489 -1
1341 1341 8
1342 9 -1
1342 61 -1
1342 70 -1
1342 1342 5
1343 5 -1
1343 43 -1
1343 928 -1
1343 1343 8
1344 23 -1
1344 71 -1
1344 1123 -1
1344 1344 5
1345 531 -1
1345 1170 -1
1345 1303 -1
1345 1345 10
1346 198 -1
1346 561 -1
1346 591 -1
1346 1346 6
1347 54 -1
1347 297 -1
1347 442 -1
1347 1347 4
1348 131 -1
1348 634 -1
1348 1101 -1
1348 1348 6
1349 169 -1
1349 194 -1
1349 1087 -1
1349 1349 3
1350 4 -1
1350 15 -1
1350 1137 -1
1350 1350 3
1351 264 -1
1351 989 -1
1351 1345 -1
1351 1351 5
1352 75 -1
1352 274 -1
1352 1128 -1
1352 1352 4
1353 5 -1
1353 233 -1
1353 550 -1
1353 1353 7
1354 4 -1
1354 864 -1
1354 1131 -1
1354 1354 4
1355 9 -1
1355 118 -1
1355 223 -1
1355 1355 4
1356 8 -1
1356 1113 -1
1356 1256 -1
1356 1356 3
1357 19 -1
1357 33 -1
1357 102 -1
1357 1357 5
1358 273 -1
1358 488 -1
1358 885 -1
1358 1358 4
1359 179 -1
1359 350 -1
1359 1108 -1
1359 1359 3
1360 129 -1
1360 1160 -1
1360 1239 -1
1360 1360 3
1361 87 -1
1361 157 -1
1361 456 -1
1361 1361 5
1362 9 -1
1362 92 -1
1362 1290 -1
1362 1362 6
1363 5 -1
1363 8 -1
1363 39 -1
1363 1363 5
1364 480 -1
1364 787 -1
1364 1265 -1
1364 1364 6
1365 5 -1
1365 593 -1
1365 1125 -1
1365 1365 5
1366 2 -1
1366 168 -1
1366 526 -1
1366 1366 4
1367 239 -1
1367 586 -1
1367 936 -1
1367 1367 4
1368 69 -1
1368 82 -1
1368 89 -1
1368 1368 3
1369 34 -1
1369 135 -1
1369 259 -1
1369 1369 3
1370 98 -1
1370 409 -1
1370 1221 -1
1370 1370 5
1371 526 -1
1371 540 -1
1371 809 -1
1371 1371 5
1372 170 -1
1372 210 -1
1372 1029 -1
1372 1372 5
1373 243 -1
1373 767 -1
1373 1049 -1
1373 1373 3
1374 378 -1
1374 548 -1
1374 1148 -1
1374 1374 3
1375 6 -1
1375 520 -1
1375 961 -1
1375 1375 8
1376 280 -1
1376 984 -1
1376 1313 -1
1376 1376 3
1377 391 -1
1377 540 -1
1377 1375 -1
1377 1377 4
1378 174 -1
1378 274 -1
1378 1064 -1
1378 1378 3
1379 5 -1
1379 67 -1
1379 874 -1
1379 1379 5
1380 9 -1
1380 57 -1
1380 163 -1
1380 1380 5
1381 121 -1
1381 547 -1
1381 639 -1
1381 1381 7
1382 192 -1
1382 439 -1
1382 680 -1
1382 1382 3
1383 156 -1
1383 662 -1
1383 731 -1
1383 1383 3
1384 97 -1
1384 972 -1
1384 1064 -1
1384 1384 6
1385 256 -1
1385 484 -1
1385 649 -1
1385 1385 8
1386 8 -1
1386 9 -1
1386 983 -1
1386 1386 3
1387 2 -1
1387 305 -1
1387 955 -1
1387 1387 7
1388 78 -1
1388 634 -1
1388 847 -1
1388 1388 4
1389 5 -1
1389 107 -1
1389 176 -1
1389 1389 4
1390 24 -1
1390 36 -1
1390 104 -1
1390 1390 3
1391 5 -1
1391 24 -1
1391 37 -1
1391 1391 3
1392 142 -1
1392 522 -1
1392 909 -1
1392 1392 8
1393 447 -1
1393 488 -1
1393 887 -1
1393 1393 3
1394 63 -1
1394 166 -1
1394 333 -1
1394 1394 3
1395 128 -1
1395 306 -1
1395 390 -1
1395 1395 4
1396 5 -1
1396 98 -1
1396 850 -1
1396 1396 3
1397 54 -1
1397 279 -1
1397 657 -1
1397 1397 9
1398 282 -1
1398 376 -1
1398 884 -1
1398 1398 4
1399 50 -1
1399 1167 -1
1399 1196 -1
1399 1399 6
1400 48 -1
1400 479 -1
1400 613 -1
1400 1400 7
1401 382 -1
1401 482 -1
1401 841 -1
1401 1401 3
1402 82 -1
1402 351 -1
1402 398 -1
1402 1402 5
1403 7 -1
1403 8 -1
1403 292 -1
1403 1403 12
1404 109 -1
1404 315 -1
1404 872 -1
1404 1404 4
1405 35 -1
1405 118 -1
1405 1358 -1
1405 1405 6
1406 107 -1
1406 135 -1
1406 653 -1
1406 1406 3
1407 7 -1
1407 648 -1
1407 845 -1
1407 1407 5
1408 237 -1
1408 920 -1
1408 1223 -1
1408 1408 4
1409 4 -1
1409 39 -1
1409 576 -1
1409 1409 3
1410 6 -1
1410 87 -1
1410 348 -1
1410 1410 4
1411 6 -1
1411 66 -1
1411 704 -1
1411 1411 3
1412 16 -1
1412 1057 -1
1412 1200 -1
1412 1412 6
1413 93 -1
1413 1134 -1
1413 1149 -1
1413 1413 3
1414 15 -1
1414 602 -1
1414 630 -1
1414 1414 9
1415 280 -1
1415 749 -1
1415 1028 -1
1415 1415 8
1416 66 -1
1416 488 -1
1416 619 -1
1416 1416 5
1417 2 -1
1417 118 -1
1417 436 -1
1417 1417 6
1418 12 -1
1418 58 -1
1418 710 -1
1418 1418 8
1419 206 -1
1419 289 -1
1419 781 -1
1419 1419 3
1420 6 -1
1420 246 -1
1420 468 -1
1420 1420 3
1421 208 -1
1421 253 -1
1421 926 -1
1421 1421 4
1422 88 -1
1422 243 -1
1422 1181 -1
1422 1422 5
1423 432 -1
1423 454 -1
1423 1189 -1
1423 1423 5
1424 15 -1
1424 280 -1
1424 650 -1
1424 1424 10
1425 407 -1
1425 522 -1
1425 1121 -1
1425 1425 13
1426 311 -1
1426 496 -1
1426 772 -1
1426 1426 7
1427 139 -1
1427 265 -1
1427 652 -1
1427 1427 8
1428 4 -1
1428 1076 -1
1428 1344 -1
1428 1428 4
1429 7 -1
1429 152 -1
1429 374 -1
1429 1429 4
1430 71 -1
1430 398 -1
1430 1171 -1
1430 1430 7
1431 5 -1
1431 268 -1
1431 1315 -1
1431 1431 3
1432 27 -1
1432 65 -1
1432 306 -1
1432 1432 6
1433 227 -1
1433 800 -1
1433 1058 -1
1433 1433 8
1434 8 -1
1434 613 -1
1434 628 -1
1434 1434 5
1435 727 -1
1435 1289 -1
1435 1339 -1
1435 1435 6
1436 252 -1
1436 508 -1
1436 931 -1
1436 1436 4
1437 578 -1
1437 1012 -1
1437 1045 -1
1437 1437 4
1438 39 -1
1438 125 -1
1438 317 -1
1438 1438 7
1439 722 -1
1439 1204 -1
1439 1273 -1
1439 1439 6
1440 79 -1
1440 256 -1
1440 621 -1
1440 1440 4
1441 13 -1
1441 141 -1
1441 416 -1
1441 1441 4
1442 129 -1
1442 327 -1
1442 942 -1
1442 1442 4
1443 132 -1
1443 170 -1
1443 201 -1
1443 1443 3
1444 84 -1
1444 1300 -1
1444 1430 -1
1444 1444 3
1445 256 -1
1445 321 -1
1445 1304 -1
1445 1445 3
1446 98 -1
1446 219 -1
1446 1010 -1
1446 1446 3
1447 406 -1
1447 749 -1
1447 961 -1
1447 1447 3
1448 15 -1
1448 313 -1
1448 798 -1
1448 1448 4
1449 6 -1
1449 14 -1
1449 582 -1
1449 1449 5
1450 120 -1
1450 348 -1
1450 450 -1
1450 1450 6
1451 31 -1
1451 217 -1
1451 1192 -1
1451 1451 6
1452 46 -1
1452 249 -1
1452 407 -1
1452 1452 4
1453 186 -1
1453 241 -1
1453 1063 -1
1453 1453 3
1454 5 -1
1454 9 -1
1454 894 -1
1454 1454 6
1455 37 -1
1455 681 -1
1455 1189 -1
1455 1455 7
1456 139 -1
1456 1149 -1
1456 1430 -1
1456 1456 5
1457 408 -1
1457 412 -1
1457 1135 -1
1457 1457 4
1458 8 -1
1458 277 -1
1458 279 -1
1458 1458 4
1459 451 -1
1459 942 -1
1459 1041 -1
1459 1459 3
1460 497 -1
1460 1049 -1
1460 1329 -1
1460 1460 6
1461 6 -1
1461 48 -1
1461 1295 -1
1461 1461 12
1462 259 -1
1462 396 -1
1462 494 -1
1462 1462 5
1463 109 -1
1463 1084 -1
1463 1100 -1
1463 1463 5
1464 138 -1
1464 414 -1
1464 652 -1
1464 1464 8
1465 79 -1
1465 282 -1
1465 1301 -1
1465 1465 5
1466 5 -1
1466 831 -1
1466 926 -1
1466 1466 5
1467 505 -1
1467 591 -1
1467 769 -1
1467 1467 4
1468 5 -1
1468 166 -1
1468 370 -1
1468 1468 4
1469 391 -1
1469 824 -1
1469 1213 -1
1469 1469 3
1470 233 -1
1470 247 -1
1470 739 -1
1470 1470 4
1471 197 -1
1471 302 -1
1471 335 -1
1471 1471 4
1472 15 -1
1472 1115 -1
1472 1326 -1
1472 1472 8
1473 17 -1
1473 36 -1
1473 66 -1
1473 1473 4
1474 162 -1
1474 313 -1
1474 853 -1
1474 1474 7
1475 6 -1
1475 1105 -1
1475 1387 -1
1475 1475 5
1476 26 -1
1476 256 -1
1476 1435 -1
1476 1476 7
1477 27 -1
1477 119 -1
1477 263 -1
1477 1477 9
1478 7 -1
1478 8 -1
1478 244 -1
1478 1478 4
1479 35 -1
1479 330 -1
1479 547 -1
1479 1479 3
1480 282 -1
1480 1009 -1
1480 1271 -1
1480 1480 5
1481 27 -1
1481 156 -1
1481 1087 -1
1481 1481 4
1482 8 -1
1482 282 -1
1482 664 -1
1482 1482 6
1483 330 -1
1483 488 -1
1483 1338 -1
1483 1483 3
1484 42 -1
1484 82 -1
1484 1299 -1
1484 1484 5
1485 78 -1
1485 250 -1
1485 450 -1
1485 1485 3
1486 5 -1
1486 78 -1
1486 1059 -1
1486 1486 6
1487 139 -1
1487 267 -1
1487 448 -1
1487 1487 3
1488 56 -1
1488 568 -1
1488 618 -1
1488 1488 6
1489 738 -1
1489 754 -1
1489 1405 -1
1489 1489 3
1490 23 -1
1490 58 -1
1490 1298 -1
1490 1490 5
1491 4 -1
1491 26 -1
1491 476 -1
1491 1491 3
1492 53 -1
1492 114 -1
1492 116 -1
1492 1492 5
1493 2 -1
1493 616 -1
1493 755 -1
1493 1493 5
1494 10 -1
1494 547 -1
1494 1126 -1
1494 1494 5
1495 57 -1
1495 599 -1
1495 1174 -1
1495 1495 3
1496 23 -1
1496 111 -1
1496 1425 -1
1496 1496 8
1497 11 -1
1497 1025 -1
1497 1400 -1
1497 1497 3
1498 117 -1
1498 153 -1
1498 775 -1
1498 1498 5
1499 47 -1
1499 118 -1
1499 190 -1
1499 1499 7
1500 574 -1
1500 758 -1
1500 891 -1
1500 1500 8
1501 135 -1
1501 710 -1
1501 819 -1
1501 1501 6
1502 46 -1
1502 95 -1
1502 1416 -1
1502 1502 11
1503 63 -1
1503 672 -1
1503 876 -1
1503 1503 3
1504 9 -1
1504 34 -1
1504 73 -1
1504 1504 6
1505 200 -1
1505 786 -1
1505 1146 -1
1505 1505 7
1506 7 -1
1506 146 -1
1506 1108 -1
1506 1506 6
1507 59 -1
1507 233 -1
1507 522 -1
1507 1507 3
1508 203 -1
1508 982 -1
1508 1463 -1
1508 1508 3
1509 5 -1
1509 45 -1
1509 823 -1
1509 1509 5
1510 270 -1
1510 498 -1
1510 765 -1
1510 1510 3
1511 78 -1
1511 200 -1
1511 1289 -1
1511 1511 8
1512 247 -1
1512 503 -1
1512 920 -1
1512 1512 3
1513 610 -1
1513 613 -1
1513 777 -1
1513 1513 4
1514 732 -1
1514 842 -1
1514 908 -1
1514 1514 4
1515 715 -1
1515 806 -1
1515 1018 -1
1515 1515 7
1516 31 -1
1516 325 -1
1516 1288 -1
1516 1516 3
1517 5 -1
1517 14 -1
1517 150 -1
1517 1517 5
1518 5 -1
1518 157 -1
1518 1370 -1
1518 1518 7
1519 733 -1
1519 818 -1
1519 1450 -1
1519 1519 6
1520 137 -1
1520 151 -1
1520 415 -1
1520 1520 6
1521 33 -1
1521 550 -1
1521 939 -1
1521 1521 6
1522 82 -1
1522 85 -1
1522 1058 -1
1522 1522 5
1523 29 -1
1523 224 -1
1523 867 -1
1523 1523 4
1524 8 -1
1524 486 -1
1524 764 -1
1524 1524 6
1525 8 -1
1525 16 -1
1525 859 -1
1525 1525 4
1526 575 -1
1526 750 -1
1526 878 -1
1526 1526 8
1527 256 -1
1527 436 -1
1527 1340 -1
1527 1527 5
1528 8 -1
1528 239 -1
1528 814 -1
1528 1528 10
1529 1105 -1
1529 1175 -1
1529 1176 -1
1529 1529 3
1530 16 -1
1530 1050 -1
1530 1307 -1
1530 1530 6
1531 17 -1
1531 548 -1
1531 1461 -1
1531 1531 4
1532 40 -1
1532 883 -1
1532 1022 -1
1532 1532 3
1533 9 -1
1533 52 -1
1533 153 -1
1533 1533 5
1534 4 -1
1534 530 -1
1534 621 -1
1534 1534 4
1535 3 -1
1535 6 -1
1535 571 -1
1535 1535 3
1536 114 -1
1536 488 -1
1536 1064 -1
1536 1536 6
1537 101 -1
1537 122 -1
1537 839 -1
1537 1537 3
1538 128 -1
1538 364 -1
1538 547 -1
1538 1538 4
1539 1248 -1
1539 1339 -1
1539 1424 -1
1539 1539 4
1540 102 -1
1540 814 -1
1540 926 -1
1540 1540 4
1541 939 -1
1541 984 -1
1541 1342 -1
1541 1541 6
1542 55 -1
1542 518 -1
1542 1105 -1
1542 1542 4
1543 5 -1
1543 616 -1
1543 627 -1
1543 1543 3
1544 23 -1
1544 63 -1
1544 580 -1
1544 1544 3
1545 34 -1
1545 312 -1
1545 1381 -1
1545 1545 4
1546 10 -1
1546 219 -1
1546 1028 -1
1546 1546 9
1547 136 -1
1547 407 -1
1547 652 -1
1547 1547 3
1548 57 -1
1548 117 -1
1548 134 -1
1548 1548 3
1549 135 -1
1549 157 -1
1549 233 -1
1549 1549 6
1550 8 -1
1550 23 -1
1550 1199 -1
1550 1550 8
1551 5 -1
1551 24 -1
1551 775 -1
1551 1551 5
1552 7 -1
1552 81 -1
1552 332 -1
1552 1552 7
1553 79 -1
1553 279 -1
1553 442 -1
1553 1553 3
1554 246 -1
1554 378 -1
1554 1424 -1
1554 1554 5
1555 5 -1
1555 1147 -1
1555 1400 -1
1555 1555 5
1556 8 -1
1556 74 -1
1556 775 -1
1556 1556 5
1557 5 -1
1557 80 -1
1557 103 -1
1557 1557 7
1558 118 -1
1558 611 -1
1558 1432 -1
1558 1558 4
1559 412 -1
1559 554 -1
1559 1122 -1
1559 1559 4
1560 111 -1
1560 441 -1
1560 810 -1
1560 1560 5
1561 101 -1
1561 350 -1
1561 1500 -1
1561 1561 5
1562 7 -1
1562 906 -1
1562 1316 -1
1562 1562 3
1563 8 -1
1563 38 -1
1563 162 -1
1563 1563 3
1564 5 -1
1564 42 -1
1564 305 -1
1564 1564 5
1565 208 -1
1565 249 -1
1565 482 -1
1565 1565 4
1566 50 -1
1566 280 -1
1566 702 -1
1566 1566 6
1567 13 -1
1567 408 -1
1567 497 -1
1567 1567 5
1568 140 -1
1568 276 -1
1568 1271 -1
1568 1568 7
1569 111 -1
1569 313 -1
1569 575 -1
1569 1569 3
1570 444 -1
1570 857 -1
1570 987 -1
1570 1570 5
1571 5 -1
1571 118 -1
1571 206 -1
1571 1571 6
1572 13 -1
1572 381 -1
1572 469 -1
1572 1572 4
1573 6 -1
1573 269 -1
1573 1197 -1
1573 1573 8
1574 257 -1
1574 736 -1
1574 1021 -1
1574 1574 6
1575 23 -1
1575 314 -1
1575 939 -1
1575 1575 3
1576 431 -1
1576 1096 -1
1576 1250 -1
1576 1576 15
1577 6 -1
1577 20 -1
1577 1309 -1
1577 1577 9
1578 62 -1
1578 312 -1
1578 1155 -1
1578 1578 11
1579 17 -1
1579 365 -1
1579 372 -1
1579 1579 3
1580 26 -1
1580 92 -1
1580 282 -1
1580 1580 4
1581 498 -1
1581 928 -1
1581 1557 -1
1581 1581 4
1582 5 -1
1582 82 -1
1582 1040 -1
1582 1582 8
1583 360 -1
1583 540 -1
1583 1336 -1
1583 1583 6
1584 21 -1
1584 24 -1
1584 985 -1
1584 1584 8
1585 48 -1
1585 129 -1
1585 176 -1
1585 1585 5
1586 2 -1
1586 37 -1
1586 578 -1
1586 1586 6
1587 615 -1
1587 1546 -1
1587 1578 -1
1587 1587 3
1588 27 -1
1588 208 -1
1588 927 -1
1588 1588 5
1589 114 -1
1589 682 -1
1589 1185 -1
1589 1589 4
1590 19 -1
1590 1054 -1
1590 1319 -1
1590 1590 8
1591 41 -1
1591 409 -1
1591 1528 -1
1591 1591 4
1592 35 -1
1592 432 -1
1592 1384 -1
1592 1592 4
1593 404 -1
1593 455 -1
1593 1357 -1
1593 1593 9
1594 134 -1
1594 879 -1
1594 1346 -1
1594 1594 3
1595 661 -1
1595 763 -1
1595 907 -1
1595 1595 7
1596 46 -1
1596 78 -1
1596 233 -1
1596 1596 4
1597 522 -1
1597 950 -1
1597 1037 -1
1597 1597 4
1598 118 -1
1598 645 -1
1598 1257 -1
1598 1598 11
1599 1216 -1
1599 1227 -1
1599 1568 -1
1599 1599 3
1600 239 -1
1600 593 -1
1600 1224 -1
1600 1600 4
1601 9 -1
1601 322 -1
1601 700 -1
1601 1601 5
1602 52 -1
1602 186 -1
1602 1105 -1
1602 1602 5
1603 8 -1
1603 101 -1
1603 1129 -1
1603 1603 3
1604 1 -1
1604 127 -1
1604 672 -1
1604 1604 4
1605 522 -1
1605 835 -1
1605 1539 -1
1605 1605 3
1606 568 -1
1606 934 -1
1606 1249 -1
1606 1606 5
1607 6 -1
1607 72 -1
1607 612 -1
1607 1607 3
1608 910 -1
1608 1244 -1
1608 1533 -1
1608 1608 5
1609 977 -1
1609 1239 -1
1609 1295 -1
1609 1609 4
1610 7 -1
1610 193 -1
1610 609 -1
1610 1610 5
1611 5 -1
1611 9 -1
1611 973 -1
1611 1611 6
1612 10 -1
1612 152 -1
1612 1499 -1
1612 1612 3
1613 52 -1
1613 103 -1
1613 1024 -1
1613 1613 3
1614 13 -1
1614 387 -1
1614 1348 -1
1614 1614 5
1615 28 -1
1615 168 -1
1615 1058 -1
1615 1615 8
1616 189 -1
1616 333 -1
1616 538 -1
1616 1616 7
1617 29 -1
1617 592 -1
1617 1076 -1
1617 1617 6
1618 34 -1
1618 153 -1
1618 926 -1
1618 1618 3
1619 130 -1
1619 1135 -1
1619 1611 -1
1619 1619 5
1620 8 -1
1620 86 -1
1620 1252 -1
1620 1620 3
1621 103 -1
1621 371 -1
1621 1380 -1
1621 1621 4
1622 2 -1
1622 15 -1
1622 46 -1
1622 1622 5
1623 136 -1
1623 1185 -1
1623 1514 -1
1623 1623 7
1624 522 -1
1624 1322 -1
1624 1601 -1
1624 1624 4
1625 43 -1
1625 487 -1
1625 1583 -1
1625 1625 4
1626 286 -1
1626 354 -1
1626 1061 -1
1626 1626 4
1627 882 -1
1627 928 -1
1627 1380 -1
1627 1627 5
1628 219 -1
1628 681 -1
1628 1076 -1
1628 1628 8
1629 23 -1
1629 60 -1
1629 411 -1
1629 1629 5
1630 7 -1
1630 27 -1
1630 1240 -1
1630 1630 4
1631 33 -1
1631 106 -1
1631 1402 -1
1631 1631 9
1632 44 -1
1632 1499 -1
1632 1515 -1
1632 1632 5
1633 385 -1
1633 552 -1
1633 576 -1
1633 1633 4
1634 118 -1
1634 575 -1
1634 946 -1
1634 1634 4
1635 78 -1
1635 489 -1
1635 1379 -1
1635 1635 5
1636 4 -1
1636 965 -1
1636 1248 -1
1636 1636 3
1637 661 -1
1637 1315 -1
1637 1316 -1
1637 1637 6
1638 784 -1
1638 1143 -1
1638 1461 -1
1638 1638 5
1639 5 -1
1639 38 -1
1639 294 -1
1639 1639 7
1640 5 -1
1640 17 -1
1640 400 -1
1640 1640 6
1641 148 -1
1641 158 -1
1641 549 -1
1641 1641 5
1642 6 -1
1642 12 -1
1642 786 -1
1642 1642 5
1643 82 -1
1643 126 -1
1643 403 -1
1643 1643 5
1644 219 -1
1644 809 -1
1644 1481 -1
1644 1644 6
1645 6 -1
1645 378 -1
1645 1239 -1
1645 1645 6
1646 283 -1
1646 364 -1
1646 616 -1
1646 1646 3
1647 652 -1
1647 1065 -1
1647 1536 -1
1647 1647 5
1648 38 -1
1648 50 -1
1648 96 -1
1648 1648 4
1649 931 -1
1649 1045 -1
1649 1141 -1
1649 1649 4
1650 150 -1
1650 857 -1
1650 1511 -1
1650 1650 8
1651 6 -1
1651 230 -1
1651 558 -1
1651 1651 6
1652 619 -1
1652 820 -1
1652 1213 -1
1652 1652 4
1653 1496 -1
1653 1610 -1
1653 1651 -1
1653 1653 5
1654 48 -1
1654 411 -1
1654 425 -1
1654 1654 7
1655 31 -1
1655 383 -1
1655 1229 -1
1655 1655 3
1656 478 -1
1656 514 -1
1656 845 -1
1656 1656 4
1657 114 -1
1657 135 -1
1657 329 -1
1657 1657 7
1658 5 -1
1658 297 -1
1658 1523 -1
1658 1658 5
1659 5 -1
1659 6 -1
1659 725 -1
1659 1659 5
1660 6 -1
1660 176 -1
1660 1598 -1
1660 1660 3
1661 208 -1
1661 426 -1
1661 906 -1
1661 1661 3
1662 57 -1
1662 423 -1
1662 884 -1
1662 1662 3
1663 84 -1
1663 142 -1
1663 1633 -1
1663 1663 8
1664 1108 -1
1664 1343 -1
1664 1567 -1
1664 1664 5
1665 97 -1
1665 871 -1
1665 981 -1
1665 1665 4
1666 452 -1
1666 604 -1
1666 1438 -1
1666 1666 4
1667 46 -1
1667 662 -1
1667 1425 -1
1667 1667 6
1668 372 -1
1668 1139 -1
1668 1486 -1
1668 1668 5
1669 107 -1
1669 247 -1
1669 1105 -1
1669 1669 4
1670 49 -1
1670 205 -1
1670 586 -1
1670 1670 6
1671 234 -1
1671 374 -1
1671 650 -1
1671 1671 3
1672 600 -1
1672 805 -1
1672 1452 -1
1672 1672 6
1673 4 -1
1673 1300 -1
1673 1536 -1
1673 1673 8
1674 85 -1
1674 948 -1
1674 1220 -1
1674 1674 4
1675 46 -1
1675 112 -1
1675 669 -1
1675 1675 3
1676 185 -1
1676 313 -1
1676 798 -1
1676 1676 3
1677 35 -1
1677 704 -1
1677 1057 -1
1677 1677 5
1678 30 -1
1678 280 -1
1678 618 -1
1678 1678 5
1679 447 -1
1679 920 -1
1679 1027 -1
1679 1679 5
1680 14 -1
1680 123 -1
1680 1220 -1
1680 1680 11
1681 400 -1
1681 529 -1
1681 878 -1
1681 1681 3
1682 7 -1
1682 117 -1
1682 228 -1
1682 1682 6
1683 17 -1
1683 90 -1
1683 497 -1
1683 1683 5
1684 11 -1
1684 182 -1
1684 579 -1
1684 1684 4
1685 43 -1
1685 48 -1
1685 287 -1
1685 1685 5
1686 15 -1
1686 40 -1
1686 168 -1
1686 1686 9
1687 68 -1
1687 200 -1
1687 423 -1
1687 1687 4
1688 103 -1
1688 909 -1
1688 1257 -1
1688 1688 10
1689 6 -1
1689 101 -1
1689 242 -1
1689 1689 4
1690 114 -1
1690 691 -1
1690 1527 -1
1690 1690 8
1691 8 -1
1691 257 -1
1691 625 -1
1691 1691 4
1692 9 -1
1692 78 -1
1692 1063 -1
1692 1692 6
1693 87 -1
1693 128 -1
1693 1235 -1
1693 1693 3
1694 1 -1
1694 867 -1
1694 1067 -1
1694 1694 3
1695 11 -1
1695 13 -1
1695 414 -1
1695 1695 6
1696 176 -1
1696 1129 -1
1696 1692 -1
1696 1696 3
1697 12 -1
1697 181 -1
1697 980 -1
1697 1697 7
1698 4 -1
1698 293 -1
1698 1375 -1
1698 1698 5
1699 44 -1
1699 826 -1
1699 1598 -1
1699 1699 5
1700 185 -1
1700 772 -1
1700 1045 -1
1700 1700 3
1701 29 -1
1701 49 -1
1701 1082 -1
1701 1701 3
1702 8 -1
1702 430 -1
1702 1460 -1
1702 1702 3
1703 374 -1
1703 547 -1
1703 1071 -1
1703 1703 4
1704 86 -1
1704 239 -1
1704 817 -1
1704 1704 4
1705 8 -1
1705 806 -1
1705 1022 -1
1705 1705 11
1706 50 -1
1706 340 -1
1706 1519 -1
1706 1706 3
1707 17 -1
1707 78 -1
1707 1567 -1
1707 1707 5
1708 37 -1
1708 576 -1
1708 1470 -1
1708 1708 4
1709 92 -1
1709 118 -1
1709 232 -1
1709 1709 3
1710 350 -1
1710 577 -1
1710 942 -1
1710 1710 3
1711 392 -1
1711 1130 -1
1711 1403 -1
1711 1711 9
1712 390 -1
1712 443 -1
1712 606 -1
1712 1712 4
1713 5 -1
1713 534 -1
1713 1688 -1
1713 1713 4
1714 256 -1
1714 316 -1
1714 442 -1
1714 1714 12
1715 152 -1
1715 1263 -1
1715 1502 -1
1715 1715 4
1716 203 -1
1716 797 -1
1716 1504 -1
1716 1716 5
1717 187 -1
1717 246 -1
1717 688 -1
1717 1717 3
1718 11 -1
1718 682 -1
1718 1167 -1
1718 1718 4
1719 207 -1
1719 218 -1
1719 286 -1
1719 1719 3
1720 7 -1
1720 165 -1
1720 782 -1
1720 1720 5
1721 48 -1
1721 194 -1
1721 1695 -1
1721 1721 6
1722 871 -1
1722 1234 -1
1722 1330 -1
1722 1722 4
1723 68 -1
1723 838 -1
1723 900 -1
1723 1723 4
1724 134 -1
1724 253 -1
1724 1568 -1
1724 1724 3
1725 214 -1
1725 867 -1
1725 1551 -1
1725 1725 4
1726 6 -1
1726 256 -1
1726 1173 -1
1726 1726 3
1727 270 -1
1727 608 -1
1727 613 -1
1727 1727 4
1728 759 -1
1728 985 -1
1728 1194 -1
1728 1728 10
1729 311 -1
1729 370 -1
1729 1314 -1
1729 1729 4
1730 17 -1
1730 983 -1
1730 1267 -1
1730 1730 5
1731 116 -1
1731 270 -1
1731 1333 -1
1731 1731 6
1732 176 -1
1732 284 -1
1732 483 -1
1732 1732 5
1733 150 -1
1733 227 -1
1733 324 -1
1733 1733 3
1734 425 -1
1734 722 -1
1734 1474 -1
1734 1734 5
1735 209 -1
1735 212 -1
1735 1502 -1
1735 1735 3
1736 54 -1
1736 1388 -1
1736 1728 -1
1736 1736 4
1737 19 -1
1737 1584 -1
1737 1592 -1
1737 1737 3
1738 5 -1
1738 28 -1
1738 584 -1
1738 1738 3
1739 1 -1
1739 715 -1
1739 765 -1
1739 1739 3
1740 507 -1
1740 618 -1
1740 1477 -1
1740 1740 5
1741 409 -1
1741 1002 -1
1741 1075 -1
1741 1741 3
1742 387 -1
1742 613 -1
1742 798 -1
1742 1742 4
1743 369 -1
1743 1029 -1
1743 1272 -1
1743 1743 3
1744 92 -1
1744 142 -1
1744 1397 -1
1744 1744 6
1745 6 -1
1745 32 -1
1745 997 -1
1745 1745 3
1746 13 -1
1746 456 -1
1746 1680 -1
1746 1746 3
1747 59 -1
1747 1087 -1
1747 1407 -1
1747 1747 7
1748 74 -1
1748 438 -1
1748 1550 -1
1748 1748 4
1749 111 -1
1749 233 -1
1749 1139 -1
1749 1749 5
1750 16 -1
1750 601 -1
1750 983 -1
1750 1750 4
1751 175 -1
1751 636 -1
1751 1335 -1
1751 1751 4
1752 92 -1
1752 725 -1
1752 1012 -1
1752 1752 5
1753 12 -1
1753 120 -1
1753 568 -1
1753 1753 4
1754 7 -1
1754 1063 -1
1754 1286 -1
1754 1754 3
1755 112 -1
1755 130 -1
1755 814 -1
1755 1755 3
1756 285 -1
1756 888 -1
1756 1427 -1
1756 1756 3
1757 123 -1
1757 425 -1
1757 750 -1
1757 1757 12
1758 23 -1
1758 985 -1
1758 1560 -1
1758 1758 3
1759 478 -1
1759 1032 -1
1759 1037 -1
1759 1759 3
1760 216 -1
1760 1001 -1
1760 1608 -1
1760 1760 8
1761 690 -1
1761 1031 -1
1761 1414 -1
1761 1761 4
1762 5 -1
1762 602 -1
1762 612 -1
1762 1762 3
1763 29 -1
1763 424 -1
1763 967 -1
1763 1763 5
1764 1 -1
1764 597 -1
1764 1653 -1
1764 1764 5
1765 210 -1
1765 304 -1
1765 548 -1
1765 1765 4
1766 2 -1
1766 14 -1
1766 214 -1
1766 1766 4
1767 4 -1
1767 690 -1
1767 770 -1
1767 1767 4
1768 8 -1
1768 52 -1
1768 581 -1
1768 1768 4
1769 433 -1
1769 593 -1
1769 1647 -1
1769 1769 3
1770 13 -1
1770 292 -1
1770 632 -1
1770 1770 5
1771 24 -1
1771 905 -1
1771 1318 -1
1771 1771 3
1772 127 -1
1772 210 -1
1772 975 -1
1772 1772 4
1773 24 -1
1773 29 -1
1773 70 -1
1773 1773 3
1774 7 -1
1774 423 -1
1774 1041 -1
1774 1774 7
1775 121 -1
1775 192 -1
1775 857 -1
1775 1775 5
1776 371 -1
1776 443 -1
1776 1621 -1
1776 1776 7
1777 43 -1
1777 68 -1
1777 1403 -1
1777 1777 4
1778 20 -1
1778 156 -1
1778 1566 -1
1778 1778 7
1779 93 -1
1779 461 -1
1779 495 -1
1779 1779 3
1780 85 -1
1780 1414 -1
1780 1640 -1
1780 1780 4
1781 54 -1
1781 627 -1
1781 997 -1
1781 1781 4
1782 129 -1
1782 480 -1
1782 513 -1
1782 1782 3
1783 5 -1
1783 1230 -1
1783 1598 -1
1783 1783 4
1784 97 -1
1784 114 -1
1784 469 -1
1784 1784 5
1785 393 -1
1785 1125 -1
1785 1644 -1
1785 1785 4
1786 500 -1
1786 907 -1
1786 1705 -1
1786 1786 5
1787 461 -1
1787 698 -1
1787 1398 -1
1787 1787 4
1788 70 -1
1788 939 -1
1788 1632 -1
1788 1788 5
1789 191 -1
1789 631 -1
1789 1616 -1
1789 1789 4
1790 57 -1
1790 1036 -1
1790 1056 -1
1790 1790 6
1791 11 -1
1791 46 -1
1791 556 -1
1791 1791 4
1792 5 -1
1792 203 -1
1792 547 -1
1792 1792 4
1793 135 -1
1793 149 -1
1793 266 -1
1793 1793 5
1794 301 -1
1794 383 -1
1794 1682 -1
1794 1794 4
1795 110 -1
1795 681 -1
1795 1641 -1
1795 1795 6
1796 31 -1
1796 324 -1
1796 1064 -1
1796 1796 5
1797 359 -1
1797 1320 -1
1797 1651 -1
1797 1797 7
1798 3 -1
1798 1476 -1
1798 1776 -1
1798 1798 6
1799 74 -1
1799 1152 -1
1799 1429 -1
1799 1799 5
1800 122 -1
1800 350 -1
1800 1450 -1
1800 1800 7
1801 630 -1
1801 1174 -1
1801 1320 -1
1801 1801 4
1802 152 -1
1802 204 -1
1802 348 -1
1802 1802 4
1803 270 -1
1803 1165 -1
1803 1309 -1
1803 1803 4
1804 315 -1
1804 369 -1
1804 1306 -1
1804 1804 5
1805 232 -1
1805 638 -1
1805 777 -1
1805 1805 3
1806 1119 -1
1806 1488 -1
1806 1637 -1
1806 1806 7
1807 18 -1
1807 79 -1
1807 707 -1
1807 1807 6
1808 5 -1
1808 13 -1
1808 1430 -1
1808 1808 6
1809 23 -1
1809 325 -1
1809 454 -1
1809 1809 3
1810 46 -1
1810 419 -1
1810 564 -1
1810 1810 3
1811 8 -1
1811 257 -1
1811 866 -1
1811 1811 6
1812 130 -1
1812 370 -1
1812 426 -1
1812 1812 5
1813 5 -1
1813 52 -1
1813 696 -1
1813 1813 3
1814 717 -1
1814 1160 -1
1814 1467 -1
1814 1814 4
1815 143 -1
1815 1545 -1
1815 1674 -1
1815 1815 9
1816 194 -1
1816 437 -1
1816 439 -1
1816 1816 3
1817 123 -1
1817 1511 -1
1817 1526 -1
1817 1817 3
1818 23 -1
1818 28 -1
1818 1014 -1
1818 1818 5
1819 733 -1
1819 1324 -1
1819 1530 -1
1819 1819 3
1820 557 -1
1820 696 -1
1820 928 -1
1820 1820 4
1821 6 -1
1821 153 -1
1821 876 -1
1821 1821 6
1822 37 -1
1822 416 -1
1822 1306 -1
1822 1822 4
1823 277 -1
1823 445 -1
1823 1223 -1
1823 1823 4
1824 522 -1
1824 589 -1
1824 1097 -1
1824 1824 4
1825 59 -1
1825 218 -1
1825 1680 -1
1825 1825 4
1826 34 -1
1826 442 -1
1826 1066 -1
1826 1826 8
1827 15 -1
1827 252 -1
1827 1477 -1
1827 1827 3
1828 82 -1
1828 400 -1
1828 1291 -1
1828 1828 4
1829 178 -1
1829 244 -1
1829 1192 -1
1829 1829 5
1830 239 -1
1830 609 -1
1830 1016 -1
1830 1830 5
1831 17 -1
1831 222 -1
1831 1425 -1
1831 1831 4
1832 30 -1
1832 921 -1
1832 1680 -1
1832 1832 6
1833 540 -1
1833 1426 -1
1833 1795 -1
1833 1833 5
1834 78 -1
1834 160 -1
1834 482 -1
1834 1834 3
1835 725 -1
1835 1202 -1
1835 1353 -1
1835 1835 5
1836 15 -1
1836 554 -1
1836 1797 -1
1836 1836 5
1837 535 -1
1837 784 -1
1837 1418 -1
1837 1837 3
1838 95 -1
1838 148 -1
1838 282 -1
1838 1838 5
1839 636 -1
1839 1412 -1
1839 1683 -1
1839 1839 4
1840 13 -1
1840 94 -1
1840 466 -1
1840 1840 3
1841 3 -1
1841 132 -1
1841 1792 -1
1841 1841 3
1842 201 -1
1842 433 -1
1842 640 -1
1842 1842 3
1843 653 -1
1843 1094 -1
1843 1832 -1
1843 1843 5
1844 85 -1
1844 617 -1
1844 672 -1
1844 1844 7
1845 45 -1
1845 550 -1
1845 1417 -1
1845 1845 4
1846 6 -1
1846 7 -1
1846 1504 -1
1846 1846 4
1847 780 -1
1847 1530 -1
1847 1595 -1
1847 1847 5
1848 17 -1
1848 952 -1
1848 954 -1
1848 1848 5
1849 5 -1
1849 621 -1
1849 1659 -1
1849 1849 4
1850 126 -1
1850 1245 -1
1850 1573 -1
1850 1850 3
1851 16 -1
1851 481 -1
1851 716 -1
1851 1851 5
1852 8 -1
1852 294 -1
1852 1115 -1
1852 1852 4
1853 201 -1
1853 1176 -1
1853 1377 -1
1853 1853 4
1854 2 -1
1854 323 -1
1854 807 -1
1854 1854 5
1855 707 -1
1855 1405 -1
1855 1472 -1
1855 1855 5
1856 115 -1
1856 378 -1
1856 1573 -1
1856 1856 4
1857 1033 -1
1857 1324 -1
1857 1541 -1
1857 1857 3
1858 30 -1
1858 931 -1
1858 1256 -1
1858 1858 4
1859 1 -1
1859 78 -1
1859 568 -1
1859 1859 8
1860 24 -1
1860 35 -1
1860 75 -1
1860 1860 4
1861 80 -1
1861 1048 -1
1861 1474 -1
1861 1861 3
1862 8 -1
1862 605 -1
1862 631 -1
1862 1862 5
1863 19 -1
1863 341 -1
1863 653 -1
1863 1863 3
1864 15 -1
1864 30 -1
1864 1466 -1
1864 1864 6
1865 123 -1
1865 672 -1
1865 681 -1
1865 1865 5
1866 257 -1
1866 838 -1
1866 1843 -1
1866 1866 3
1867 5 -1
1867 211 -1
1867 937 -1
1867 1867 4
1868 7 -1
1868 86 -1
1868 123 -1
1868 1868 4
1869 80 -1
1869 600 -1
1869 1570 -1
1869 1869 8
1870 17 -1
1870 80 -1
1870 738 -1
1870 1870 3
1871 4 -1
1871 5 -1
1871 1366 -1
1871 1871 7
1872 164 -1
1872 664 -1
1872 728 -1
1872 1872 6
1873 557 -1
1873 568 -1
1873 629 -1
1873 1873 6
1874 87 -1
1874 386 -1
1874 685 -1
1874 1874 3
1875 4 -1
1875 94 -1
1875 429 -1
1875 1875 10
1876 5 -1
1876 169 -1
1876 1815 -1
1876 1876 6
1877 1 -1
1877 123 -1
1877 194 -1
1877 1877 4
1878 7 -1
1878 1320 -1
1878 1482 -1
1878 1878 4
1879 109 -1
1879 1017 -1
1879 1698 -1
1879 1879 3
1880 59 -1
1880 1101 -1
1880 1572 -1
1880 1880 6
1881 23 -1
1881 71 -1
1881 1399 -1
1881 1881 6
1882 5 -1
1882 23 -1
1882 96 -1
1882 1882 3
1883 35 -1
1883 151 -1
1883 1578 -1
1883 1883 7
1884 675 -1
1884 1159 -1
1884 1439 -1
1884 1884 5
1885 92 -1
1885 1313 -1
1885 1480 -1
1885 1885 3
1886 353 -1
1886 393 -1
1886 1482 -1
1886 1886 3
1887 108 -1
1887 332 -1
1887 1016 -1
1887 1887 5
1888 289 -1
1888 865 -1
1888 1196 -1
1888 1888 8
1889 26 -1
1889 35 -1
1889 393 -1
1889 1889 7
1890 127 -1
1890 562 -1
1890 1844 -1
1890 1890 3
1891 258 -1
1891 892 -1
1891 1590 -1
1891 1891 3
1892 7 -1
1892 35 -1
1892 236 -1
1892 1892 5
1893 27 -1
1893 721 -1
1893 1501 -1
1893 1893 3
1894 450 -1
1894 651 -1
1894 739 -1
1894 1894 4
1895 14 -1
1895 618 -1
1895 940 -1
1895 1895 3
1896 101 -1
1896 1161 -1
1896 1365 -1
1896 1896 3
1897 382 -1
1897 578 -1
1897 1020 -1
1897 1897 7
1898 767 -1
1898 1000 -1
1898 1097 -1
1898 1898 6
1899 42 -1
1899 109 -1
1899 1234 -1
1899 1899 3
1900 86 -1
1900 194 -1
1900 1576 -1
1900 1900 7
1901 187 -1
1901 276 -1
1901 297 -1
1901 1901 5
1902 76 -1
1902 151 -1
1902 647 -1
1902 1902 4
1903 17 -1
1903 47 -1
1903 280 -1
1903 1903 5
1904 30 -1
1904 149 -1
1904 1295 -1
1904 1904 4
1905 17 -1
1905 67 -1
1905 82 -1
1905 1905 5
1906 92 -1
1906 1173 -1
1906 1415 -1
1906 1906 4
1907 19 -1
1907 259 -1
1907 1332 -1
1907 1907 4
1908 182 -1
1908 628 -1
1908 1424 -1
1908 1908 5
1909 99 -1
1909 1091 -1
1909 1554 -1
1909 1909 5
1910 18 -1
1910 79 -1
1910 1889 -1
1910 1910 3
1911 167 -1
1911 168 -1
1911 231 -1
1911 1911 5
1912 7 -1
1912 266 -1
1912 1723 -1
1912 1912 3
1913 22 -1
1913 511 -1
1913 917 -1
1913 1913 6
1914 530 -1
1914 987 -1
1914 989 -1
1914 1914 3
1915 707 -1
1915 878 -1
1915 943 -1
1915 1915 4
1916 8 -1
1916 10 -1
1916 153 -1
1916 1916 4
1917 962 -1
1917 1657 -1
1917 1859 -1
1917 1917 4
1918 118 -1
1918 372 -1
1918 1576 -1
1918 1918 3
1919 162 -1
1919 1776 -1
1919 1778 -1
1919 1919 3
1920 58 -1
1920 480 -1
1920 973 -1
1920 1920 3
1921 640 -1
1921 891 -1
1921 1397 -1
1921 1921 4
1922 81 -1
1922 167 -1
1922 814 -1
1922 1922 4
1923 412 -1
1923 1044 -1
1923 1679 -1
1923 1923 4
1924 31 -1
1924 399 -1
1924 1728 -1
1924 1924 4
1925 461 -1
1925 568 -1
1925 757 -1
1925 1925 5
1926 185 -1
1926 1155 -1
1926 1727 -1
1926 1926 4
1927 198 -1
1927 619 -1
1927 1564 -1
1927 1927 3
1928 85 -1
1928 163 -1
1928 248 -1
1928 1928 4
1929 23 -1
1929 241 -1
1929 773 -1
1929 1929 8
1930 95 -1
1930 698 -1
1930 799 -1
1930 1930 5
1931 1 -1
1931 329 -1
1931 1083 -1
1931 1931 4
1932 744 -1
1932 995 -1
1932 1218 -1
1932 1932 5
1933 1233 -1
1933 1426 -1
1933 1606 -1
1933 1933 6
1934 327 -1
1934 452 -1
1934 460 -1
1934 1934 3
1935 7 -1
1935 17 -1
1935 644 -1
1935 1935 4
1936 434 -1
1936 1811 -1
1936 1859 -1
1936 1936 4
1937 61 -1
1937 222 -1
1937 459 -1
1937 1937 4
1938 5 -1
1938 239 -1
1938 264 -1
1938 1938 5
1939 47 -1
1939 198 -1
1939 1501 -1
1939 1939 4
1940 75 -1
1940 150 -1
1940 395 -1
1940 1940 4
1941 23 -1
1941 287 -1
1941 1434 -1
1941 1941 6
1942 182 -1
1942 720 -1
1942 1691 -1
1942 1942 3
1943 10 -1
1943 203 -1
1943 1068 -1
1943 1943 3
1944 114 -1
1944 679 -1
1944 848 -1
1944 1944 4
1945 779 -1
1945 988 -1
1945 1714 -1
1945 1945 4
1946 72 -1
1946 327 -1
1946 339 -1
1946 1946 5
1947 43 -1
1947 99 -1
1947 469 -1
1947 1947 5
1948 48 -1
1948 49 -1
1948 1815 -1
1948 1948 5
1949 5 -1
1949 1009 -1
1949 1279 -1
1949 1949 5
1950 747 -1
1950 1218 -1
1950 1501 -1
1950 1950 5
1951 372 -1
1951 1476 -1
1951 1908 -1
1951 1951 3
1952 31 -1
1952 592 -1
1952 1635 -1
1952 1952 4
1953 270 -1
1953 507 -1
1953 1250 -1
1953 1953 4
1954 63 -1
1954 800 -1
1954 1191 -1
1954 1954 3
1955 16 -1
1955 636 -1
1955 1461 -1
1955 1955 8
1956 1 -1
1956 114 -1
1956 849 -1
1956 1956 4
1957 248 -1
1957 531 -1
1957 1477 -1
1957 1957 6
1958 844 -1
1958 1002 -1
1958 1210 -1
1958 1958 5
1959 114 -1
1959 511 -1
1959 1129 -1
1959 1959 4
1960 1 -1
1960 32 -1
1960 832 -1
1960 1960 3
1961 115 -1
1961 261 -1
1961 1058 -1
1961 1961 3
1962 57 -1
1962 730 -1
1962 1301 -1
1962 1962 3
1963 5 -1
1963 26 -1
1963 442 -1
1963 1963 3
1964 28 -1
1964 117 -1
1964 1306 -1
1964 1964 5
1965 112 -1
1965 118 -1
1965 803 -1
1965 1965 5
1966 23 -1
1966 303 -1
1966 1500 -1
1966 1966 3
1967 143 -1
1967 453 -1
1967 518 -1
1967 1967 4
1968 1081 -1
1968 1197 -1
1968 1534 -1
1968 1968 4
1969 1 -1
1969 376 -1
1969 449 -1
1969 1969 6
1970 77 -1
1970 382 -1
1970 1767 -1
1970 1970 4
1971 35 -1
1971 335 -1
1971 611 -1
1971 1971 3
1972 419 -1
1972 1156 -1
1972 1711 -1
1972 1972 7
1973 280 -1
1973 1414 -1
1973 1898 -1
1973 1973 7
1974 26 -1
1974 686 -1
1974 1873 -1
1974 1974 4
1975 212 -1
1975 1456 -1
1975 1774 -1
1975 1975 4
1976 96 -1
1976 190 -1
1976 1131 -1
1976 1976 5
1977 57 -1
1977 186 -1
1977 794 -1
1977 1977 5
1978 280 -1
1978 369 -1
1978 1000 -1
1978 1978 3
1979 136 -1
1979 291 -1
1979 1690 -1
1979 1979 6
1980 54 -1
1980 1704 -1
1980 1916 -1
1980 1980 3
1981 56 -1
1981 516 -1
1981 879 -1
1981 1981 3
1982 7 -1
1982 139 -1
1982 1464 -1
1982 1982 4
1983 30 -1
1983 69 -1
1983 511 -1
1983 1983 5
1984 5 -1
1984 7 -1
1984 161 -1
1984 1984 3
1985 8 -1
1985 52 -1
1985 1956 -1
1985 1985 4
1986 7 -1
1986 30 -1
1986 639 -1
1986 1986 3
1987 2 -1
1987 129 -1
1987 1351 -1
1987 1987 3
1988 854 -1
1988 937 -1
1988 1151 -1
1988 1988 5
1989 57 -1
1989 1059 -1
1989 1364 -1
1989 1989 7
1990 90 -1
1990 905 -1
1990 1332 -1
1990 1990 4
1991 9 -1
1991 196 -1
1991 402 -1
1991 1991 4
1992 198 -1
1992 731 -1
1992 1075 -1
1992 1992 4
1993 267 -1
1993 499 -1
1993 1287 -1
1993 1993 3
1994 528 -1
1994 686 -1
1994 1045 -1
1994 1994 4
1995 5 -1
1995 242 -1
1995 1955 -1
1995 1995 3
1996 683 -1
1996 1054 -1
1996 1213 -1
1996 1996 4
1997 95 -1
1997 547 -1
1997 678 -1
1997 1997 7
1998 260 -1
1998 265 -1
1998 1232 -1
1998 1998 4
1999 2 -1
1999 418 -1
1999 1822 -1
1999 1999 5
2000 571 -1
2000 1066 -1
2000 1864 -1
2000 2000 6
2001 10 -1
2001 317 -1
2001 1330 -1
2001 2001 4
2002 55 -1
2002 1504 -1
2002 1992 -1
2002 2002 5
2003 337 -1
2003 496 -1
2003 695 -1
2003 2003 4
2004 819 -1
2004 1123 -1
2004 1747 -1
2004 2004 3
2005 21 -1
2005 451 -1
2005 546 -1
2005 2005 3
2006 24 -1
2006 598 -1
2006 1824 -1
2006 2006 3
2007 284 -1
2007 576 -1
2007 1189 -1
2007 2007 4
2008 4 -1
2008 90 -1
2008 332 -1
2008 2008 4
2009 330 -1
2009 757 -1
2009 1600 -1
2009 2009 3
2010 15 -1
2010 667 -1
2010 1084 -1
2010 2010 5
2011 118 -1
2011 1590 -1
2011 1844 -1
2011 2011 8
2012 1301 -1
2012 1499 -1
2012 1883 -1
2012 2012 4
2013 8 -1
2013 15 -1
2013 57 -1
2013 2013 3
2014 34 -1
2014 317 -1
2014 434 -1
2014 2014 5
2015 1 -1
2015 87 -1
2015 253 -1
2015 2015 3
2016 167 -1
2016 218 -1
2016 1130 -1
2016 2016 3
2017 103 -1
2017 974 -1
2017 1653 -1
2017 2017 6
2018 51 -1
2018 1468 -1
2018 1778 -1
2018 2018 5
2019 6 -1
2019 347 -1
2019 1106 -1
2019 2019 5
2020 256 -1
2020 868 -1
2020 1528 -1
2020 2020 4
2021 1 -1
2021 7 -1
2021 1201 -1
2021 2021 4
2022 9 -1
2022 24 -1
2022 530 -1
2022 2022 9
2023 393 -1
2023 777 -1
2023 1035 -1
2023 2023 4
2024 139 -1
2024 371 -1
2024 688 -1
2024 2024 6
2025 111 -1
2025 140 -1
2025 1933 -1
2025 2025 5
2026 808 -1
2026 1198 -1
2026 1530 -1
2026 2026 4
2027 19 -1
2027 61 -1
2027 1059 -1
2027 2027 4
2028 24 -1
2028 363 -1
2028 513 -1
2028 2028 5
2029 56 -1
2029 730 -1
2029 887 -1
2029 2029 4
2030 440 -1
2030 755 -1
2030 2003 -1
2030 2030 3
2031 5 -1
2031 441 -1
2031 1638 -1
2031 2031 4
2032 8 -1
2032 172 -1
2032 894 -1
2032 2032 5
2033 7 -1
2033 26 -1
2033 123 -1
2033 2033 4
2034 39 -1
2034 1243 -1
2034 1482 -1
2034 2034 3
2035 5 -1
2035 13 -1
2035 1385 -1
2035 2035 3
2036 401 -1
2036 510 -1
2036 576 -1
2036 2036 5
2037 1 -1
2037 522 -1
2037 1692 -1
2037 2037 5
2038 178 -1
2038 879 -1
2038 1697 -1
2038 2038 3
2039 176 -1
2039 1801 -1
2039 1972 -1
2039 2039 4
2040 408 -1
2040 946 -1
2040 1475 -1
2040 2040 5
2041 1289 -1
2041 1362 -1
2041 1869 -1
2041 2041 4
2042 424 -1
2042 618 -1
2042 1509 -1
2042 2042 5
2043 81 -1
2043 785 -1
2043 884 -1
2043 2043 3
2044 8 -1
2044 305 -1
2044 1063 -1
2044 2044 3
2045 266 -1
2045 1309 -1
2045 1432 -1
2045 2045 5
2046 123 -1
2046 179 -1
2046 250 -1
2046 2046 3
2047 27 -1
2047 491 -1
2047 555 -1
2047 2047 6
2048 8 -1
2048 171 -1
2048 525 -1
2048 2048 3
2049 38 -1
2049 90 -1
2049 273 -1
2049 2049 6
2050 98 -1
2050 888 -1
2050 1800 -1
2050 2050 3
2051 1341 -1
2051 1439 -1
2051 1707 -1
2051 2051 3
2052 702 -1
2052 1615 -1
2052 1778 -1
2052 2052 6
2053 25 -1
2053 606 -1
2053 616 -1
2053 2053 4
2054 28 -1
2054 197 -1
2054 1658 -1
2054 2054 4
2055 39 -1
2055 573 -1
2055 1794 -1
2055 2055 4
2056 6 -1
2056 24 -1
2056 1345 -1
2056 2056 4
2057 169 -1
2057 989 -1
2057 1748 -1
2057 2057 3
2058 1139 -1
2058 1243 -1
2058 1527 -1
2058 2058 4
2059 8 -1
2059 264 -1
2059 1011 -1
2059 2059 6
2060 729 -1
2060 1448 -1
2060 1688 -1
2060 2060 3
2061 11 -1
2061 35 -1
2061 330 -1
2061 2061 3
2062 216 -1
2062 593 -1
2062 833 -1
2062 2062 4
2063 6 -1
2063 158 -1
2063 1422 -1
2063 2063 4
2064 5 -1
2064 634 -1
2064 1455 -1
2064 2064 5
2065 148 -1
2065 159 -1
2065 367 -1
2065 2065 5
2066 317 -1
2066 1440 -1
2066 1797 -1
2066 2066 8
2067 492 -1
2067 1560 -1
2067 1711 -1
2067 2067 5
2068 814 -1
2068 1528 -1
2068 2049 -1
2068 2068 3
2069 100 -1
2069 1137 -1
2069 1869 -1
2069 2069 3
2070 312 -1
2070 412 -1
2070 1747 -1
2070 2070 4
2071 167 -1
2071 1256 -1
2071 1845 -1
2071 2071 4
2072 118 -1
2072 1167 -1
2072 1820 -1
2072 2072 6
2073 459 -1
2073 496 -1
2073 1505 -1
2073 2073 4
2074 680 -1
2074 925 -1
2074 1100 -1
2074 2074 5
2075 435 -1
2075 1461 -1
2075 1799 -1
2075 2075 3
2076 12 -1
2076 13 -1
2076 1213 -1
2076 2076 3
2077 146 -1
2077 864 -1
2077 890 -1
2077 2077 3
2078 324 -1
2078 451 -1
2078 1129 -1
2078 2078 3
2079 30 -1
2079 215 -1
2079 1179 -1
2079 2079 3
2080 36 -1
2080 871 -1
2080 1541 -1
2080 2080 5
2081 82 -1
2081 92 -1
2081 1493 -1
2081 2081 5
2082 522 -1
2082 697 -1
2082 1506 -1
2082 2082 3
2083 107 -1
2083 736 -1
2083 1225 -1
2083 2083 3
2084 2 -1
2084 5 -1
2084 98 -1
2084 2084 4
2085 48 -1
2085 780 -1
2085 1630 -1
2085 2085 5
2086 29 -1
2086 118 -1
2086 372 -1
2086 2086 5
2087 21 -1
2087 219 -1
2087 609 -1
2087 2087 3
2088 5 -1
2088 590 -1
2088 863 -1
2088 2088 4
2089 757 -1
2089 1016 -1
2089 1515 -1
2089 2089 4
2090 613 -1
2090 867 -1
2090 1316 -1
2090 2090 6
2091 13 -1
2091 198 -1
2091 1564 -1
2091 2091 5
2092 17 -1
2092 20 -1
2092 67 -1
2092 2092 3
2093 77 -1
2093 381 -1
2093 727 -1
2093 2093 4
2094 39 -1
2094 207 -1
2094 1593 -1
2094 2094 4
2095 219 -1
2095 302 -1
2095 703 -1
2095 2095 3
2096 254 -1
2096 1095 -1
2096 1561 -1
2096 2096 4
2097 330 -1
2097 597 -1
2097 1557 -1
2097 2097 3
2098 214 -1
2098 890 -1
2098 1979 -1
2098 2098 5
2099 13 -1
2099 313 -1
2099 1321 -1
2099 2099 3
2100 6 -1
2100 332 -1
2100 412 -1
2100 2100 6
2101 7 -1
2101 23 -1
2101 1757 -1
2101 2101 5
2102 10 -1
2102 485 -1
2102 1999 -1
2102 2102 7
2103 169 -1
2103 1045 -1
2103 1577 -1
2103 2103 3
2104 26 -1
2104 156 -1
2104 370 -1
2104 2104 9
2105 82 -1
2105 730 -1
2105 1189 -1
2105 2105 7
2106 163 -1
2106 1786 -1
2106 2045 -1
2106 2106 7
2107 5 -1
2107 1648 -1
2107 1734 -1
2107 2107 7
2108 151 -1
2108 961 -1
2108 1267 -1
2108 2108 4
2109 13 -1
2109 15 -1
2109 1435 -1
2109 2109 3
2110 8 -1
2110 875 -1
2110 1546 -1
2110 2110 3
2111 149 -1
2111 398 -1
2111 1375 -1
2111 2111 3
2112 96 -1
2112 606 -1
2112 1091 -1
2112 2112 5
2113 141 -1
2113 1832 -1
2113 2001 -1
2113 2113 4
2114 1076 -1
2114 1220 -1
2114 2059 -1
2114 2114 3
2115 411 -1
2115 439 -1
2115 1574 -1
2115 2115 3
2116 96 -1
2116 171 -1
2116 249 -1
2116 2116 4
2117 7 -1
2117 82 -1
2117 1080 -1
2117 2117 3
2118 31 -1
2118 364 -1
2118 921 -1
2118 2118 4
2119 5 -1
2119 301 -1
2119 1972 -1
2119 2119 3
2120 138 -1
2120 297 -1
2120 1500 -1
2120 2120 3
2121 165 -1
2121 534 -1
2121 720 -1
2121 2121 4
2122 16 -1
2122 82 -1
2122 1148 -1
2122 2122 3
2123 100 -1
2123 1909 -1
2123 2084 -1
2123 2123 6
2124 100 -1
2124 350 -1
2124 548 -1
2124 2124 3
2125 156 -1
2125 544 -1
2125 940 -1
2125 2125 5
2126 280 -1
2126 305 -1
2126 393 -1
2126 2126 3
2127 168 -1
2127 488 -1
2127 2012 -1
2127 2127 8
2128 230 -1
2128 665 -1
2128 1435 -1
2128 2128 4
2129 199 -1
2129 657 -1
2129 940 -1
2129 2129 4
2130 26 -1
2130 476 -1
2130 1873 -1
2130 2130 4
2131 139 -1
2131 248 -1
2131 1576 -1
2131 2131 4
2132 148 -1
2132 895 -1
2132 1160 -1
2132 2132 3
2133 33 -1
2133 273 -1
2133 424 -1
2133 2133 7
2134 879 -1
2134 944 -1
2134 1625 -1
2134 2134 3
2135 2 -1
2135 1793 -1
2135 2105 -1
2135 2135 8
2136 376 -1
2136 453 -1
2136 958 -1
2136 2136 3
2137 1211 -1
2137 1686 -1
2137 1705 -1
2137 2137 5
2138 47 -1
2138 126 -1
2138 1206 -1
2138 2138 5
2139 5 -1
2139 94 -1
2139 641 -1
2139 2139 7
2140 429 -1
2140 1024 -1
2140 1505 -1
2140 2140 6
2141 11 -1
2141 310 -1
2141 499 -1
2141 2141 3
2142 152 -1
2142 667 -1
2142 2023 -1
2142 2142 3
2143 76 -1
2143 789 -1
2143 1699 -1
2143 2143 4
2144 41 -1
2144 484 -1
2144 1898 -1
2144 2144 4
2145 157 -1
2145 307 -1
2145 1232 -1
2145 2145 6
2146 26 -1
2146 234 -1
2146 1290 -1
2146 2146 3
2147 17 -1
2147 574 -1
2147 2024 -1
2147 2147 4
2148 560 -1
2148 582 -1
2148 1425 -1
2148 2148 5
2149 78 -1
2149 1432 -1
2149 2052 -1
2149 2149 3
2150 1022 -1
2150 1322 -1
2150 1502 -1
2150 2150 3
2151 76 -1
2151 389 -1
2151 678 -1
2151 2151 4
2152 1 -1
2152 266 -1
2152 1828 -1
2152 2152 5
2153 448 -1
2153 1595 -1
2153 1815 -1
2153 2153 7
2154 122 -1
2154 701 -1
2154 1442 -1
2154 2154 5
2155 20 -1
2155 330 -1
2155 779 -1
2155 2155 3
2156 8 -1
2156 27 -1
2156 1905 -1
2156 2156 5
2157 148 -1
2157 744 -1
2157 1273 -1
2157 2157 5
2158 26 -1
2158 185 -1
2158 1791 -1
2158 2158 4
2159 571 -1
2159 707 -1
2159 744 -1
2159 2159 7
2160 987 -1
2160 1160 -1
2160 1806 -1
2160 2160 4
2161 34 -1
2161 298 -1
2161 802 -1
2161 2161 5
2162 50 -1
2162 68 -1
2162 96 -1
2162 2162 5
2163 1043 -1
2163 1392 -1
2163 1941 -1
2163 2163 4
2164 114 -1
2164 275 -1
2164 280 -1
2164 2164 3
2165 239 -1
2165 575 -1
2165 1455 -1
2165 2165 3
2166 9 -1
2166 34 -1
2166 809 -1
2166 2166 3
2167 571 -1
2167 1254 -1
2167 1949 -1
2167 2167 4
2168 62 -1
2168 112 -1
2168 679 -1
2168 2168 6
2169 836 -1
2169 914 -1
2169 1449 -1
2169 2169 4
2170 43 -1
2170 1341 -1
2170 2036 -1
2170 2170 3
2171 1 -1
2171 432 -1
2171 950 -1
2171 2171 4
2172 292 -1
2172 964 -1
2172 1872 -1
2172 2172 3
2173 648 -1
2173 829 -1
2173 1403 -1
2173 2173 4
2174 11 -1
2174 92 -1
2174 1372 -1
2174 2174 5
2175 234 -1
2175 707 -1
2175 1712 -1
2175 2175 5
2176 7 -1
2176 9 -1
2176 818 -1
2176 2176 3
2177 287 -1
2177 339 -1
2177 619 -1
2177 2177 3
2178 378 -1
2178 1076 -1
2178 1797 -1
2178 2178 6
2179 243 -1
2179 547 -1
2179 1047 -1
2179 2179 6
2180 798 -1
2180 1425 -1
2180 1472 -1
2180 2180 3
2181 420 -1
2181 443 -1
2181 1878 -1
2181 2181 3
2182 200 -1
2182 1143 -1
2182 1271 -1
2182 2182 4
2183 346 -1
2183 753 -1
2183 1168 -1
2183 2183 4
2184 329 -1
2184 445 -1
2184 1230 -1
2184 2184 4
2185 363 -1
2185 568 -1
2185 1484 -1
2185 2185 4
2186 72 -1
2186 1590 -1
2186 1785 -1
2186 2186 5
2187 282 -1
2187 432 -1
2187 1871 -1
2187 2187 4
2188 153 -1
2188 675 -1
2188 847 -1
2188 2188 4
2189 8 -1
2189 23 -1
2189 174 -1
2189 2189 4
2190 26 -1
2190 343 -1
2190 2106 -1
2190 2190 4
2191 435 -1
2191 1028 -1
2191 1795 -1
2191 2191 4
2192 19 -1
2192 870 -1
2192 1525 -1
2192 2192 3
2193 229 -1
2193 942 -1
2193 1968 -1
2193 2193 4
2194 318 -1
2194 506 -1
2194 544 -1
2194 2194 5
2195 84 -1
2195 1364 -1
2195 1593 -1
2195 2195 4
2196 12 -1
2196 1126 -1
2196 1134 -1
2196 2196 3
2197 200 -1
2197 946 -1
2197 1213 -1
2197 2197 6
2198 369 -1
2198 751 -1
2198 1528 -1
2198 2198 3
2199 335 -1
2199 418 -1
2199 1576 -1
2199 2199 5
2200 7 -1
2200 24 -1
2200 295 -1
2200 2200 4
2201 75 -1
2201 669 -1
2201 2085 -1
2201 2201 4
2202 732 -1
2202 1657 -1
2202 1688 -1
2202 2202 4
2203 7 -1
2203 185 -1
2203 634 -1
2203 2203 4
2204 310 -1
2204 634 -1
2204 1515 -1
2204 2204 4
2205 5 -1
2205 43 -1
2205 1880 -1
2205 2205 3
2206 100 -1
2206 424 -1
2206 1578 -1
2206 2206 4
2207 51 -1
2207 104 -1
2207 1375 -1
2207 2207 4
2208 383 -1
2208 1131 -1
2208 1815 -1
2208 2208 7
2209 17 -1
2209 390 -1
2209 1777 -1
2209 2209 5
2210 946 -1
2210 1297 -1
2210 1345 -1
2210 2210 3
2211 124 -1
2211 379 -1
2211 531 -1
2211 2211 5
2212 19 -1
2212 621 -1
2212 1119 -1
2212 2212 6
2213 44 -1
2213 740 -1
2213 2091 -1
2213 2213 4
2214 441 -1
2214 611 -1
2214 1131 -1
2214 2214 3
2215 459 -1
2215 535 -1
2215 557 -1
2215 2215 3
2216 184 -1
2216 487 -1
2216 562 -1
2216 2216 3
2217 1203 -1
2217 1341 -1
2217 1688 -1
2217 2217 6
2218 23 -1
2218 85 -1
2218 814 -1
2218 2218 3
2219 677 -1
2219 1109 -1
2219 1171 -1
2219 2219 5
2220 30 -1
2220 1108 -1
2220 2123 -1
2220 2220 5
2221 1042 -1
2221 1970 -1
2221 2011 -1
2221 2221 3
2222 23 -1
2222 255 -1
2222 1673 -1
2222 2222 4
2223 487 -1
2223 1565 -1
2223 1638 -1
2223 2223 4
2224 112 -1
2224 317 -1
2224 370 -1
2224 2224 4
2225 57 -1
2225 1926 -1
2225 2152 -1
2225 2225 4
2226 302 -1
2226 350 -1
2226 1425 -1
2226 2226 6
2227 119 -1
2227 674 -1
2227 1251 -1
2227 2227 3
2228 5 -1
2228 246 -1
2228 1472 -1
2228 2228 3
2229 45 -1
2229 1526 -1
2229 2011 -1
2229 2229 4
2230 93 -1
2230 727 -1
2230 1061 -1
2230 2230 3
2231 138 -1
2231 408 -1
2231 1173 -1
2231 2231 3
2232 9 -1
2232 294 -1
2232 1090 -1
2232 2232 3
2233 784 -1
2233 835 -1
2233 2116 -1
2233 2233 3
2234 458 -1
2234 1157 -1
2234 1263 -1
2234 2234 3
2235 30 -1
2235 152 -1
2235 807 -1
2235 2235 4
2236 72 -1
2236 289 -1
2236 1415 -1
2236 2236 6
2237 319 -1
2237 581 -1
2237 1269 -1
2237 2237 4
2238 186 -1
2238 250 -1
2238 809 -1
2238 2238 3
2239 194 -1
2239 476 -1
2239 494 -1
2239 2239 3
2240 1425 -1
2240 1602 -1
2240 1904 -1
2240 2240 3
2241 207 -1
2241 455 -1
2241 1062 -1
2241 2241 4
2242 5 -1
2242 9 -1
2242 215 -1
2242 2242 5
2243 7 -1
2243 1242 -1
2243 1615 -1
2243 2243 6
2244 31 -1
2244 1245 -1
2244 1949 -1
2244 2244 5
2245 7 -1
2245 686 -1
2245 888 -1
2245 2245 3
2246 121 -1
2246 1892 -1
2246 1946 -1
2246 2246 3
2247 451 -1
2247 1965 -1
2247 2178 -1
2247 2247 5
2248 8 -1
2248 220 -1
2248 598 -1
2248 2248 5
2249 26 -1
2249 315 -1
2249 744 -1
2249 2249 3
2250 1 -1
2250 236 -1
2250 1502 -1
2250 2250 3
2251 7 -1
2251 8 -1
2251 1052 -1
2251 2251 5
2252 114 -1
2252 482 -1
2252 1988 -1
2252 2252 3
2253 112 -1
2253 440 -1
2253 602 -1
2253 2253 4
2254 123 -1
2254 581 -1
2254 1506 -1
2254 2254 3
2255 260 -1
2255 470 -1
2255 2101 -1
2255 2255 3
2256 117 -1
2256 413 -1
2256 1804 -1
2256 2256 3
2257 7 -1
2257 398 -1
2257 446 -1
2257 2257 3
2258 13 -1
2258 48 -1
2258 156 -1
2258 2258 4
2259 5 -1
2259 326 -1
2259 1149 -1
2259 2259 4
2260 1222 -1
2260 1997 -1
2260 2102 -1
2260 2260 5
2261 383 -1
2261 792 -1
2261 1714 -1
2261 2261 4
2262 7 -1
2262 83 -1
2262 557 -1
2262 2262 3
2263 13 -1
2263 817 -1
2263 1593 -1
2263 2263 3
2264 4 -1
2264 57 -1
2264 200 -1
2264 2264 4
2265 618 -1
2265 1362 -1
2265 1365 -1
2265 2265 3
2266 19 -1
2266 1343 -1
2266 2208 -1
2266 2266 4
2267 205 -1
2267 264 -1
2267 653 -1
2267 2267 5
2268 203 -1
2268 1611 -1
2268 1804 -1
2268 2268 4
2269 18 -1
2269 1123 -1
2269 1210 -1
2269 2269 4
2270 220 -1
2270 1642 -1
2270 1645 -1
2270 2270 5
2271 21 -1
2271 55 -1
2271 1498 -1
2271 2271 3
2272 176 -1
2272 684 -1
2272 1720 -1
2272 2272 3
2273 7 -1
2273 575 -1
2273 1615 -1
2273 2273 4
2274 137 -1
2274 508 -1
2274 570 -1
2274 2274 5
2275 34 -1
2275 408 -1
2275 1787 -1
2275 2275 4
2276 15 -1
2276 400 -1
2276 956 -1
2276 2276 3
2277 92 -1
2277 1582 -1
2277 1680 -1
2277 2277 3
2278 6 -1
2278 650 -1
2278 818 -1
2278 2278 6
2279 5 -1
2279 56 -1
2279 137 -1
2279 2279 3
2280 444 -1
2280 490 -1
2280 1142 -1
2280 2280 10
2281 780 -1
2281 1672 -1
2281 1683 -1
2281 2281 3
2282 236 -1
2282 707 -1
2282 1808 -1
2282 2282 3
2283 1566 -1
2283 1628 -1
2283 2153 -1
2283 2283 3
2284 383 -1
2284 1000 -1
2284 1424 -1
2284 2284 4
2285 987 -1
2285 1584 -1
2285 1800 -1
2285 2285 5
2286 101 -1
2286 253 -1
2286 2102 -1
2286 2286 6
2287 140 -1
2287 568 -1
2287 885 -1
2287 2287 4
2288 188 -1
2288 1038 -1
2288 2243 -1
2288 2288 5
2289 233 -1
2289 435 -1
2289 1170 -1
2289 2289 3
2290 106 -1
2290 803 -1
2290 1289 -1
2290 2290 4
2291 107 -1
2291 192 -1
2291 1900 -1
2291 2291 3
2292 170 -1
2292 430 -1
2292 902 -1
2292 2292 3
2293 74 -1
2293 1133 -1
2293 1436 -1
2293 2293 4
2294 46 -1
2294 149 -1
2294 574 -1
2294 2294 3
2295 42 -1
2295 140 -1
2295 162 -1
2295 2295 3
2296 15 -1
2296 1721 -1
2296 1996 -1
2296 2296 3
2297 56 -1
2297 879 -1
2297 1324 -1
2297 2297 4
2298 27 -1
2298 31 -1
2298 1439 -1
2298 2298 3
2299 244 -1
2299 460 -1
2299 666 -1
2299 2299 4
2300 163 -1
2300 236 -1
2300 1666 -1
2300 2300 4
2301 1438 -1
2301 1574 -1
2301 1705 -1
2301 2301 3
2302 116 -1
2302 357 -1
2302 400 -1
2302 2302 6
2303 350 -1
2303 926 -1
2303 1189 -1
2303 2303 7
2304 5 -1
2304 242 -1
2304 1314 -1
2304 2304 3
2305 109 -1
2305 946 -1
2305 1348 -1
2305 2305 3
2306 256 -1
2306 1139 -1
2306 1938 -1
2306 2306 5
2307 6 -1
2307 139 -1
2307 532 -1
2307 2307 4
2308 7 -1
2308 23 -1
2308 326 -1
2308 2308 7
2309 35 -1
2309 1711 -1
2309 2179 -1
2309 2309 3
2310 409 -1
2310 432 -1
2310 2017 -1
2310 2310 4
2311 292 -1
2311 579 -1
2311 1134 -1
2311 2311 4
2312 12 -1
2312 111 -1
2312 958 -1
2312 2312 5
2313 4 -1
2313 43 -1
2313 1744 -1
2313 2313 7
2314 34 -1
2314 568 -1
2314 583 -1
2314 2314 4
2315 21 -1
2315 73 -1
2315 1196 -1
2315 2315 4
2316 19 -1
2316 698 -1
2316 2161 -1
2316 2316 3
2317 655 -1
2317 823 -1
2317 1387 -1
2317 2317 7
2318 888 -1
2318 1505 -1
2318 2098 -1
2318 2318 7
2319 20 -1
2319 314 -1
2319 1876 -1
2319 2319 8
2320 5 -1
2320 281 -1
2320 814 -1
2320 2320 4
2321 139 -1
2321 168 -1
2321 1557 -1
2321 2321 3
2322 83 -1
2322 483 -1
2322 956 -1
2322 2322 3
2323 533 -1
2323 906 -1
2323 2280 -1
2323 2323 3
2324 13 -1
2324 926 -1
2324 1261 -1
2324 2324 5
2325 89 -1
2325 443 -1
2325 1299 -1
2325 2325 3
2326 374 -1
2326 690 -1
2326 1318 -1
2326 2326 4
2327 255 -1
2327 1261 -1
2327 1716 -1
2327 2327 3
2328 35 -1
2328 739 -1
2328 1266 -1
2328 2328 6
2329 327 -1
2329 1251 -1
2329 2144 -1
2329 2329 5
2330 156 -1
2330 1424 -1
2330 2031 -1
2330 2330 5
2331 199 -1
2331 1426 -1
2331 1546 -1
2331 2331 5
2332 865 -1
2332 1855 -1
2332 1983 -1
2332 2332 4
2333 1 -1
2333 137 -1
2333 769 -1
2333 2333 3
2334 572 -1
2334 1580 -1
2334 1875 -1
2334 2334 3
2335 619 -1
2335 909 -1
2335 1871 -1
2335 2335 3
2336 184 -1
2336 411 -1
2336 969 -1
2336 2336 8
2337 9 -1
2337 769 -1
2337 2299 -1
2337 2337 3
2338 138 -1
2338 1028 -1
2338 1714 -1
2338 2338 4
2339 5 -1
2339 162 -1
2339 1462 -1
2339 2339 4
2340 515 -1
2340 1067 -1
2340 1657 -1
2340 2340 5
2341 60 -1
2341 243 -1
2341 429 -1
2341 2341 3
2342 6 -1
2342 845 -1
2342 1929 -1
2342 2342 4
2343 16 -1
2343 720 -1
2343 862 -1
2343 2343 3
2344 201 -1
2344 290 -1
2344 464 -1
2344 2344 4
2345 87 -1
2345 652 -1
2345 1018 -1
2345 2345 5
2346 31 -1
2346 138 -1
2346 2268 -1
2346 2346 6
2347 451 -1
2347 829 -1
2347 1437 -1
2347 2347 5
2348 133 -1
2348 481 -1
2348 1025 -1
2348 2348 3
2349 10 -1
2349 2024 -1
2349 2127 -1
2349 2349 4
2350 256 -1
2350 555 -1
2350 1215 -1
2350 2350 5
2351 9 -1
2351 1385 -1
2351 2185 -1
2351 2351 3
2352 135 -1
2352 424 -1
2352 1321 -1
2352 2352 5
2353 62 -1
2353 932 -1
2353 1139 -1
2353 2353 3
2354 422 -1
2354 1433 -1
2354 1747 -1
2354 2354 5
2355 259 -1
2355 897 -1
2355 2121 -1
2355 2355 10
2356 166 -1
2356 730 -1
2356 2248 -1
2356 2356 4
2357 8 -1
2357 93 -1
2357 1851 -1
2357 2357 5
2358 103 -1
2358 547 -1
2358 1982 -1
2358 2358 3
2359 511 -1
2359 807 -1
2359 1952 -1
2359 2359 5
2360 4 -1
2360 71 -1
2360 157 -1
2360 2360 3
2361 30 -1
2361 59 -1
2361 99 -1
2361 2361 3
2362 241 -1
2362 1626 -1
2362 2319 -1
2362 2362 3
2363 129 -1
2363 281 -1
2363 1278 -1
2363 2363 4
2364 254 -1
2364 285 -1
2364 1425 -1
2364 2364 3
2365 270 -1
2365 737 -1
2365 2039 -1
2365 2365 3
2366 8 -1
2366 498 -1
2366 1461 -1
2366 2366 3
2367 74 -1
2367 425 -1
2367 438 -1
2367 2367 4
2368 391 -1
2368 529 -1
2368 551 -1
2368 2368 3
2369 5 -1
2369 408 -1
2369 786 -1
2369 2369 3
2370 742 -1
2370 1076 -1
2370 1208 -1
2370 2370 3
2371 7 -1
2371 748 -1
2371 1836 -1
2371 2371 3
2372 214 -1
2372 282 -1
2372 411 -1
2372 2372 5
2373 45 -1
2373 316 -1
2373 806 -1
2373 2373 4
2374 283 -1
2374 883 -1
2374 1407 -1
2374 2374 5
2375 42 -1
2375 78 -1
2375 960 -1
2375 2375 4
2376 10 -1
2376 73 -1
2376 873 -1
2376 2376 3
2377 198 -1
2377 390 -1
2377 1576 -1
2377 2377 3
2378 672 -1
2378 777 -1
2378 1571 -1
2378 2378 3
2379 11 -1
2379 198 -1
2379 471 -1
2379 2379 3
2380 928 -1
2380 1009 -1
2380 1678 -1
2380 2380 4
2381 5 -1
2381 117 -1
2381 142 -1
2381 2381 4
2382 39 -1
2382 59 -1
2382 1848 -1
2382 2382 3
2383 19 -1
2383 141 -1
2383 488 -1
2383 2383 5
2384 74 -1
2384 150 -1
2384 1168 -1
2384 2384 3
2385 85 -1
2385 492 -1
2385 888 -1
2385 2385 6
2386 1622 -1
2386 1631 -1
2386 1722 -1
2386 2386 4
2387 885 -1
2387 1888 -1
2387 1913 -1
2387 2387 3
2388 78 -1
2388 163 -1
2388 1686 -1
2388 2388 3
2389 289 -1
2389 312 -1
2389 737 -1
2389 2389 3
2390 9 -1
2390 1950 -1
2390 2074 -1
2390 2390 4
2391 1460 -1
2391 1835 -1
2391 2213 -1
2391 2391 3
2392 152 -1
2392 198 -1
2392 2067 -1
2392 2392 4
2393 363 -1
2393 1275 -1
2393 1424 -1
2393 2393 3
2394 257 -1
2394 2194 -1
2394 2223 -1
2394 2394 5
2395 269 -1
2395 1282 -1
2395 1911 -1
2395 2395 3
2396 329 -1
2396 629 -1
2396 851 -1
2396 2396 4
2397 330 -1
2397 1068 -1
2397 1763 -1
2397 2397 3
2398 636 -1
2398 1274 -1
2398 1288 -1
2398 2398 4
2399 114 -1
2399 170 -1
2399 897 -1
2399 2399 6
2400 8 -1
2400 708 -1
2400 1688 -1
2400 2400 4
2401 504 -1
2401 989 -1
2401 1074 -1
2401 2401 3
2402 224 -1
2402 696 -1
2402 2157 -1
2402 2402 3
2403 890 -1
2403 1241 -1
2403 2354 -1
2403 2403 3
2404 75 -1
2404 86 -1
2404 167 -1
2404 2404 3
2405 86 -1
2405 963 -1
2405 1301 -1
2405 2405 4
2406 34 -1
2406 239 -1
2406 2313 -1
2406 2406 4
2407 306 -1
2407 774 -1
2407 2100 -1
2407 2407 3
2408 269 -1
2408 955 -1
2408 1654 -1
2408 2408 3
2409 11 -1
2409 37 -1
2409 351 -1
2409 2409 3
2410 72 -1
2410 800 -1
2410 1111 -1
2410 2410 5
2411 28 -1
2411 893 -1
2411 2179 -1
2411 2411 4
2412 43 -1
2412 197 -1
2412 1522 -1
2412 2412 3
2413 828 -1
2413 1458 -1
2413 2167 -1
2413 2413 3
2414 431 -1
2414 1262 -1
2414 1616 -1
2414 2414 4
2415 7 -1
2415 1132 -1
2415 1598 -1
2415 2415 3
2416 14 -1
2416 423 -1
2416 574 -1
2416 2416 3
2417 16 -1
2417 21 -1
2417 47 -1
2417 2417 5
2418 447 -1
2418 572 -1
2418 2226 -1
2418 2418 5
2419 109 -1
2419 116 -1
2419 1617 -1
2419 2419 4
2420 1192 -1
2420 1552 -1
2420 2145 -1
2420 2420 5
2421 685 -1
2421 1490 -1
2421 2153 -1
2421 2421 3
2422 42 -1
2422 476 -1
2422 648 -1
2422 2422 3
2423 216 -1
2423 696 -1
2423 1680 -1
2423 2423 4
2424 1571 -1
2424 1947 -1
2424 2022 -1
2424 2424 3
2425 7 -1
2425 1332 -1
2425 2288 -1
2425 2425 5
2426 371 -1
2426 777 -1
2426 1631 -1
2426 2426 4
2427 270 -1
2427 613 -1
2427 1519 -1
2427 2427 3
2428 49 -1
2428 1219 -1
2428 2248 -1
2428 2428 6
2429 99 -1
2429 100 -1
2429 770 -1
2429 2429 3
2430 300 -1
2430 1637 -1
2430 1875 -1
2430 2430 6
2431 875 -1
2431 1632 -1
2431 2226 -1
2431 2431 5
2432 441 -1
2432 1038 -1
2432 2242 -1
2432 2432 3
2433 548 -1
2433 1353 -1
2433 1806 -1
2433 2433 4
2434 92 -1
2434 171 -1
2434 307 -1
2434 2434 5
2435 30 -1
2435 304 -1
2435 2426 -1
2435 2435 6
2436 409 -1
2436 1589 -1
2436 2065 -1
2436 2436 5
2437 2 -1
2437 167 -1
2437 535 -1
2437 2437 3
2438 6 -1
2438 404 -1
2438 1808 -1
2438 2438 3
2439 799 -1
2439 1240 -1
2439 1454 -1
2439 2439 5
2440 82 -1
2440 1068 -1
2440 1684 -1
2440 2440 6
2441 282 -1
2441 497 -1
2441 565 -1
2441 2441 3
2442 868 -1
2442 1864 -1
2442 2399 -1
2442 2442 3
2443 101 -1
2443 648 -1
2443 1403 -1
2443 2443 4
2444 835 -1
2444 953 -1
2444 1859 -1
2444 2444 3
2445 42 -1
2445 247 -1
2445 1306 -1
2445 2445 3
2446 5 -1
2446 763 -1
2446 1673 -1
2446 2446 3
2447 1107 -1
2447 1397 -1
2447 2318 -1
2447 2447 3
2448 11 -1
2448 411 -1
2448 2331 -1
2448 2448 3
2449 96 -1
2449 384 -1
2449 1502 -1
2449 2449 3
2450 2 -1
2450 99 -1
2450 1924 -1
2450 2450 4
2451 7 -1
2451 52 -1
2451 984 -1
2451 2451 7
2452 303 -1
2452 774 -1
2452 2355 -1
2452 2452 3
2453 9 -1
2453 259 -1
2453 2367 -1
2453 2453 3
2454 1182 -1
2454 1615 -1
2454 1921 -1
2454 2454 4
2455 872 -1
2455 1080 -1
2455 1403 -1
2455 2455 4
2456 77 -1
2456 1112 -1
2456 1947 -1
2456 2456 4
2457 168 -1
2457 1045 -1
2457 1492 -1
2457 2457 3
2458 52 -1
2458 477 -1
2458 580 -1
2458 2458 4
2459 383 -1
2459 517 -1
2459 1300 -1
2459 2459 3
2460 549 -1
2460 1520 -1
2460 2306 -1
2460 2460 3
2461 403 -1
2461 987 -1
2461 2297 -1
2461 2461 3
2462 253 -1
2462 791 -1
2462 1913 -1
2462 2462 3
2463 346 -1
2463 370 -1
2463 1833 -1
2463 2463 3
2464 35 -1
2464 199 -1
2464 1774 -1
2464 2464 3
2465 46 -1
2465 366 -1
2465 1973 -1
2465 2465 3
2466 420 -1
2466 1192 -1
2466 1800 -1
2466 2466 6
2467 4 -1
2467 374 -1
2467 1196 -1
2467 2467 4
2468 378 -1
2468 1757 -1
2468 2204 -1
2468 2468 3
2469 121 -1
2469 1139 -1
2469 2352 -1
2469 2469 5
2470 26 -1
2470 953 -1
2470 1902 -1
2470 2470 4
2471 48 -1
2471 590 -1
2471 1705 -1
2471 2471 3
2472 306 -1
2472 494 -1
2472 1244 -1
2472 2472 4
2473 200 -1
2473 1001 -1
2473 1615 -1
2473 2473 3
2474 626 -1
2474 1054 -1
2474 1232 -1
2474 2474 6
2475 8 -1
2475 78 -1
2475 1163 -1
2475 2475 3
2476 21 -1
2476 82 -1
2476 1654 -1
2476 2476 4
2477 19 -1
2477 787 -1
2477 1999 -1
2477 2477 3
2478 103 -1
2478 378 -1
2478 1948 -1
2478 2478 7
2479 444 -1
2479 599 -1
2479 1125 -1
2479 2479 3
2480 68 -1
2480 99 -1
2480 1577 -1
2480 2480 3
2481 103 -1
2481 1323 -1
2481 1400 -1
2481 2481 4
2482 194 -1
2482 568 -1
2482 1928 -1
2482 2482 3
2483 1318 -1
2483 1588 -1
2483 1889 -1
2483 2483 5
2484 222 -1
2484 391 -1
2484 1997 -1
2484 2484 3
2485 416 -1
2485 2000 -1
2485 2350 -1
2485 2485 3
2486 5 -1
2486 2053 -1
2486 2130 -1
2486 2486 4
2487 217 -1
2487 1273 -1
2487 1415 -1
2487 2487 3
2488 171 -1
2488 1058 -1
2488 1669 -1
2488 2488 4
2489 245 -1
2489 321 -1
2489 673 -1
2489 2489 3
2490 439 -1
2490 887 -1
2490 1173 -1
2490 2490 3
2491 5 -1
2491 609 -1
2491 1871 -1
2491 2491 3
2492 256 -1
2492 722 -1
2492 1168 -1
2492 2492 5
2493 618 -1
2493 737 -1
2493 1586 -1
2493 2493 4
2494 27 -1
2494 48 -1
2494 162 -1
2494 2494 4
2495 31 -1
2495 1464 -1
2495 2129 -1
2495 2495 3
2496 71 -1
2496 1243 -1
2496 1403 -1
2496 2496 3
2497 5 -1
2497 57 -1
2497 378 -1
2497 2497 3
2498 414 -1
2498 1153 -1
2498 2007 -1
2498 2498 3
2499 808 -1
2499 967 -1
2499 2183 -1
2499 2499 4
2500 7 -1
2500 793 -1
2500 1901 -1
2500 2500 4
2501 719 -1
2501 888 -1
2501 1635 -1
2501 2501 3
2502 5 -1
2502 57 -1
2502 2147 -1
2502 2502 4
2503 171 -1
2503 535 -1
2503 871 -1
2503 2503 5
2504 198 -1
2504 465 -1
2504 1582 -1
2504 2504 4
2505 31 -1
2505 140 -1
2505 144 -1
2505 2505 4
2506 800 -1
2506 2017 -1
2506 2212 -1
2506 2506 3
2507 78 -1
2507 699 -1
2507 1708 -1
2507 2507 3
2508 147 -1
2508 282 -1
2508 1327 -1
2508 2508 3
2509 213 -1
2509 1251 -1
2509 1384 -1
2509 2509 5
2510 349 -1
2510 762 -1
2510 1898 -1
2510 2510 6
2511 365 -1
2511 554 -1
2511 1685 -1
2511 2511 3
2512 705 -1
2512 755 -1
2512 2346 -1
2512 2512 4
2513 42 -1
2513 308 -1
2513 2028 -1
2513 2513 3
2514 321 -1
2514 480 -1
2514 1652 -1
2514 2514 3
2515 416 -1
2515 1619 -1
2515 2021 -1
2515 2515 3
2516 1013 -1
2516 1223 -1
2516 1803 -1
2516 2516 3
2517 95 -1
2517 482 -1
2517 2209 -1
2517 2517 3
2518 648 -1
2518 1917 -1
2518 2140 -1
2518 2518 4
2519 135 -1
2519 497 -1
2519 2186 -1
2519 2519 4
2520 23 -1
2520 1300 -1
2520 2357 -1
2520 2520 3
2521 60 -1
2521 162 -1
2521 209 -1
2521 2521 4
2522 7 -1
2522 424 -1
2522 2247 -1
2522 2522 4
2523 885 -1
2523 1900 -1
2523 2059 -1
2523 2523 8
2524 4 -1
2524 1131 -1
2524 2107 -1
2524 2524 3
2525 13 -1
2525 653 -1
2525 1205 -1
2525 2525 3
2526 7 -1
2526 460 -1
2526 997 -1
2526 2526 4
2527 579 -1
2527 757 -1
2527 1581 -1
2527 2527 4
2528 29 -1
2528 150 -1
2528 2302 -1
2528 2528 3
2529 725 -1
2529 1757 -1
2529 2066 -1
2529 2529 4
2530 137 -1
2530 320 -1
2530 2241 -1
2530 2530 5
2531 461 -1
2531 787 -1
2531 1092 -1
2531 2531 5
2532 826 -1
2532 950 -1
2532 1304 -1
2532 2532 5
2533 1869 -1
2533 2058 -1
2533 2522 -1
2533 2533 3
2534 99 -1
2534 277 -1
2534 607 -1
2534 2534 4
2535 65 -1
2535 80 -1
2535 1930 -1
2535 2535 4
2536 26 -1
2536 343 -1
2536 1299 -1
2536 2536 4
2537 407 -1
2537 928 -1
2537 953 -1
2537 2537 4
2538 14 -1
2538 792 -1
2538 2535 -1
2538 2538 4
2539 65 -1
2539 420 -1
2539 1229 -1
2539 2539 6
2540 19 -1
2540 1451 -1
2540 1856 -1
2540 2540 3
2541 26 -1
2541 269 -1
2541 1868 -1
2541 2541 5
2542 1454 -1
2542 1744 -1
2542 2509 -1
2542 2542 4
2543 9 -1
2543 116 -1
2543 1711 -1
2543 2543 3
2544 234 -1
2544 1784 -1
2544 2510 -1
2544 2544 4
2545 304 -1
2545 918 -1
2545 2347 -1
2545 2545 3
2546 2 -1
2546 93 -1
2546 2194 -1
2546 2546 3
2547 20 -1
2547 32 -1
2547 1790 -1
2547 2547 3
2548 35 -1
2548 1105 -1
2548 1568 -1
2548 2548 3
2549 1574 -1
2549 1847 -1
2549 2049 -1
2549 2549 3
2550 79 -1
2550 330 -1
2550 1838 -1
2550 2550 3
2551 42 -1
2551 1611 -1
2551 2107 -1
2551 2551 4
2552 306 -1
2552 1423 -1
2552 1854 -1
2552 2552 3
2553 72 -1
2553 109 -1
2553 1888 -1
2553 2553 3
2554 32 -1
2554 47 -1
2554 132 -1
2554 2554 4
2555 26 -1
2555 34 -1
2555 189 -1
2555 2555 3
2556 36 -1
2556 270 -1
2556 1126 -1
2556 2556 4
2557 287 -1
2557 317 -1
2557 1875 -1
2557 2557 3
2558 97 -1
2558 963 -1
2558 1221 -1
2558 2558 3
2559 7 -1
2559 691 -1
2559 777 -1
2559 2559 3
2560 46 -1
2560 68 -1
2560 96 -1
2560 2560 3
2561 51 -1
2561 107 -1
2561 414 -1
2561 2561 3
2562 286 -1
2562 1306 -1
2562 1796 -1
2562 2562 3
2563 19 -1
2563 1640 -1
2563 1800 -1
2563 2563 5
2564 336 -1
2564 1680 -1
2564 1937 -1
2564 2564 4
2565 239 -1
2565 331 -1
2565 2342 -1
2565 2565 6
2566 358 -1
2566 383 -1
2566 1030 -1
2566 2566 5
2567 987 -1
2567 1064 -1
2567 2089 -1
2567 2567 3
2568 70 -1
2568 1213 -1
2568 1549 -1
2568 2568 3
2569 306 -1
2569 508 -1
2569 2450 -1
2569 2569 5
2570 51 -1
2570 695 -1
2570 1903 -1
2570 2570 4
2571 671 -1
2571 1251 -1
2571 1807 -1
2571 2571 5
2572 96 -1
2572 210 -1
2572 1550 -1
2572 2572 3
2573 70 -1
2573 758 -1
2573 2523 -1
2573 2573 3
2574 651 -1
2574 1169 -1
2574 2104 -1
2574 2574 5
2575 163 -1
2575 1826 -1
2575 2470 -1
2575 2575 4
2576 476 -1
2576 706 -1
2576 2106 -1
2576 2576 4
2577 8 -1
2577 57 -1
2577 2135 -1
2577 2577 3
2578 89 -1
2578 96 -1
2578 393 -1
2578 2578 5
2579 77 -1
2579 98 -1
2579 727 -1
2579 2579 3
2580 20 -1
2580 51 -1
2580 487 -1
2580 2580 3
2581 154 -1
2581 489 -1
2581 726 -1
2581 2581 4
2582 193 -1
2582 1346 -1
2582 2539 -1
2582 2582 3
2583 4 -1
2583 551 -1
2583 1670 -1
2583 2583 4
2584 93 -1
2584 1347 -1
2584 1766 -1
2584 2584 4
2585 57 -1
2585 282 -1
2585 396 -1
2585 2585 3
2586 7 -1
2586 1181 -1
2586 1577 -1
2586 2586 3
2587 22 -1
2587 1680 -1
2587 1760 -1
2587 2587 3
2588 1209 -1
2588 1403 -1
2588 1957 -1
2588 2588 3
2589 13 -1
2589 157 -1
2589 526 -1
2589 2589 5
2590 35 -1
2590 97 -1
2590 305 -1
2590 2590 4
2591 82 -1
2591 280 -1
2591 1990 -1
2591 2591 4
2592 45 -1
2592 1221 -1
2592 2355 -1
2592 2592 5
2593 5 -1
2593 79 -1
2593 1786 -1
2593 2593 4
2594 5 -1
2594 1752 -1
2594 2107 -1
2594 2594 3
2595 75 -1
2595 989 -1
2595 1818 -1
2595 2595 3
2596 417 -1
2596 731 -1
2596 1915 -1
2596 2596 6
2597 904 -1
2597 1054 -1
2597 1072 -1
2597 2597 3
2598 1 -1
2598 704 -1
2598 1197 -1
2598 2598 4
2599 13 -1
2599 1811 -1
2599 2570 -1
2599 2599 4
2600 1194 -1
2600 1309 -1
2600 1343 -1
2600 2600 3
2601 402 -1
2601 1106 -1
2601 2308 -1
2601 2601 4
2602 376 -1
2602 1673 -1
2602 2148 -1
2602 2602 5
2603 5 -1
2603 620 -1
2603 1478 -1
2603 2603 5
2604 2 -1
2604 393 -1
2604 1053 -1
2604 2604 4
2605 424 -1
2605 597 -1
2605 2237 -1
2605 2605 5
2606 334 -1
2606 1465 -1
2606 1552 -1
2606 2606 3
2607 162 -1
2607 317 -1
2607 914 -1
2607 2607 3
2608 830 -1
2608 1097 -1
2608 1865 -1
2608 2608 3
2609 154 -1
2609 1730 -1
2609 1770 -1
2609 2609 4
2610 251 -1
2610 1001 -1
2610 1463 -1
2610 2610 3
2611 223 -1
2611 932 -1
2611 1875 -1
2611 2611 3
2612 1027 -1
2612 2080 -1
2612 2300 -1
2612 2612 3
2613 330 -1
2613 795 -1
2613 1772 -1
2613 2613 4
2614 67 -1
2614 558 -1
2614 1370 -1
2614 2614 3
2615 5 -1
2615 8 -1
2615 884 -1
2615 2615 4
2616 30 -1
2616 321 -1
2616 525 -1
2616 2616 5
2617 57 -1
2617 295 -1
2617 2451 -1
2617 2617 3
2618 43 -1
2618 1173 -1
2618 1884 -1
2618 2618 3
2619 235 -1
2619 1055 -1
2619 1490 -1
2619 2619 4
2620 1199 -1
2620 1731 -1
2620 2011 -1
2620 2620 3
2621 32 -1
2621 34 -1
2621 159 -1
2621 2621 4
2622 6 -1
2622 46 -1
2622 376 -1
2622 2622 5
2623 133 -1
2623 1185 -1
2623 1339 -1
2623 2623 4
2624 27 -1
2624 1065 -1
2624 2168 -1
2624 2624 4
2625 445 -1
2625 1009 -1
2625 1760 -1
2625 2625 3
2626 69 -1
2626 259 -1
2626 707 -1
2626 2626 3
2627 48 -1
2627 1230 -1
2627 2220 -1
2627 2627 4
2628 9 -1
2628 26 -1
2628 51 -1
2628 2628 3
2629 330 -1
2629 523 -1
2629 1972 -1
2629 2629 4
2630 120 -1
2630 142 -1
2630 326 -1
2630 2630 3
2631 361 -1
2631 1616 -1
2631 2207 -1
2631 2631 6
2632 27 -1
2632 442 -1
2632 1255 -1
2632 2632 3
2633 1251 -1
2633 1678 -1
2633 1855 -1
2633 2633 3
2634 391 -1
2634 410 -1
2634 1460 -1
2634 2634 3
2635 302 -1
2635 578 -1
2635 2027 -1
2635 2635 3
2636 104 -1
2636 200 -1
2636 1757 -1
2636 2636 3
2637 390 -1
2637 1173 -1
2637 1883 -1
2637 2637 3
2638 34 -1
2638 1290 -1
2638 1616 -1
2638 2638 4
2639 103 -1
2639 1692 -1
2639 2510 -1
2639 2639 3
2640 52 -1
2640 666 -1
2640 1778 -1
2640 2640 4
2641 23 -1
2641 37 -1
2641 1775 -1
2641 2641 3
2642 7 -1
2642 403 -1
2642 1731 -1
2642 2642 4
2643 99 -1
2643 686 -1
2643 1054 -1
2643 2643 3
2644 269 -1
2644 950 -1
2644 1249 -1
2644 2644 3
2645 4 -1
2645 338 -1
2645 987 -1
2645 2645 3
2646 178 -1
2646 1269 -1
2646 1617 -1
2646 2646 3
2647 192 -1
2647 315 -1
2647 1415 -1
2647 2647 3
2648 1361 -1
2648 1590 -1
2648 1628 -1
2648 2648 8
2649 43 -1
2649 116 -1
2649 121 -1
2649 2649 3
2650 320 -1
2650 1167 -1
2650 2200 -1
2650 2650 3
2651 757 -1
2651 2219 -1
2651 2286 -1
2651 2651 3
2652 1101 -1
2652 1106 -1
2652 1573 -1
2652 2652 3
2653 7 -1
2653 333 -1
2653 728 -1
2653 2653 5
2654 33 -1
2654 1494 -1
2654 1576 -1
2654 2654 4
2655 737 -1
2655 1290 -1
2655 2243 -1
2655 2655 3
2656 542 -1
2656 2090 -1
2656 2169 -1
2656 2656 3
2657 46 -1
2657 477 -1
2657 1623 -1
2657 2657 6
2658 10 -1
2658 176 -1
2658 333 -1
2658 2658 4
2659 389 -1
2659 751 -1
2659 2072 -1
2659 2659 3
2660 67 -1
2660 462 -1
2660 1137 -1
2660 2660 4
2661 193 -1
2661 454 -1
2661 715 -1
2661 2661 3
2662 1 -1
2662 1201 -1
2662 2531 -1
2662 2662 3
2663 7 -1
2663 11 -1
2663 1357 -1
2663 2663 3
2664 114 -1
2664 276 -1
2664 2317 -1
2664 2664 3
2665 154 -1
2665 798 -1
2665 1267 -1
2665 2665 4
2666 46 -1
2666 434 -1
2666 2127 -1
2666 2666 3
2667 32 -1
2667 1333 -1
2667 2405 -1
2667 2667 4
2668 8 -1
2668 23 -1
2668 493 -1
2668 2668 4
2669 6 -1
2669 1933 -1
2669 2532 -1
2669 2669 3
2670 43 -1
2670 1783 -1
2670 2425 -1
2670 2670 4
2671 778 -1
2671 1140 -1
2671 1897 -1
2671 2671 3
2672 1254 -1
2672 2113 -1
2672 2208 -1
2672 2672 5
2673 350 -1
2673 1303 -1
2673 1894 -1
2673 2673 3
2674 394 -1
2674 566 -1
2674 636 -1
2674 2674 5
2675 27 -1
2675 743 -1
2675 1233 -1
2675 2675 4
2676 132 -1
2676 1029 -1
2676 2565 -1
2676 2676 3
2677 480 -1
2677 650 -1
2677 1892 -1
2677 2677 7
2678 44 -1
2678 106 -1
2678 495 -1
2678 2678 3
2679 34 -1
2679 46 -1
2679 1301 -1
2679 2679 3
2680 239 -1
2680 1716 -1
2680 2598 -1
2680 2680 3
2681 84 -1
2681 2140 -1
2681 2260 -1
2681 2681 3
2682 8 -1
2682 953 -1
2682 1147 -1
2682 2682 5
2683 227 -1
2683 256 -1
2683 1526 -1
2683 2683 3
2684 324 -1
2684 778 -1
2684 1451 -1
2684 2684 4
2685 1 -1
2685 4 -1
2685 17 -1
2685 2685 3
2686 522 -1
2686 1477 -1
2686 2359 -1
2686 2686 3
2687 602 -1
2687 1271 -1
2687 1389 -1
2687 2687 4
2688 315 -1
2688 1714 -1
2688 2107 -1
2688 2688 3
2689 24 -1
2689 148 -1
2689 758 -1
2689 2689 4
2690 311 -1
2690 532 -1
2690 547 -1
2690 2690 4
2691 6 -1
2691 326 -1
2691 429 -1
2691 2691 4
2692 24 -1
2692 2492 -1
2692 2648 -1
2692 2692 3
2693 71 -1
2693 472 -1
2693 1362 -1
2693 2693 3
2694 121 -1
2694 1833 -1
2694 2523 -1
2694 2694 3
2695 151 -1
2695 975 -1
2695 1764 -1
2695 2695 6
2696 5 -1
2696 11 -1
2696 1190 -1
2696 2696 5
2697 63 -1
2697 909 -1
2697 916 -1
2697 2697 3
2698 2074 -1
2698 2202 -1
2698 2434 -1
2698 2698 3
2699 26 -1
2699 28 -1
2699 111 -1
2699 2699 3
2700 60 -1
2700 1757 -1
2700 2025 -1
2700 2700 5
2701 86 -1
2701 335 -1
2701 435 -1
2701 2701 4
2702 8 -1
2702 1328 -1
2702 2148 -1
2702 2702 5
2703 159 -1
2703 320 -1
2703 348 -1
2703 2703 3
2704 11 -1
2704 646 -1
2704 1973 -1
2704 2704 3
2705 15 -1
2705 1218 -1
2705 1578 -1
2705 2705 4
2706 109 -1
2706 113 -1
2706 546 -1
2706 2706 4
2707 294 -1
2707 305 -1
2707 1492 -1
2707 2707 4
2708 22 -1
2708 139 -1
2708 599 -1
2708 2708 4
2709 304 -1
2709 625 -1
2709 894 -1
2709 2709 3
2710 199 -1
2710 271 -1
2710 2018 -1
2710 2710 3
2711 242 -1
2711 471 -1
2711 1130 -1
2711 2711 5
2712 404 -1
2712 432 -1
2712 606 -1
2712 2712 4
2713 204 -1
2713 305 -1
2713 1601 -1
2713 2713 3
2714 150 -1
2714 1326 -1
2714 2435 -1
2714 2714 4
2715 316 -1
2715 399 -1
2715 451 -1
2715 2715 3
2716 184 -1
2716 1139 -1
2716 2537 -1
2716 2716 4
2717 7 -1
2717 1023 -1
2717 1061 -1
2717 2717 3
2718 374 -1
2718 1253 -1
2718 1969 -1
2718 2718 4
2719 5 -1
2719 510 -1
2719 1729 -1
2719 2719 4
2720 124 -1
2720 200 -1
2720 2667 -1
2720 2720 3
2721 8 -1
2721 91 -1
2721 458 -1
2721 2721 3
2722 166 -1
2722 651 -1
2722 1556 -1
2722 2722 5
2723 150 -1
2723 264 -1
2723 376 -1
2723 2723 3
2724 66 -1
2724 71 -1
2724 2329 -1
2724 2724 3
2725 9 -1
2725 223 -1
2725 1541 -1
2725 2725 4
2726 8 -1
2726 85 -1
2726 2022 -1
2726 2726 4
2727 227 -1
2727 809 -1
2727 820 -1
2727 2727 4
2728 456 -1
2728 2159 -1
2728 2173 -1
2728 2728 3
2729 1673 -1
2729 2476 -1
2729 2605 -1
2729 2729 4
2730 307 -1
2730 333 -1
2730 1582 -1
2730 2730 4
2731 39 -1
2731 613 -1
2731 2338 -1
2731 2731 3
2732 59 -1
2732 143 -1
2732 201 -1
2732 2732 3
2733 103 -1
2733 1339 -1
2733 1428 -1
2733 2733 5
2734 372 -1
2734 1135 -1
2734 2722 -1
2734 2734 4
2735 1092 -1
2735 1528 -1
2735 2589 -1
2735 2735 3
2736 59 -1
2736 1345 -1
2736 1929 -1
2736 2736 3
2737 46 -1
2737 102 -1
2737 2375 -1
2737 2737 3
2738 31 -1
2738 817 -1
2738 1218 -1
2738 2738 3
2739 222 -1
2739 245 -1
2739 2285 -1
2739 2739 3
2740 187 -1
2740 2104 -1
2740 2328 -1
2740 2740 3
2741 6 -1
2741 32 -1
2741 2157 -1
2741 2741 3
2742 1317 -1
2742 2474 -1
2742 2708 -1
2742 2742 4
2743 71 -1
2743 457 -1
2743 2224 -1
2743 2743 3
2744 261 -1
2744 728 -1
2744 1194 -1
2744 2744 5
2745 499 -1
2745 1135 -1
2745 1309 -1
2745 2745 3
2746 27 -1
2746 90 -1
2746 1668 -1
2746 2746 4
2747 27 -1
2747 887 -1
2747 2346 -1
2747 2747 4
2748 57 -1
2748 1058 -1
2748 2536 -1
2748 2748 4
2749 193 -1
2749 2026 -1
2749 2217 -1
2749 2749 4
2750 8 -1
2750 50 -1
2750 2539 -1
2750 2750 3
2751 182 -1
2751 1306 -1
2751 2105 -1
2751 2751 3
2752 263 -1
2752 1623 -1
2752 2329 -1
2752 2752 4
2753 275 -1
2753 784 -1
2753 806 -1
2753 2753 4
2754 200 -1
2754 285 -1
2754 1991 -1
2754 2754 3
2755 132 -1
2755 703 -1
2755 2000 -1
2755 2755 5
2756 52 -1
2756 304 -1
2756 2000 -1
2756 2756 3
2757 369 -1
2757 451 -1
2757 487 -1
2757 2757 4
2758 759 -1
2758 1049 -1
2758 1426 -1
2758 2758 5
2759 531 -1
2759 996 -1
2759 2451 -1
2759 2759 4
2760 5 -1
2760 1063 -1
2760 1149 -1
2760 2760 6
2761 138 -1
2761 285 -1
2761 799 -1
2761 2761 3
2762 5 -1
2762 1517 -1
2762 2313 -1
2762 2762 3
2763 35 -1
2763 241 -1
2763 946 -1
2763 2763 4
2764 2072 -1
2764 2474 -1
2764 2742 -1
2764 2764 3
2765 57 -1
2765 593 -1
2765 2571 -1
2765 2765 3
2766 72 -1
2766 494 -1
2766 2014 -1
2766 2766 4
2767 480 -1
2767 1032 -1
2767 2504 -1
2767 2767 4
2768 441 -1
2768 980 -1
2768 2137 -1
2768 2768 3
2769 51 -1
2769 471 -1
2769 1578 -1
2769 2769 3
2770 615 -1
2770 903 -1
2770 1289 -1
2770 2770 3
2771 114 -1
2771 825 -1
2771 2714 -1
2771 2771 3
2772 127 -1
2772 522 -1
2772 1119 -1
2772 2772 3
2773 241 -1
2773 2278 -1
2773 2355 -1
2773 2773 3
2774 31 -1
2774 49 -1
2774 382 -1
2774 2774 4
2775 98 -1
2775 233 -1
2775 1036 -1
2775 2775 4
2776 8 -1
2776 347 -1
2776 1272 -1
2776 2776 3
2777 95 -1
2777 169 -1
2777 482 -1
2777 2777 3
2778 389 -1
2778 1705 -1
2778 2435 -1
2778 2778 3
2779 31 -1
2779 724 -1
2779 1664 -1
2779 2779 4
2780 941 -1
2780 1423 -1
2780 1677 -1
2780 2780 3
2781 1242 -1
2781 1385 -1
2781 2648 -1
2781 2781 5
2782 8 -1
2782 396 -1
2782 1577 -1
2782 2782 3
2783 5 -1
2783 1932 -1
2783 2493 -1
2783 2783 3
2784 737 -1
2784 912 -1
2784 1561 -1
2784 2784 4
2785 535 -1
2785 707 -1
2785 961 -1
2785 2785 3
2786 476 -1
2786 642 -1
2786 884 -1
2786 2786 3
2787 228 -1
2787 324 -1
2787 694 -1
2787 2787 4
2788 311 -1
2788 2022 -1
2788 2411 -1
2788 2788 4
2789 7 -1
2789 159 -1
2789 1011 -1
2789 2789 3
2790 811 -1
2790 1734 -1
2790 1881 -1
2790 2790 3
2791 9 -1
2791 891 -1
2791 2040 -1
2791 2791 3
2792 14 -1
2792 35 -1
2792 1650 -1
2792 2792 6
2793 39 -1
2793 740 -1
2793 797 -1
2793 2793 3
2794 571 -1
2794 1752 -1
2794 2505 -1
2794 2794 4
2795 5 -1
2795 10 -1
2795 233 -1
2795 2795 3
2796 153 -1
2796 1221 -1
2796 1586 -1
2796 2796 3
2797 411 -1
2797 447 -1
2797 1853 -1
2797 2797 5
2798 222 -1
2798 325 -1
2798 2619 -1
2798 2798 3
2799 126 -1
2799 242 -1
2799 1686 -1
2799 2799 3
2800 21 -1
2800 56 -1
2800 200 -1
2800 2800 3
2801 260 -1
2801 1955 -1
2801 2439 -1
2801 2801 4
2802 304 -1
2802 500 -1
2802 1069 -1
2802 2802 4
2803 1072 -1
2803 1199 -1
2803 1521 -1
2803 2803 5
2804 17 -1
2804 460 -1
2804 2436 -1
2804 2804 5
2805 108 -1
2805 185 -1
2805 242 -1
2805 2805 3
2806 765 -1
2806 1065 -1
2806 2682 -1
2806 2806 4
2807 157 -1
2807 1975 -1
2807 2797 -1
2807 2807 6
2808 707 -1
2808 811 -1
2808 1462 -1
2808 2808 4
2809 946 -1
2809 2022 -1
2809 2112 -1
2809 2809 3
2810 70 -1
2810 1558 -1
2810 1887 -1
2810 2810 3
2811 535 -1
2811 1686 -1
2811 1922 -1
2811 2811 3
2812 287 -1
2812 1181 -1
2812 1875 -1
2812 2812 4
2813 92 -1
2813 2273 -1
2813 2420 -1
2813 2813 3
2814 19 -1
2814 898 -1
2814 2318 -1
2814 2814 3
2815 59 -1
2815 332 -1
2815 672 -1
2815 2815 3
2816 6 -1
2816 417 -1
2816 1138 -1
2816 2816 4
2817 6 -1
2817 57 -1
2817 1835 -1
2817 2817 3
2818 9 -1
2818 298 -1
2818 1602 -1
2818 2818 6
2819 82 -1
2819 1496 -1
2819 2267 -1
2819 2819 3
2820 534 -1
2820 751 -1
2820 2527 -1
2820 2820 3
2821 1019 -1
2821 1584 -1
2821 2088 -1
2821 2821 3
2822 234 -1
2822 1526 -1
2822 1651 -1
2822 2822 4
2823 8 -1
2823 65 -1
2823 1663 -1
2823 2823 3
2824 15 -1
2824 150 -1
2824 798 -1
2824 2824 5
2825 5 -1
2825 403 -1
2825 1438 -1
2825 2825 3
2826 214 -1
2826 314 -1
2826 2584 -1
2826 2826 3
2827 236 -1
2827 311 -1
2827 983 -1
2827 2827 3
2828 135 -1
2828 655 -1
2828 1340 -1
2828 2828 5
2829 272 -1
2829 1517 -1
2829 2696 -1
2829 2829 3
2830 9 -1
2830 1979 -1
2830 2385 -1
2830 2830 3
2831 10 -1
2831 1412 -1
2831 2603 -1
2831 2831 3
2832 99 -1
2832 1509 -1
2832 1521 -1
2832 2832 3
2833 22 -1
2833 208 -1
2833 323 -1
2833 2833 4
2834 8 -1
2834 1749 -1
2834 2521 -1
2834 2834 4
2835 743 -1
2835 895 -1
2835 1955 -1
2835 2835 5
2836 2 -1
2836 96 -1
2836 292 -1
2836 2836 3
2837 49 -1
2837 162 -1
2837 193 -1
2837 2837 5
2838 423 -1
2838 1578 -1
2838 1596 -1
2838 2838 3
2839 807 -1
2839 1004 -1
2839 1887 -1
2839 2839 3
2840 79 -1
2840 916 -1
2840 1765 -1
2840 2840 4
2841 38 -1
2841 1486 -1
2841 1730 -1
2841 2841 3
2842 16 -1
2842 1728 -1
2842 1983 -1
2842 2842 5
2843 21 -1
2843 751 -1
2843 788 -1
2843 2843 5
2844 1289 -1
2844 1540 -1
2844 2833 -1
2844 2844 3
2845 1506 -1
2845 1573 -1
2845 1862 -1
2845 2845 3
2846 238 -1
2846 323 -1
2846 1193 -1
2846 2846 3
2847 19 -1
2847 275 -1
2847 1211 -1
2847 2847 3
2848 5 -1
2848 425 -1
2848 1628 -1
2848 2848 4
2849 28 -1
2849 640 -1
2849 2518 -1
2849 2849 3
2850 98 -1
2850 720 -1
2850 2622 -1
2850 2850 3
2851 161 -1
2851 1705 -1
2851 1905 -1
2851 2851 4
2852 706 -1
2852 728 -1
2852 2417 -1
2852 2852 3
2853 95 -1
2853 296 -1
2853 1667 -1
2853 2853 3
2854 415 -1
2854 651 -1
2854 706 -1
2854 2854 4
2855 111 -1
2855 686 -1
2855 1682 -1
2855 2855 3
2856 4 -1
2856 443 -1
2856 688 -1
2856 2856 4
2857 4 -1
2857 13 -1
2857 411 -1
2857 2857 3
2858 106 -1
2858 428 -1
2858 2648 -1
2858 2858 3
2859 165 -1
2859 511 -1
2859 708 -1
2859 2859 4
2860 113 -1
2860 592 -1
2860 811 -1
2860 2860 5
2861 327 -1
2861 485 -1
2861 2565 -1
2861 2861 3
2862 40 -1
2862 365 -1
2862 1385 -1
2862 2862 3
2863 6 -1
2863 44 -1
2863 95 -1
2863 2863 3
2864 9 -1
2864 967 -1
2864 1125 -1
2864 2864 3
2865 163 -1
2865 939 -1
2865 1923 -1
2865 2865 3
2866 499 -1
2866 798 -1
2866 1518 -1
2866 2866 3
2867 198 -1
2867 880 -1
2867 1903 -1
2867 2867 4
2868 799 -1
2868 817 -1
2868 1324 -1
2868 2868 3
2869 40 -1
2869 132 -1
2869 215 -1
2869 2869 3
2870 2 -1
2870 5 -1
2870 35 -1
2870 2870 4
2871 27 -1
2871 162 -1
2871 542 -1
2871 2871 4
2872 1172 -1
2872 2596 -1
2872 2757 -1
2872 2872 4
2873 21 -1
2873 483 -1
2873 963 -1
2873 2873 4
2874 27 -1
2874 991 -1
2874 1941 -1
2874 2874 3
2875 87 -1
2875 281 -1
2875 890 -1
2875 2875 7
2876 287 -1
2876 1246 -1
2876 2229 -1
2876 2876 4
2877 7 -1
2877 109 -1
2877 258 -1
2877 2877 3
2878 16 -1
2878 335 -1
2878 1568 -1
2878 2878 3
2879 6 -1
2879 1976 -1
2879 2711 -1
2879 2879 3
2880 6 -1
2880 225 -1
2880 312 -1
2880 2880 4
2881 60 -1
2881 635 -1
2881 1795 -1
2881 2881 5
2882 1189 -1
2882 1552 -1
2882 2499 -1
2882 2882 3
2883 1237 -1
2883 1707 -1
2883 2428 -1
2883 2883 4
2884 60 -1
2884 246 -1
2884 409 -1
2884 2884 4
2885 315 -1
2885 812 -1
2885 2601 -1
2885 2885 3
2886 5 -1
2886 73 -1
2886 2010 -1
2886 2886 4
2887 148 -1
2887 575 -1
2887 2168 -1
2887 2887 3
2888 45 -1
2888 629 -1
2888 2648 -1
2888 2888 3
2889 10 -1
2889 786 -1
2889 1806 -1
2889 2889 3
2890 306 -1
2890 559 -1
2890 2191 -1
2890 2890 3
2891 8 -1
2891 724 -1
2891 1332 -1
2891 2891 3
2892 1097 -1
2892 1176 -1
2892 2211 -1
2892 2892 4
2893 239 -1
2893 1275 -1
2893 2280 -1
2893 2893 5
2894 859 -1
2894 1494 -1
2894 2729 -1
2894 2894 3
2895 1948 -1
2895 2189 -1
2895 2602 -1
2895 2895 3
2896 411 -1
2896 1167 -1
2896 2212 -1
2896 2896 4
2897 808 -1
2897 1340 -1
2897 2486 -1
2897 2897 3
2898 131 -1
2898 242 -1
2898 1049 -1
2898 2898 4
2899 1264 -1
2899 2565 -1
2899 2719 -1
2899 2899 3
2900 46 -1
2900 161 -1
2900 547 -1
2900 2900 4
2901 71 -1
2901 292 -1
2901 376 -1
2901 2901 4
2902 49 -1
2902 777 -1
2902 2093 -1
2902 2902 3
2903 116 -1
2903 135 -1
2903 1789 -1
2903 2903 3
2904 123 -1
2904 421 -1
2904 2843 -1
2904 2904 3
2905 1106 -1
2905 2049 -1
2905 2492 -1
2905 2905 3
2906 6 -1
2906 150 -1
2906 2260 -1
2906 2906 4
2907 1058 -1
2907 1880 -1
2907 2760 -1
2907 2907 4
2908 100 -1
2908 176 -1
2908 2354 -1
2908 2908 4
2909 253 -1
2909 654 -1
2909 1321 -1
2909 2909 3
2910 8 -1
2910 1721 -1
2910 2420 -1
2910 2910 3
2911 150 -1
2911 200 -1
2911 480 -1
2911 2911 6
2912 6 -1
2912 568 -1
2912 969 -1
2912 2912 3
2913 228 -1
2913 730 -1
2913 1714 -1
2913 2913 3
2914 434 -1
2914 942 -1
2914 2128 -1
2914 2914 4
2915 24 -1
2915 227 -1
2915 2569 -1
2915 2915 4
2916 114 -1
2916 620 -1
2916 857 -1
2916 2916 3
2917 31 -1
2917 310 -1
2917 327 -1
2917 2917 6
2918 1711 -1
2918 1930 -1
2918 2705 -1
2918 2918 3
2919 71 -1
2919 80 -1
2919 1286 -1
2919 2919 3
2920 157 -1
2920 176 -1
2920 483 -1
2920 2920 5
2921 99 -1
2921 150 -1
2921 546 -1
2921 2921 3
2922 522 -1
2922 535 -1
2922 1867 -1
2922 2922 3
2923 845 -1
2923 1888 -1
2923 1955 -1
2923 2923 5
2924 86 -1
2924 167 -1
2924 2253 -1
2924 2924 3
2925 404 -1
2925 1256 -1
2925 1337 -1
2925 2925 3
2926 361 -1
2926 467 -1
2926 576 -1
2926 2926 3
2927 107 -1
2927 282 -1
2927 1847 -1
2927 2927 3
2928 59 -1
2928 111 -1
2928 393 -1
2928 2928 3
2929 34 -1
2929 162 -1
2929 292 -1
2929 2929 3
2930 242 -1
2930 332 -1
2930 497 -1
2930 2930 4
2931 16 -1
2931 39 -1
2931 508 -1
2931 2931 3
2932 1732 -1
2932 2066 -1
2932 2135 -1
2932 2932 3
2933 537 -1
2933 1764 -1
2933 1897 -1
2933 2933 6
2934 533 -1
2934 1128 -1
2934 1838 -1
2934 2934 3
2935 1256 -1
2935 2716 -1
2935 2749 -1
2935 2935 3
2936 281 -1
2936 854 -1
2936 1639 -1
2936 2936 3
2937 492 -1
2937 1105 -1
2937 1969 -1
2937 2937 4
2938 30 -1
2938 332 -1
2938 858 -1
2938 2938 4
2939 6 -1
2939 249 -1
2939 263 -1
2939 2939 5
2940 1237 -1
2940 1627 -1
2940 2199 -1
2940 2940 4
2941 101 -1
2941 159 -1
2941 1843 -1
2941 2941 3
2942 192 -1
2942 1496 -1
2942 2843 -1
2942 2942 5
2943 344 -1
2943 2336 -1
2943 2599 -1
2943 2943 4
2944 422 -1
2944 1213 -1
2944 1900 -1
2944 2944 3
2945 529 -1
2945 1149 -1
2945 1641 -1
2945 2945 4
2946 1096 -1
2946 1263 -1
2946 2266 -1
2946 2946 3
2947 280 -1
2947 669 -1
2947 2818 -1
2947 2947 4
2948 105 -1
2948 869 -1
2948 1125 -1
2948 2948 3
2949 333 -1
2949 1022 -1
2949 1663 -1
2949 2949 3
2950 106 -1
2950 270 -1
2950 769 -1
2950 2950 3
2951 52 -1
2951 730 -1
2951 2372 -1
2951 2951 3
2952 4 -1
2952 1099 -1
2952 1287 -1
2952 2952 4
2953 810 -1
2953 1316 -1
2953 2529 -1
2953 2953 3
2954 825 -1
2954 1643 -1
2954 2381 -1
2954 2954 3
2955 355 -1
2955 1397 -1
2955 2244 -1
2955 2955 5
2956 117 -1
2956 1115 -1
2956 1461 -1
2956 2956 4
2957 165 -1
2957 1404 -1
2957 1571 -1
2957 2957 3
2958 6 -1
2958 1293 -1
2958 2220 -1
2958 2958 4
2959 21 -1
2959 531 -1
2959 822 -1
2959 2959 3
2960 13 -1
2960 531 -1
2960 1699 -1
2960 2960 3
2961 2385 -1
2961 2538 -1
2961 2654 -1
2961 2961 3
2962 57 -1
2962 126 -1
2962 2308 -1
2962 2962 4
2963 12 -1
2963 65 -1
2963 616 -1
2963 2963 3
2964 33 -1
2964 153 -1
2964 749 -1
2964 2964 3
2965 234 -1
2965 937 -1
2965 1623 -1
2965 2965 3
2966 2 -1
2966 7 -1
2966 112 -1
2966 2966 3
2967 5 -1
2967 106 -1
2967 1167 -1
2967 2967 3
2968 254 -1
2968 1988 -1
2968 2226 -1
2968 2968 3
2969 507 -1
2969 771 -1
2969 2171 -1
2969 2969 3
2970 38 -1
2970 662 -1
2970 1929 -1
2970 2970 3
2971 67 -1
2971 2854 -1
2971 2872 -1
2971 2971 3
2972 5 -1
2972 316 -1
2972 496 -1
2972 2972 4
2973 152 -1
2973 671 -1
2973 1715 -1
2973 2973 3
2974 1292 -1
2974 1744 -1
2974 2133 -1
2974 2974 3
2975 8 -1
2975 791 -1
2975 1194 -1
2975 2975 3
2976 139 -1
2976 672 -1
2976 960 -1
2976 2976 3
2977 75 -1
2977 1157 -1
2977 1392 -1
2977 2977 3
2978 31 -1
2978 268 -1
2978 953 -1
2978 2978 3
2979 176 -1
2979 620 -1
2979 888 -1
2979 2979 3
2980 888 -1
2980 904 -1
2980 1087 -1
2980 2980 3
2981 4 -1
2981 7 -1
2981 1520 -1
2981 2981 3
2982 13 -1
2982 68 -1
2982 1301 -1
2982 2982 3
2983 99 -1
2983 115 -1
2983 302 -1
2983 2983 3
2984 1312 -1
2984 1385 -1
2984 2104 -1
2984 2984 3
2985 670 -1
2985 1235 -1
2985 1985 -1
2985 2985 3
2986 404 -1
2986 1294 -1
2986 2145 -1
2986 2986 3
2987 46 -1
2987 1502 -1
2987 2125 -1
2987 2987 3
2988 496 -1
2988 652 -1
2988 1399 -1
2988 2988 3
2989 219 -1
2989 1152 -1
2989 1289 -1
2989 2989 3
2990 54 -1
2990 81 -1
2990 2400 -1
2990 2990 3
2991 87 -1
2991 1500 -1
2991 2222 -1
2991 2991 3
2992 325 -1
2992 758 -1
2992 2576 -1
2992 2992 3
2993 153 -1
2993 1149 -1
2993 2310 -1
2993 2993 3
2994 7 -1
2994 70 -1
2994 879 -1
2994 2994 3
2995 8 -1
2995 51 -1
2995 1925 -1
2995 2995 3
2996 1788 -1
2996 1925 -1
2996 2302 -1
2996 2996 4
2997 47 -1
2997 288 -1
2997 599 -1
2997 2997 3
2998 572 -1
2998 760 -1
2998 2425 -1
2998 2998 4
2999 19 -1
2999 20 -1
2999 1096 -1
2999 2999 3
3000 11 -1
3000 688 -1
3000 1672 -1
3000 3000 5
3001 5 -1
3001 239 -1
3001 865 -1
3001 3001 3
3002 191 -1
3002 798 -1
3002 2244 -1
3002 3002 3
3003 438 -1
3003 2469 -1
3003 2616 -1
3003 3003 4
3004 12 -1
3004 663 -1
3004 1427 -1
3004 3004 3
3005 266 -1
3005 1088 -1
3005 1542 -1
3005 3005 3
3006 464 -1
3006 2011 -1
3006 2267 -1
3006 3006 4
3007 214 -1
3007 1595 -1
3007 2064 -1
3007 3007 3
3008 13 -1
3008 52 -1
3008 1229 -1
3008 3008 3
3009 57 -1
3009 489 -1
3009 1757 -1
3009 3009 3
3010 925 -1
3010 1086 -1
3010 1433 -1
3010 3010 4
3011 31 -1
3011 275 -1
3011 318 -1
3011 3011 3
3012 8 -1
3012 153 -1
3012 1424 -1
3012 3012 4
3013 1 -1
3013 8 -1
3013 644 -1
3013 3013 3
3014 9 -1
3014 2380 -1
3014 2875 -1
3014 3014 3
3015 423 -1
3015 2481 -1
3015 2702 -1
3015 3015 4
3016 679 -1
3016 1044 -1
3016 1229 -1
3016 3016 4
3017 1457 -1
3017 1576 -1
3017 2702 -1
3017 3017 3
3018 4 -1
3018 2090 -1
3018 2359 -1
3018 3018 3
3019 116 -1
3019 123 -1
3019 135 -1
3019 3019 3
3020 26 -1
3020 545 -1
3020 2288 -1
3020 3020 3
3021 30 -1
3021 95 -1
3021 769 -1
3021 3021 3
3022 305 -1
3022 1433 -1
3022 1588 -1
3022 3022 3
3023 129 -1
3023 2022 -1
3023 2466 -1
3023 3023 4
3024 15 -1
3024 21 -1
3024 2212 -1
3024 3024 4
3025 721 -1
3025 1647 -1
3025 2564 -1
3025 3025 4
3026 214 -1
3026 707 -1
3026 1162 -1
3026 3026 3
3027 8 -1
3027 402 -1
3027 2315 -1
3027 3027 3
3028 153 -1
3028 288 -1
3028 324 -1
3028 3028 3
3029 1286 -1
3029 1821 -1
3029 2575 -1
3029 3029 4
3030 15 -1
3030 252 -1
3030 1938 -1
3030 3030 3
3031 5 -1
3031 98 -1
3031 2451 -1
3031 3031 3
3032 514 -1
3032 2029 -1
3032 2159 -1
3032 3032 3
3033 228 -1
3033 698 -1
3033 983 -1
3033 3033 4
3034 132 -1
3034 931 -1
3034 1425 -1
3034 3034 3
3035 96 -1
3035 1573 -1
3035 2695 -1
3035 3035 4
3036 343 -1
3036 493 -1
3036 1736 -1
3036 3036 3
3037 391 -1
3037 541 -1
3037 2900 -1
3037 3037 3
3038 607 -1
3038 772 -1
3038 1714 -1
3038 3038 4
3039 38 -1
3039 407 -1
3039 1582 -1
3039 3039 3
3040 1414 -1
3040 1538 -1
3040 2352 -1
3040 3040 4
3041 233 -1
3041 1430 -1
3041 1441 -1
3041 3041 3
3042 983 -1
3042 1688 -1
3042 2383 -1
3042 3042 3
3043 169 -1
3043 270 -1
3043 602 -1
3043 3043 3
3044 235 -1
3044 2406 -1
3044 3038 -1
3044 3044 3
3045 294 -1
3045 815 -1
3045 1035 -1
3045 3045 3
3046 27 -1
3046 109 -1
3046 231 -1
3046 3046 3
3047 199 -1
3047 522 -1
3047 1550 -1
3047 3047 3
3048 189 -1
3048 404 -1
3048 1888 -1
3048 3048 3
3049 226 -1
3049 637 -1
3049 2706 -1
3049 3049 3
3050 1598 -1
3050 1908 -1
3050 2653 -1
3050 3050 3
3051 302 -1
3051 1190 -1
3051 2503 -1
3051 3051 3
3052 22 -1
3052 44 -1
3052 812 -1
3052 3052 3
3053 27 -1
3053 1116 -1
3053 1555 -1
3053 3053 4
3054 8 -1
3054 657 -1
3054 990 -1
3054 3054 3
3055 26 -1
3055 1163 -1
3055 1493 -1
3055 3055 3
3056 132 -1
3056 650 -1
3056 2876 -1
3056 3056 4
3057 71 -1
3057 423 -1
3057 1101 -1
3057 3057 3
3058 145 -1
3058 353 -1
3058 1798 -1
3058 3058 4
3059 244 -1
3059 1556 -1
3059 2156 -1
3059 3059 3
3060 151 -1
3060 305 -1
3060 1770 -1
3060 3060 3
3061 161 -1
3061 446 -1
3061 843 -1
3061 3061 3
3062 95 -1
3062 2483 -1
3062 2624 -1
3062 3062 4
3063 35 -1
3063 1165 -1
3063 1474 -1
3063 3063 3
3064 56 -1
3064 1566 -1
3064 2478 -1
3064 3064 3
3065 78 -1
3065 269 -1
3065 952 -1
3065 3065 3
3066 78 -1
3066 157 -1
3066 1768 -1
3066 3066 3
3067 10 -1
3067 758 -1
3067 2086 -1
3067 3067 3
3068 150 -1
3068 1143 -1
3068 1397 -1
3068 3068 3
3069 17 -1
3069 386 -1
3069 2182 -1
3069 3069 3
3070 26 -1
3070 292 -1
3070 387 -1
3070 3070 3
3071 893 -1
3071 2125 -1
3071 2201 -1
3071 3071 3
3072 441 -1
3072 662 -1
3072 845 -1
3072 3072 4
3073 270 -1
3073 575 -1
3073 2684 -1
3073 3073 4
3074 26 -1
3074 1697 -1
3074 1964 -1
3074 3074 3
3075 528 -1
3075 2010 -1
3075 2803 -1
3075 3075 6
3076 1095 -1
3076 2436 -1
3076 2677 -1
3076 3076 3
3077 739 -1
3077 1909 -1
3077 2605 -1
3077 3077 4
3078 496 -1
3078 2311 -1
3078 2314 -1
3078 3078 3
3079 1 -1
3079 1021 -1
3079 2374 -1
3079 3079 3
3080 224 -1
3080 511 -1
3080 2330 -1
3080 3080 3
3081 80 -1
3081 1228 -1
3081 2807 -1
3081 3081 3
3082 625 -1
3082 850 -1
3082 2883 -1
3082 3082 3
3083 40 -1
3083 462 -1
3083 1591 -1
3083 3083 3
3084 22 -1
3084 107 -1
3084 2392 -1
3084 3084 3
3085 815 -1
3085 1644 -1
3085 2080 -1
3085 3085 3
3086 701 -1
3086 1361 -1
3086 1644 -1
3086 3086 3
3087 1617 -1
3087 2339 -1
3087 2860 -1
3087 3087 3
3088 1 -1
3088 264 -1
3088 421 -1
3088 3088 3
3089 7 -1
3089 591 -1
3089 2807 -1
3089 3089 3
3090 2259 -1
3090 2324 -1
3090 2792 -1
3090 3090 3
3091 79 -1
3091 1387 -1
3091 2541 -1
3091 3091 3
3092 450 -1
3092 779 -1
3092 1395 -1
3092 3092 8
3093 92 -1
3093 107 -1
3093 784 -1
3093 3093 5
3094 22 -1
3094 984 -1
3094 2531 -1
3094 3094 3
3095 92 -1
3095 458 -1
3095 1322 -1
3095 3095 4
3096 1582 -1
3096 1629 -1
3096 1718 -1
3096 3096 3
3097 987 -1
3097 1451 -1
3097 2488 -1
3097 3097 3
3098 123 -1
3098 189 -1
3098 1156 -1
3098 3098 3
3099 59 -1
3099 468 -1
3099 1014 -1
3099 3099 3
3100 316 -1
3100 535 -1
3100 584 -1
3100 3100 3
3101 35 -1
3101 101 -1
3101 2160 -1
3101 3101 3
3102 76 -1
3102 155 -1
3102 941 -1
3102 3102 3
3103 184 -1
3103 2209 -1
3103 2609 -1
3103 3103 5
3104 1201 -1
3104 1657 -1
3104 1873 -1
3104 3104 3
3105 482 -1
3105 802 -1
3105 1656 -1
3105 3105 3
3106 79 -1
3106 378 -1
3106 741 -1
3106 3106 3
3107 38 -1
3107 90 -1
3107 444 -1
3107 3107 3
3108 24 -1
3108 1031 -1
3108 1146 -1
3108 3108 3
3109 440 -1
3109 796 -1
3109 2631 -1
3109 3109 3
3110 1046 -1
3110 1149 -1
3110 2383 -1
3110 3110 4
3111 48 -1
3111 1536 -1
3111 2534 -1
3111 3111 3
3112 203 -1
3112 326 -1
3112 2592 -1
3112 3112 6
3113 5 -1
3113 66 -1
3113 771 -1
3113 3113 4
3114 333 -1
3114 376 -1
3114 2435 -1
3114 3114 3
3115 45 -1
3115 2458 -1
3115 2578 -1
3115 3115 3
3116 187 -1
3116 1103 -1
3116 1348 -1
3116 3116 3
3117 82 -1
3117 789 -1
3117 3113 -1
3117 3117 3
3118 4 -1
3118 564 -1
3118 1477 -1
3118 3118 3
3119 241 -1
3119 242 -1
3119 570 -1
3119 3119 3
3120 35 -1
3120 57 -1
3120 2451 -1
3120 3120 3
3121 2127 -1
3121 2186 -1
3121 2658 -1
3121 3121 3
3122 1270 -1
3122 2668 -1
3122 2807 -1
3122 3122 3
3123 107 -1
3123 335 -1
3123 1806 -1
3123 3123 3
3124 1728 -1
3124 2308 -1
3124 3025 -1
3124 3124 4
3125 350 -1
3125 707 -1
3125 1466 -1
3125 3125 3
3126 13 -1
3126 546 -1
3126 642 -1
3126 3126 5
3127 303 -1
3127 1631 -1
3127 1897 -1
3127 3127 4
3128 117 -1
3128 258 -1
3128 1576 -1
3128 3128 4
3129 1053 -1
3129 1881 -1
3129 2566 -1
3129 3129 3
3130 8 -1
3130 1271 -1
3130 2396 -1
3130 3130 3
3131 115 -1
3131 286 -1
3131 1203 -1
3131 3131 3
3132 674 -1
3132 934 -1
3132 2135 -1
3132 3132 3
3133 335 -1
3133 2280 -1
3133 2583 -1
3133 3133 4
3134 888 -1
3134 1135 -1
3134 1546 -1
3134 3134 4
3135 51 -1
3135 474 -1
3135 1775 -1
3135 3135 3
3136 838 -1
3136 847 -1
3136 857 -1
3136 3136 3
3137 363 -1
3137 2275 -1
3137 2691 -1
3137 3137 3
3138 423 -1
3138 1285 -1
3138 1757 -1
3138 3138 4
3139 260 -1
3139 1035 -1
3139 1147 -1
3139 3139 3
3140 5 -1
3140 17 -1
3140 1344 -1
3140 3140 3
3141 135 -1
3141 766 -1
3141 1953 -1
3141 3141 4
3142 178 -1
3142 351 -1
3142 2753 -1
3142 3142 3
3143 5 -1
3143 952 -1
3143 2355 -1
3143 3143 3
3144 209 -1
3144 270 -1
3144 545 -1
3144 3144 5
3145 67 -1
3145 1057 -1
3145 1227 -1
3145 3145 4
3146 114 -1
3146 258 -1
3146 1862 -1
3146 3146 3
3147 27 -1
3147 829 -1
3147 1464 -1
3147 3147 4
3148 191 -1
3148 572 -1
3148 2818 -1
3148 3148 3
3149 609 -1
3149 1282 -1
3149 2500 -1
3149 3149 4
3150 325 -1
3150 350 -1
3150 3075 -1
3150 3150 3
3151 14 -1
3151 579 -1
3151 2774 -1
3151 3151 3
3152 11 -1
3152 648 -1
3152 1125 -1
3152 3152 3
3153 861 -1
3153 1216 -1
3153 1690 -1
3153 3153 3
3154 1598 -1
3154 2725 -1
3154 2766 -1
3154 3154 4
3155 13 -1
3155 846 -1
3155 1332 -1
3155 3155 4
3156 222 -1
3156 439 -1
3156 675 -1
3156 3156 3
3157 224 -1
3157 1106 -1
3157 2274 -1
3157 3157 6
3158 39 -1
3158 1343 -1
3158 2590 -1
3158 3158 3
3159 123 -1
3159 857 -1
3159 2313 -1
3159 3159 5
3160 61 -1
3160 224 -1
3160 1456 -1
3160 3160 3
3161 1973 -1
3161 2037 -1
3161 2270 -1
3161 3161 3
3162 23 -1
3162 831 -1
3162 2896 -1
3162 3162 5
3163 139 -1
3163 757 -1
3163 839 -1
3163 3163 3
3164 494 -1
3164 2261 -1
3164 2345 -1
3164 3164 3
3165 1384 -1
3165 1979 -1
3165 2822 -1
3165 3165 4
3166 9 -1
3166 166 -1
3166 2153 -1
3166 3166 3
3167 7 -1
3167 315 -1
3167 2696 -1
3167 3167 3
3168 209 -1
3168 900 -1
3168 1851 -1
3168 3168 3
3169 6 -1
3169 2197 -1
3169 2374 -1
3169 3169 3
3170 206 -1
3170 339 -1
3170 2151 -1
3170 3170 3
3171 319 -1
3171 734 -1
3171 3141 -1
3171 3171 3
3172 130 -1
3172 2293 -1
3172 2842 -1
3172 3172 3
3173 8 -1
3173 604 -1
3173 1576 -1
3173 3173 4
3174 4 -1
3174 246 -1
3174 1883 -1
3174 3174 3
3175 5 -1
3175 340 -1
3175 1531 -1
3175 3175 3
3176 931 -1
3176 1345 -1
3176 2440 -1
3176 3176 4
3177 1157 -1
3177 1889 -1
3177 2418 -1
3177 3177 3
3178 6 -1
3178 1650 -1
3178 2091 -1
3178 3178 3
3179 72 -1
3179 205 -1
3179 249 -1
3179 3179 3
3180 547 -1
3180 1830 -1
3180 2133 -1
3180 3180 4
3181 165 -1
3181 238 -1
3181 1554 -1
3181 3181 3
3182 222 -1
3182 510 -1
3182 935 -1
3182 3182 3
3183 118 -1
3183 1576 -1
3183 1705 -1
3183 3183 3
3184 131 -1
3184 877 -1
3184 1864 -1
3184 3184 5
3185 42 -1
3185 1416 -1
3185 2952 -1
3185 3185 3
3186 282 -1
3186 1663 -1
3186 2312 -1
3186 3186 3
3187 35 -1
3187 94 -1
3187 97 -1
3187 3187 3
3188 1422 -1
3188 2040 -1
3188 2775 -1
3188 3188 3
3189 35 -1
3189 264 -1
3189 1939 -1
3189 3189 3
3190 244 -1
3190 1402 -1
3190 2454 -1
3190 3190 3
3191 23 -1
3191 1271 -1
3191 2478 -1
3191 3191 4
3192 14 -1
3192 1405 -1
3192 2133 -1
3192 3192 3
3193 6 -1
3193 620 -1
3193 3092 -1
3193 3193 4
3194 962 -1
3194 1461 -1
3194 1557 -1
3194 3194 3
3195 674 -1
3195 679 -1
3195 2066 -1
3195 3195 3
3196 8 -1
3196 578 -1
3196 1728 -1
3196 3196 3
3197 383 -1
3197 2824 -1
3197 3184 -1
3197 3197 3
3198 57 -1
3198 416 -1
3198 1055 -1
3198 3198 3
3199 82 -1
3199 487 -1
3199 2328 -1
3199 3199 4
3200 451 -1
3200 507 -1
3200 581 -1
3200 3200 3
3201 108 -1
3201 343 -1
3201 1261 -1
3201 3201 3
3202 82 -1
3202 2440 -1
3202 2604 -1
3202 3202 4
3203 16 -1
3203 325 -1
3203 2020 -1
3203 3203 3
3204 1578 -1
3204 2203 -1
3204 3056 -1
3204 3204 5
3205 674 -1
3205 987 -1
3205 1300 -1
3205 3205 3
3206 19 -1
3206 774 -1
3206 2159 -1
3206 3206 4
3207 22 -1
3207 2280 -1
3207 2677 -1
3207 3207 3
3208 317 -1
3208 366 -1
3208 494 -1
3208 3208 4
3209 710 -1
3209 2286 -1
3209 2503 -1
3209 3209 5
3210 648 -1
3210 2806 -1
3210 2893 -1
3210 3210 3
3211 5 -1
3211 13 -1
3211 733 -1
3211 3211 4
3212 71 -1
3212 107 -1
3212 860 -1
3212 3212 3
3213 1 -1
3213 652 -1
3213 2235 -1
3213 3213 3
3214 24 -1
3214 46 -1
3214 606 -1
3214 3214 3
3215 223 -1
3215 1585 -1
3215 3126 -1
3215 3215 3
3216 17 -1
3216 116 -1
3216 708 -1
3216 3216 4
3217 107 -1
3217 273 -1
3217 2032 -1
3217 3217 3
3218 1598 -1
3218 1609 -1
3218 2657 -1
3218 3218 3
3219 27 -1
3219 156 -1
3219 707 -1
3219 3219 4
3220 6 -1
3220 269 -1
3220 1670 -1
3220 3220 3
3221 332 -1
3221 511 -1
3221 1003 -1
3221 3221 3
3222 8 -1
3222 165 -1
3222 1303 -1
3222 3222 3
3223 372 -1
3223 628 -1
3223 879 -1
3223 3223 3
3224 185 -1
3224 2284 -1
3224 2631 -1
3224 3224 3
3225 414 -1
3225 3093 -1
3225 3133 -1
3225 3225 3
3226 1848 -1
3226 2064 -1
3226 2474 -1
3226 3226 4
3227 13 -1
3227 507 -1
3227 760 -1
3227 3227 3
3228 162 -1
3228 987 -1
3228 2760 -1
3228 3228 3
3229 85 -1
3229 817 -1
3229 2456 -1
3229 3229 3
3230 491 -1
3230 1062 -1
3230 2118 -1
3230 3230 3
3231 1275 -1
3231 1392 -1
3231 1472 -1
3231 3231 3
3232 5 -1
3232 2423 -1
3232 2958 -1
3232 3232 4
3233 31 -1
3233 228 -1
3233 1518 -1
3233 3233 3
3234 56 -1
3234 1690 -1
3234 3127 -1
3234 3234 3
3235 9 -1
3235 1397 -1
3235 3058 -1
3235 3235 4
3236 65 -1
3236 330 -1
3236 1054 -1
3236 3236 3
3237 4 -1
3237 292 -1
3237 1598 -1
3237 3237 4
3238 296 -1
3238 884 -1
3238 2602 -1
3238 3238 4
3239 105 -1
3239 660 -1
3239 2217 -1
3239 3239 3
3240 107 -1
3240 985 -1
3240 2908 -1
3240 3240 4
3241 1127 -1
3241 1343 -1
3241 1505 -1
3241 3241 5
3242 453 -1
3242 1875 -1
3242 2197 -1
3242 3242 3
3243 1528 -1
3243 1753 -1
3243 2917 -1
3243 3243 3
3244 249 -1
3244 269 -1
3244 1714 -1
3244 3244 4
3245 5 -1
3245 1860 -1
3245 2390 -1
3245 3245 3
3246 16 -1
3246 989 -1
3246 1642 -1
3246 3246 3
3247 148 -1
3247 1316 -1
3247 1584 -1
3247 3247 4
3248 289 -1
3248 419 -1
3248 1408 -1
3248 3248 3
3249 24 -1
3249 80 -1
3249 2962 -1
3249 3249 3
3250 7 -1
3250 790 -1
3250 1001 -1
3250 3250 3
3251 5 -1
3251 325 -1
3251 1399 -1
3251 3251 3
3252 218 -1
3252 246 -1
3252 1679 -1
3252 3252 3
3253 1 -1
3253 325 -1
3253 1780 -1
3253 3253 3
3254 150 -1
3254 199 -1
3254 1631 -1
3254 3254 3
3255 5 -1
3255 1751 -1
3255 2133 -1
3255 3255 3
3256 121 -1
3256 1774 -1
3256 2258 -1
3256 3256 3
3257 664 -1
3257 1412 -1
3257 2054 -1
3257 3257 3
3258 5 -1
3258 92 -1
3258 1312 -1
3258 3258 3
3259 5 -1
3259 1295 -1
3259 3204 -1
3259 3259 4
3260 2106 -1
3260 2758 -1
3260 2781 -1
3260 3260 3
3261 153 -1
3261 174 -1
3261 1474 -1
3261 3261 3
3262 1742 -1
3262 2542 -1
3262 3024 -1
3262 3262 3
3263 200 -1
3263 1251 -1
3263 1628 -1
3263 3263 3
3264 161 -1
3264 1280 -1
3264 1526 -1
3264 3264 4
3265 105 -1
3265 1473 -1
3265 3029 -1
3265 3265 3
3266 194 -1
3266 399 -1
3266 987 -1
3266 3266 3
3267 689 -1
3267 983 -1
3267 1667 -1
3267 3267 3
3268 38 -1
3268 2152 -1
3268 2439 -1
3268 3268 3
3269 46 -1
3269 81 -1
3269 131 -1
3269 3269 3
3270 781 -1
3270 2042 -1
3270 2955 -1
3270 3270 4
3271 922 -1
3271 1342 -1
3271 2939 -1
3271 3271 3
3272 1705 -1
3272 2098 -1
3272 3035 -1
3272 3272 3
3273 7 -1
3273 10 -1
3273 2541 -1
3273 3273 3
3274 6 -1
3274 57 -1
3274 1583 -1
3274 3274 5
3275 332 -1
3275 390 -1
3275 1496 -1
3275 3275 4
3276 36 -1
3276 81 -1
3276 1148 -1
3276 3276 3
3277 412 -1
3277 1165 -1
3277 3199 -1
3277 3277 3
3278 9 -1
3278 151 -1
3278 926 -1
3278 3278 5
3279 885 -1
3279 1021 -1
3279 2920 -1
3279 3279 4
3280 385 -1
3280 493 -1
3280 1645 -1
3280 3280 5
3281 675 -1
3281 766 -1
3281 2162 -1
3281 3281 3
3282 169 -1
3282 281 -1
3282 1307 -1
3282 3282 3
3283 798 -1
3283 1155 -1
3283 2760 -1
3283 3283 3
3284 5 -1
3284 429 -1
3284 1654 -1
3284 3284 4
3285 57 -1
3285 297 -1
3285 1760 -1
3285 3285 3
3286 370 -1
3286 1619 -1
3286 1869 -1
3286 3286 3
3287 9 -1
3287 90 -1
3287 1797 -1
3287 3287 4
3288 4 -1
3288 302 -1
3288 1552 -1
3288 3288 4
3289 5 -1
3289 10 -1
3289 951 -1
3289 3289 4
3290 407 -1
3290 566 -1
3290 2102 -1
3290 3290 4
3291 7 -1
3291 2052 -1
3291 2942 -1
3291 3291 3
3292 98 -1
3292 184 -1
3292 2945 -1
3292 3292 5
3293 30 -1
3293 673 -1
3293 1931 -1
3293 3293 3
3294 1958 -1
3294 2059 -1
3294 3287 -1
3294 3294 3
3295 1 -1
3295 171 -1
3295 971 -1
3295 3295 3
3296 6 -1
3296 19 -1
3296 2530 -1
3296 3296 3
3297 1 -1
3297 1057 -1
3297 2431 -1
3297 3297 3
3298 57 -1
3298 1213 -1
3298 1248 -1
3298 3298 5
3299 13 -1
3299 844 -1
3299 1049 -1
3299 3299 3
3300 600 -1
3300 1211 -1
3300 1659 -1
3300 3300 4
3301 7 -1
3301 204 -1
3301 2700 -1
3301 3301 3
3302 101 -1
3302 1145 -1
3302 2695 -1
3302 3302 4
3303 42 -1
3303 571 -1
3303 1074 -1
3303 3303 4
3304 203 -1
3304 609 -1
3304 1518 -1
3304 3304 5
3305 137 -1
3305 1345 -1
3305 2701 -1
3305 3305 3
3306 931 -1
3306 1576 -1
3306 3093 -1
3306 3306 4
3307 962 -1
3307 1057 -1
3307 2792 -1
3307 3307 4
3308 116 -1
3308 231 -1
3308 360 -1
3308 3308 5
3309 5 -1
3309 699 -1
3309 1421 -1
3309 3309 3
3310 1103 -1
3310 1248 -1
3310 2860 -1
3310 3310 3
3311 11 -1
3311 95 -1
3311 1051 -1
3311 3311 3
3312 484 -1
3312 2914 -1
3312 3062 -1
3312 3312 4
3313 14 -1
3313 1889 -1
3313 2336 -1
3313 3313 4
3314 52 -1
3314 92 -1
3314 1461 -1
3314 3314 4
3315 668 -1
3315 1425 -1
3315 1500 -1
3315 3315 3
3316 271 -1
3316 1854 -1
3316 2834 -1
3316 3316 3
3317 71 -1
3317 369 -1
3317 2828 -1
3317 3317 4
3318 6 -1
3318 798 -1
3318 1521 -1
3318 3318 4
3319 27 -1
3319 1080 -1
3319 2911 -1
3319 3319 4
3320 6 -1
3320 41 -1
3320 116 -1
3320 3320 3
3321 450 -1
3321 1066 -1
3321 1831 -1
3321 3321 4
3322 142 -1
3322 488 -1
3322 3126 -1
3322 3322 3
3323 259 -1
3323 410 -1
3323 2318 -1
3323 3323 5
3324 348 -1
3324 811 -1
3324 863 -1
3324 3324 4
3325 29 -1
3325 122 -1
3325 123 -1
3325 3325 3
3326 42 -1
3326 281 -1
3326 445 -1
3326 3326 3
3327 7 -1
3327 985 -1
3327 1829 -1
3327 3327 3
3328 592 -1
3328 1353 -1
3328 1371 -1
3328 3328 3
3329 123 -1
3329 305 -1
3329 1305 -1
3329 3329 3
3330 284 -1
3330 1728 -1
3330 1825 -1
3330 3330 3
3331 47 -1
3331 1296 -1
3331 3280 -1
3331 3331 3
3332 97 -1
3332 2398 -1
3332 2399 -1
3332 3332 3
3333 1 -1
3333 685 -1
3333 3165 -1
3333 3333 3
3334 7 -1
3334 179 -1
3334 367 -1
3334 3334 3
3335 305 -1
3335 700 -1
3335 1714 -1
3335 3335 3
3336 11 -1
3336 16 -1
3336 342 -1
3336 3336 3
3337 7 -1
3337 1511 -1
3337 2319 -1
3337 3337 3
3338 145 -1
3338 308 -1
3338 442 -1
3338 3338 3
3339 28 -1
3339 219 -1
3339 1614 -1
3339 3339 5
3340 16 -1
3340 315 -1
3340 2197 -1
3340 3340 3
3341 61 -1
3341 151 -1
3341 1004 -1
3341 3341 3
3342 99 -1
3342 420 -1
3342 2100 -1
3342 3342 3
3343 353 -1
3343 1858 -1
3343 1929 -1
3343 3343 4
3344 145 -1
3344 2483 -1
3344 2828 -1
3344 3344 3
3345 606 -1
3345 1031 -1
3345 1064 -1
3345 3345 3
3346 57 -1
3346 564 -1
3346 593 -1
3346 3346 3
3347 199 -1
3347 372 -1
3347 3241 -1
3347 3347 3
3348 547 -1
3348 1058 -1
3348 3134 -1
3348 3348 3
3349 1403 -1
3349 1932 -1
3349 1944 -1
3349 3349 4
3350 350 -1
3350 1251 -1
3350 2242 -1
3350 3350 3
3351 340 -1
3351 755 -1
3351 1331 -1
3351 3351 4
3352 20 -1
3352 23 -1
3352 244 -1
3352 3352 3
3353 8 -1
3353 50 -1
3353 150 -1
3353 3353 3
3354 765 -1
3354 1703 -1
3354 1957 -1
3354 3354 3
3355 11 -1
3355 822 -1
3355 3191 -1
3355 3355 3
3356 67 -1
3356 1549 -1
3356 1689 -1
3356 3356 3
3357 1593 -1
3357 1876 -1
3357 3298 -1
3357 3357 3
3358 26 -1
3358 51 -1
3358 2603 -1
3358 3358 3
3359 57 -1
3359 793 -1
3359 3206 -1
3359 3359 3
3360 209 -1
3360 244 -1
3360 2278 -1
3360 3360 3
3361 171 -1
3361 1881 -1
3361 2179 -1
3361 3361 3
3362 186 -1
3362 621 -1
3362 788 -1
3362 3362 3
3363 377 -1
3363 600 -1
3363 602 -1
3363 3363 3
3364 1673 -1
3364 2556 -1
3364 3279 -1
3364 3364 3
3365 370 -1
3365 3095 -1
3365 3162 -1
3365 3365 4
3366 400 -1
3366 1418 -1
3366 2290 -1
3366 3366 4
3367 7 -1
3367 576 -1
3367 1798 -1
3367 3367 3
3368 209 -1
3368 416 -1
3368 432 -1
3368 3368 3
3369 21 -1
3369 157 -1
3369 330 -1
3369 3369 4
3370 10 -1
3370 1261 -1
3370 2551 -1
3370 3370 4
3371 557 -1
3371 1814 -1
3371 2629 -1
3371 3371 3
3372 10 -1
3372 343 -1
3372 2056 -1
3372 3372 3
3373 8 -1
3373 40 -1
3373 119 -1
3373 3373 3
3374 10 -1
3374 406 -1
3374 1958 -1
3374 3374 3
3375 167 -1
3375 441 -1
3375 983 -1
3375 3375 3
3376 37 -1
3376 781 -1
3376 1590 -1
3376 3376 4
3377 1065 -1
3377 1969 -1
3377 3202 -1
3377 3377 5
3378 1 -1
3378 55 -1
3378 243 -1
3378 3378 3
3379 33 -1
3379 534 -1
3379 1555 -1
3379 3379 3
3380 955 -1
3380 1199 -1
3380 1434 -1
3380 3380 3
3381 442 -1
3381 1859 -1
3381 2159 -1
3381 3381 3
3382 6 -1
3382 48 -1
3382 52 -1
3382 3382 3
3383 556 -1
3383 965 -1
3383 1433 -1
3383 3383 3
3384 118 -1
3384 496 -1
3384 753 -1
3384 3384 5
3385 132 -1
3385 732 -1
3385 1115 -1
3385 3385 3
3386 49 -1
3386 1315 -1
3386 1464 -1
3386 3386 3
3387 939 -1
3387 2022 -1
3387 2037 -1
3387 3387 3
3388 218 -1
3388 2372 -1
3388 2881 -1
3388 3388 4
3389 114 -1
3389 164 -1
3389 792 -1
3389 3389 3
3390 568 -1
3390 1039 -1
3390 1050 -1
3390 3390 3
3391 1477 -1
3391 1869 -1
3391 2047 -1
3391 3391 3
3392 151 -1
3392 1339 -1
3392 2349 -1
3392 3392 3
3393 2 -1
3393 416 -1
3393 3211 -1
3393 3393 3
3394 111 -1
3394 1036 -1
3394 1610 -1
3394 3394 3
3395 607 -1
3395 1353 -1
3395 1793 -1
3395 3395 3
3396 294 -1
3396 694 -1
3396 1533 -1
3396 3396 3
3397 2674 -1
3397 2779 -1
3397 3193 -1
3397 3397 3
3398 448 -1
3398 1146 -1
3398 2104 -1
3398 3398 3
3399 186 -1
3399 357 -1
3399 829 -1
3399 3399 3
3400 2123 -1
3400 2781 -1
3400 2784 -1
3400 3400 3
3401 2047 -1
3401 2726 -1
3401 2837 -1
3401 3401 3
3402 981 -1
3402 1761 -1
3402 2539 -1
3402 3402 4
3403 686 -1
3403 2045 -1
3403 2873 -1
3403 3403 3
3404 280 -1
3404 546 -1
3404 824 -1
3404 3404 3
3405 1650 -1
3405 2193 -1
3405 3092 -1
3405 3405 3
3406 203 -1
3406 1135 -1
3406 1202 -1
3406 3406 3
3407 1112 -1
3407 1131 -1
3407 2472 -1
3407 3407 3
3408 9 -1
3408 669 -1
3408 1197 -1
3408 3408 3
3409 158 -1
3409 1299 -1
3409 1728 -1
3409 3409 3
3410 333 -1
3410 491 -1
3410 862 -1
3410 3410 3
3411 466 -1
3411 737 -1
3411 3010 -1
3411 3411 3
3412 168 -1
3412 462 -1
3412 2431 -1
3412 3412 3
3413 20 -1
3413 193 -1
3413 399 -1
3413 3413 3
3414 228 -1
3414 2544 -1
3414 3092 -1
3414 3414 3
3415 3 -1
3415 294 -1
3415 2801 -1
3415 3415 4
3416 287 -1
3416 1546 -1
3416 2467 -1
3416 3416 3
3417 498 -1
3417 581 -1
3417 1844 -1
3417 3417 3
3418 57 -1
3418 91 -1
3418 1502 -1
3418 3418 3
3419 67 -1
3419 138 -1
3419 984 -1
3419 3419 3
3420 574 -1
3420 1280 -1
3420 1454 -1
3420 3420 3
3421 96 -1
3421 153 -1
3421 803 -1
3421 3421 3
3422 152 -1
3422 261 -1
3422 2804 -1
3422 3422 4
3423 430 -1
3423 1152 -1
3423 1513 -1
3423 3423 3
3424 5 -1
3424 651 -1
3424 1247 -1
3424 3424 3
3425 10 -1
3425 335 -1
3425 393 -1
3425 3425 3
3426 1097 -1
3426 1826 -1
3426 2145 -1
3426 3426 3
3427 135 -1
3427 348 -1
3427 1077 -1
3427 3427 3
3428 114 -1
3428 204 -1
3428 1502 -1
3428 3428 3
3429 38 -1
3429 756 -1
3429 3302 -1
3429 3429 3
3430 50 -1
3430 1171 -1
3430 1639 -1
3430 3430 4
3431 5 -1
3431 390 -1
3431 578 -1
3431 3431 3
3432 68 -1
3432 734 -1
3432 2219 -1
3432 3432 3
3433 330 -1
3433 2581 -1
3433 2803 -1
3433 3433 3
3434 62 -1
3434 1246 -1
3434 2174 -1
3434 3434 3
3435 118 -1
3435 203 -1
3435 1818 -1
3435 3435 3
3436 1019 -1
3436 1433 -1
3436 3209 -1
3436 3436 3
3437 15 -1
3437 2523 -1
3437 2563 -1
3437 3437 3
3438 472 -1
3438 1029 -1
3438 1713 -1
3438 3438 4
3439 987 -1
3439 1148 -1
3439 2345 -1
3439 3439 3
3440 403 -1
3440 2399 -1
3440 3053 -1
3440 3440 3
3441 23 -1
3441 762 -1
3441 888 -1
3441 3441 3
3442 704 -1
3442 1672 -1
3442 3157 -1
3442 3442 3
3443 56 -1
3443 1940 -1
3443 2733 -1
3443 3443 7
3444 74 -1
3444 695 -1
3444 1859 -1
3444 3444 3
3445 1627 -1
3445 2206 -1
3445 2328 -1
3445 3445 3
3446 400 -1
3446 1784 -1
3446 3209 -1
3446 3446 3
3447 130 -1
3447 179 -1
3447 3103 -1
3447 3447 3
3448 444 -1
3448 763 -1
3448 1807 -1
3448 3448 3
3449 1 -1
3449 90 -1
3449 3443 -1
3449 3449 4
3450 1757 -1
3450 2138 -1
3450 3323 -1
3450 3450 4
3451 212 -1
3451 1686 -1
3451 2086 -1
3451 3451 3
3452 351 -1
3452 1220 -1
3452 1955 -1
3452 3452 3
3453 61 -1
3453 1032 -1
3453 2596 -1
3453 3453 3
3454 333 -1
3454 1799 -1
3454 2469 -1
3454 3454 3
3455 60 -1
3455 61 -1
3455 1667 -1
3455 3455 3
3456 573 -1
3456 777 -1
3456 3023 -1
3456 3456 3
3457 23 -1
3457 844 -1
3457 2208 -1
3457 3457 3
3458 150 -1
3458 1023 -1
3458 1090 -1
3458 3458 3
3459 378 -1
3459 383 -1
3459 1375 -1
3459 3459 3
3460 8 -1
3460 1276 -1
3460 1593 -1
3460 3460 3
3461 324 -1
3461 1273 -1
3461 2867 -1
3461 3461 4
3462 317 -1
3462 974 -1
3462 2835 -1
3462 3462 4
3463 11 -1
3463 670 -1
3463 1788 -1
3463 3463 3
3464 861 -1
3464 2139 -1
3464 2247 -1
3464 3464 3
3465 461 -1
3465 608 -1
3465 2933 -1
3465 3465 3
3466 233 -1
3466 379 -1
3466 2615 -1
3466 3466 3
3467 230 -1
3467 713 -1
3467 1131 -1
3467 3467 3
3468 254 -1
3468 749 -1
3468 1695 -1
3468 3468 3
3469 33 -1
3469 2596 -1
3469 2700 -1
3469 3469 3
3470 71 -1
3470 1698 -1
3470 3144 -1
3470 3470 4
3471 1058 -1
3471 1112 -1
3471 2510 -1
3471 3471 4
3472 44 -1
3472 982 -1
3472 1105 -1
3472 3472 3
3473 6 -1
3473 200 -1
3473 627 -1
3473 3473 4
3474 274 -1
3474 962 -1
3474 1230 -1
3474 3474 3
3475 1450 -1
3475 2875 -1
3475 3112 -1
3475 3475 3
3476 17 -1
3476 482 -1
3476 2530 -1
3476 3476 3
3477 78 -1
3477 350 -1
3477 501 -1
3477 3477 3
3478 1096 -1
3478 1403 -1
3478 1897 -1
3478 3478 3
3479 1076 -1
3479 2139 -1
3479 3351 -1
3479 3479 5
3480 22 -1
3480 1364 -1
3480 2270 -1
3480 3480 4
3481 984 -1
3481 2363 -1
3481 3377 -1
3481 3481 3
3482 198 -1
3482 1005 -1
3482 2104 -1
3482 3482 3
3483 440 -1
3483 525 -1
3483 1815 -1
3483 3483 3
3484 200 -1
3484 713 -1
3484 866 -1
3484 3484 3
3485 62 -1
3485 190 -1
3485 2940 -1
3485 3485 3
3486 368 -1
3486 1190 -1
3486 1257 -1
3486 3486 3
3487 1 -1
3487 26 -1
3487 129 -1
3487 3487 3
3488 369 -1
3488 421 -1
3488 2017 -1
3488 3488 4
3489 469 -1
3489 578 -1
3489 2758 -1
3489 3489 3
3490 48 -1
3490 2243 -1
3490 2466 -1
3490 3490 3
3491 1064 -1
3491 1136 -1
3491 2767 -1
3491 3491 3
3492 29 -1
3492 149 -1
3492 247 -1
3492 3492 3
3493 403 -1
3493 2085 -1
3493 2526 -1
3493 3493 3
3494 1065 -1
3494 1880 -1
3494 2184 -1
3494 3494 4
3495 19 -1
3495 62 -1
3495 1341 -1
3495 3495 3
3496 96 -1
3496 114 -1
3496 1372 -1
3496 3496 3
3497 1056 -1
3497 1229 -1
3497 2286 -1
3497 3497 3
3498 376 -1
3498 454 -1
3498 2523 -1
3498 3498 3
3499 19 -1
3499 189 -1
3499 2394 -1
3499 3499 3
3500 8 -1
3500 769 -1
3500 1826 -1
3500 3500 3
3501 102 -1
3501 156 -1
3501 935 -1
3501 3501 3
3502 552 -1
3502 971 -1
3502 3318 -1
3502 3502 3
3503 7 -1
3503 452 -1
3503 2923 -1
3503 3503 3
3504 427 -1
3504 923 -1
3504 2138 -1
3504 3504 5
3505 7 -1
3505 111 -1
3505 707 -1
3505 3505 3
3506 975 -1
3506 1959 -1
3506 2410 -1
3506 3506 4
3507 4 -1
3507 172 -1
3507 200 -1
3507 3507 3
3508 264 -1
3508 572 -1
3508 1184 -1
3508 3508 3
3509 2859 -1
3509 3470 -1
3509 3504 -1
3509 3509 4
3510 40 -1
3510 1211 -1
3510 1687 -1
3510 3510 4
3511 26 -1
3511 2428 -1
3511 3270 -1
3511 3511 3
3512 7 -1
3512 269 -1
3512 367 -1
3512 3512 4
3513 98 -1
3513 1105 -1
3513 1367 -1
3513 3513 3
3514 17 -1
3514 923 -1
3514 1306 -1
3514 3514 3
3515 91 -1
3515 156 -1
3515 2306 -1
3515 3515 3
3516 30 -1
3516 83 -1
3516 1417 -1
3516 3516 3
3517 324 -1
3517 531 -1
3517 1208 -1
3517 3517 3
3518 11 -1
3518 239 -1
3518 920 -1
3518 3518 4
3519 106 -1
3519 570 -1
3519 2802 -1
3519 3519 3
3520 2 -1
3520 1790 -1
3520 3073 -1
3520 3520 3
3521 348 -1
3521 949 -1
3521 3415 -1
3521 3521 3
3522 126 -1
3522 993 -1
3522 2161 -1
3522 3522 3
3523 350 -1
3523 663 -1
3523 2340 -1
3523 3523 4
3524 350 -1
3524 1171 -1
3524 1476 -1
3524 3524 3
3525 85 -1
3525 292 -1
3525 393 -1
3525 3525 4
3526 23 -1
3526 116 -1
3526 295 -1
3526 3526 3
3527 199 -1
3527 1165 -1
3527 2509 -1
3527 3527 3
3528 100 -1
3528 364 -1
3528 1524 -1
3528 3528 3
3529 243 -1
3529 466 -1
3529 1106 -1
3529 3529 4
3530 26 -1
3530 371 -1
3530 1197 -1
3530 3530 3
3531 143 -1
3531 1650 -1
3531 3274 -1
3531 3531 3
3532 442 -1
3532 1732 -1
3532 3112 -1
3532 3532 3
3533 159 -1
3533 673 -1
3533 1379 -1
3533 3533 3
3534 192 -1
3534 385 -1
3534 3443 -1
3534 3534 3
3535 393 -1
3535 729 -1
3535 1511 -1
3535 3535 4
3536 961 -1
3536 1740 -1
3536 3473 -1
3536 3536 3
3537 372 -1
3537 482 -1
3537 1883 -1
3537 3537 3
3538 7 -1
3538 82 -1
3538 2455 -1
3538 3538 3
3539 67 -1
3539 552 -1
3539 2794 -1
3539 3539 3
3540 7 -1
3540 71 -1
3540 784 -1
3540 3540 4
3541 23 -1
3541 76 -1
3541 119 -1
3541 3541 4
3542 10 -1
3542 681 -1
3542 1690 -1
3542 3542 3
3543 290 -1
3543 418 -1
3543 636 -1
3543 3543 3
3544 157 -1
3544 437 -1
3544 3388 -1
3544 3544 3
3545 38 -1
3545 509 -1
3545 2727 -1
3545 3545 3
3546 6 -1
3546 231 -1
3546 1623 -1
3546 3546 3
3547 40 -1
3547 1069 -1
3547 1345 -1
3547 3547 3
3548 145 -1
3548 1201 -1
3548 2955 -1
3548 3548 3
3549 74 -1
3549 173 -1
3549 1519 -1
3549 3549 3
3550 5 -1
3550 1522 -1
3550 3518 -1
3550 3550 3
3551 35 -1
3551 2269 -1
3551 2848 -1
3551 3551 3
3552 8 -1
3552 365 -1
3552 636 -1
3552 3552 4
3553 5 -1
3553 1254 -1
3553 1875 -1
3553 3553 3
3554 140 -1
3554 1068 -1
3554 1663 -1
3554 3554 3
3555 117 -1
3555 1218 -1
3555 1239 -1
3555 3555 4
3556 21 -1
3556 2851 -1
3556 3324 -1
3556 3556 3
3557 39 -1
3557 1760 -1
3557 2419 -1
3557 3557 3
3558 26 -1
3558 56 -1
3558 356 -1
3558 3558 4
3559 148 -1
3559 324 -1
3559 591 -1
3559 3559 3
3560 288 -1
3560 776 -1
3560 1695 -1
3560 3560 5
3561 212 -1
3561 243 -1
3561 689 -1
3561 3561 3
3562 239 -1
3562 952 -1
3562 3240 -1
3562 3562 3
3563 98 -1
3563 233 -1
3563 1294 -1
3563 3563 3
3564 430 -1
3564 2331 -1
3564 2554 -1
3564 3564 3
3565 806 -1
3565 900 -1
3565 1082 -1
3565 3565 3
3566 967 -1
3566 1341 -1
3566 2319 -1
3566 3566 3
3567 5 -1
3567 1363 -1
3567 3312 -1
3567 3567 3
3568 7 -1
3568 11 -1
3568 2355 -1
3568 3568 4
3569 1103 -1
3569 1488 -1
3569 2875 -1
3569 3569 3
3570 440 -1
3570 1967 -1
3570 2631 -1
3570 3570 3
3571 658 -1
3571 2066 -1
3571 2178 -1
3571 3571 3
3572 111 -1
3572 2414 -1
3572 2574 -1
3572 3572 3
3573 97 -1
3573 1836 -1
3573 2763 -1
3573 3573 3
3574 5 -1
3574 132 -1
3574 200 -1
3574 3574 4
3575 138 -1
3575 458 -1
3575 609 -1
3575 3575 3
3576 199 -1
3576 1643 -1
3576 2937 -1
3576 3576 3
3577 630 -1
3577 963 -1
3577 2466 -1
3577 3577 4
3578 4 -1
3578 26 -1
3578 2081 -1
3578 3578 4
3579 103 -1
3579 1220 -1
3579 1550 -1
3579 3579 3
3580 1697 -1
3580 2052 -1
3580 3313 -1
3580 3580 3
3581 326 -1
3581 396 -1
3581 1823 -1
3581 3581 3
3582 85 -1
3582 1072 -1
3582 2566 -1
3582 3582 3
3583 26 -1
3583 218 -1
3583 1039 -1
3583 3583 3
3584 31 -1
3584 50 -1
3584 2047 -1
3584 3584 3
3585 740 -1
3585 2274 -1
3585 2687 -1
3585 3585 4
3586 23 -1
3586 571 -1
3586 2041 -1
3586 3586 3
3587 43 -1
3587 2677 -1
3587 3504 -1
3587 3587 3
3588 117 -1
3588 2236 -1
3588 3216 -1
3588 3588 3
3589 209 -1
3589 683 -1
3589 2105 -1
3589 3589 3
3590 890 -1
3590 1064 -1
3590 3092 -1
3590 3590 3
3591 282 -1
3591 1907 -1
3591 2386 -1
3591 3591 3
3592 324 -1
3592 2672 -1
3592 3471 -1
3592 3592 3
3593 4 -1
3593 2014 -1
3593 3558 -1
3593 3593 5
3594 151 -1
3594 1351 -1
3594 2319 -1
3594 3594 3
3595 7 -1
3595 330 -1
3595 1327 -1
3595 3595 3
3596 151 -1
3596 1977 -1
3596 3449 -1
3596 3596 3
3597 268 -1
3597 811 -1
3597 1524 -1
3597 3597 3
3598 808 -1
3598 1248 -1
3598 1871 -1
3598 3598 3
3599 118 -1
3599 1392 -1
3599 3292 -1
3599 3599 3
3600 30 -1
3600 885 -1
3600 3162 -1
3600 3600 4
3601 66 -1
3601 350 -1
3601 641 -1
3601 3601 3
3602 987 -1
3602 1577 -1
3602 2175 -1
3602 3602 3
3603 276 -1
3603 442 -1
3603 2835 -1
3603 3603 4
3604 649 -1
3604 909 -1
3604 2313 -1
3604 3604 3
3605 1218 -1
3605 1654 -1
3605 2915 -1
3605 3605 3
3606 885 -1
3606 2094 -1
3606 3204 -1
3606 3606 3
3607 239 -1
3607 1685 -1
3607 2251 -1
3607 3607 3
3608 286 -1
3608 600 -1
3608 1096 -1
3608 3608 3
3609 66 -1
3609 236 -1
3609 1884 -1
3609 3609 4
3610 109 -1
3610 287 -1
3610 1686 -1
3610 3610 4
3611 24 -1
3611 28 -1
3611 923 -1
3611 3611 3
3612 12 -1
3612 35 -1
3612 48 -1
3612 3612 3
3613 2280 -1
3613 2285 -1
3613 2870 -1
3613 3613 3
3614 1578 -1
3614 2357 -1
3614 3578 -1
3614 3614 4
3615 98 -1
3615 320 -1
3615 935 -1
3615 3615 3
3616 737 -1
3616 814 -1
3616 1021 -1
3616 3616 3
3617 997 -1
3617 2660 -1
3617 2748 -1
3617 3617 4
3618 35 -1
3618 201 -1
3618 1973 -1
3618 3618 3
3619 950 -1
3619 1017 -1
3619 1164 -1
3619 3619 3
3620 35 -1
3620 1001 -1
3620 1051 -1
3620 3620 3
3621 246 -1
3621 2236 -1
3621 2410 -1
3621 3621 3
3622 7 -1
3622 135 -1
3622 3092 -1
3622 3622 5
3623 439 -1
3623 572 -1
3623 3479 -1
3623 3623 3
3624 12 -1
3624 1604 -1
3624 2066 -1
3624 3624 3
3625 354 -1
3625 684 -1
3625 806 -1
3625 3625 3
3626 1 -1
3626 1872 -1
3626 2440 -1
3626 3626 3
3627 75 -1
3627 2613 -1
3627 2653 -1
3627 3627 3
3628 46 -1
3628 55 -1
3628 554 -1
3628 3628 4
3629 30 -1
3629 412 -1
3629 3184 -1
3629 3629 3
3630 232 -1
3630 532 -1
3630 1156 -1
3630 3630 3
3631 43 -1
3631 2055 -1
3631 2856 -1
3631 3631 3
3632 1057 -1
3632 1289 -1
3632 1455 -1
3632 3632 3
3633 1844 -1
3633 1957 -1
3633 2657 -1
3633 3633 3
3634 433 -1
3634 2024 -1
3634 3304 -1
3634 3634 3
3635 1725 -1
3635 1877 -1
3635 2028 -1
3635 3635 3
3636 798 -1
3636 1312 -1
3636 1976 -1
3636 3636 3
3637 316 -1
3637 2070 -1
3637 3339 -1
3637 3637 4
3638 48 -1
3638 500 -1
3638 1807 -1
3638 3638 3
3639 20 -1
3639 808 -1
3639 1528 -1
3639 3639 3
3640 7 -1
3640 230 -1
3640 2942 -1
3640 3640 4
3641 350 -1
3641 1307 -1
3641 2901 -1
3641 3641 3
3642 218 -1
3642 306 -1
3642 456 -1
3642 3642 3
3643 442 -1
3643 1811 -1
3643 2175 -1
3643 3643 3
3644 417 -1
3644 1997 -1
3644 3609 -1
3644 3644 3
3645 5 -1
3645 760 -1
3645 3488 -1
3645 3645 3
3646 94 -1
3646 461 -1
3646 1763 -1
3646 3646 3
3647 35 -1
3647 253 -1
3647 1781 -1
3647 3647 3
3648 1279 -1
3648 2430 -1
3648 3317 -1
3648 3648 3
3649 8 -1
3649 1167 -1
3649 3349 -1
3649 3649 3
3650 256 -1
3650 1415 -1
3650 2340 -1
3650 3650 3
3651 2 -1
3651 552 -1
3651 1392 -1
3651 3651 3
3652 1608 -1
3652 2105 -1
3652 3319 -1
3652 3652 3
3653 479 -1
3653 785 -1
3653 1289 -1
3653 3653 3
3654 46 -1
3654 1631 -1
3654 2759 -1
3654 3654 3
3655 11 -1
3655 376 -1
3655 479 -1
3655 3655 3
3656 1649 -1
3656 1888 -1
3656 3000 -1
3656 3656 3
3657 282 -1
3657 635 -1
3657 921 -1
3657 3657 3
3658 1173 -1
3658 2956 -1
3658 3622 -1
3658 3658 3
3659 420 -1
3659 1159 -1
3659 1319 -1
3659 3659 3
3660 7 -1
3660 934 -1
3660 2251 -1
3660 3660 3
3661 11 -1
3661 121 -1
3661 163 -1
3661 3661 3
3662 81 -1
3662 214 -1
3662 698 -1
3662 3662 3
3663 571 -1
3663 1207 -1
3663 1410 -1
3663 3663 3
3664 270 -1
3664 597 -1
3664 3640 -1
3664 3664 3
3665 48 -1
3665 464 -1
3665 845 -1
3665 3665 3
3666 497 -1
3666 2139 -1
3666 2690 -1
3666 3666 3
3667 77 -1
3667 1821 -1
3667 3149 -1
3667 3667 3
3668 157 -1
3668 348 -1
3668 3284 -1
3668 3668 3
3669 590 -1
3669 1320 -1
3669 2062 -1
3669 3669 3
3670 138 -1
3670 3072 -1
3670 3510 -1
3670 3670 3
3671 1174 -1
3671 1224 -1
3671 1950 -1
3671 3671 3
3672 404 -1
3672 635 -1
3672 1418 -1
3672 3672 3
3673 29 -1
3673 482 -1
3673 490 -1
3673 3673 3
3674 605 -1
3674 884 -1
3674 1031 -1
3674 3674 3
3675 310 -1
3675 1301 -1
3675 2135 -1
3675 3675 3
3676 152 -1
3676 699 -1
3676 871 -1
3676 3676 3
3677 5 -1
3677 29 -1
3677 3154 -1
3677 3677 3
3678 34 -1
3678 341 -1
3678 3226 -1
3678 3678 3
3679 1040 -1
3679 2123 -1
3679 2317 -1
3679 3679 3
3680 693 -1
3680 1749 -1
3680 1997 -1
3680 3680 3
3681 2842 -1
3681 3289 -1
3681 3628 -1
3681 3681 3
3682 43 -1
3682 1062 -1
3682 1199 -1
3682 3682 3
3683 1 -1
3683 2162 -1
3683 2943 -1
3683 3683 3
3684 205 -1
3684 1314 -1
3684 2519 -1
3684 3684 3
3685 1199 -1
3685 1583 -1
3685 2733 -1
3685 3685 3
3686 67 -1
3686 1586 -1
3686 3288 -1
3686 3686 3
3687 800 -1
3687 1551 -1
3687 3637 -1
3687 3687 4
3688 191 -1
3688 725 -1
3688 3274 -1
3688 3688 3
3689 437 -1
3689 1690 -1
3689 2747 -1
3689 3689 3
3690 321 -1
3690 1400 -1
3690 3138 -1
3690 3690 3
3691 294 -1
3691 889 -1
3691 3450 -1
3691 3691 3
3692 7 -1
3692 11 -1
3692 1595 -1
3692 3692 3
3693 370 -1
3693 837 -1
3693 1223 -1
3693 3693 3
3694 75 -1
3694 298 -1
3694 981 -1
3694 3694 3
3695 661 -1
3695 2127 -1
3695 2143 -1
3695 3695 3
3696 103 -1
3696 121 -1
3696 649 -1
3696 3696 3
3697 26 -1
3697 1846 -1
3697 2302 -1
3697 3697 3
3698 579 -1
3698 1173 -1
3698 2589 -1
3698 3698 4
3699 35 -1
3699 310 -1
3699 2139 -1
3699 3699 3
3700 10 -1
3700 1549 -1
3700 2886 -1
3700 3700 3
3701 479 -1
3701 2154 -1
3701 2996 -1
3701 3701 4
3702 13 -1
3702 16 -1
3702 718 -1
3702 3702 3
3703 299 -1
3703 1664 -1
3703 3173 -1
3703 3703 3
3704 897 -1
3704 1550 -1
3704 2502 -1
3704 3704 3
3705 47 -1
3705 509 -1
3705 675 -1
3705 3705 4
3706 794 -1
3706 1593 -1
3706 2638 -1
3706 3706 3
3707 125 -1
3707 1072 -1
3707 1149 -1
3707 3707 4
3708 7 -1
3708 53 -1
3708 3560 -1
3708 3708 4
3709 560 -1
3709 3147 -1
3709 3708 -1
3709 3709 3
3710 396 -1
3710 1688 -1
3710 2336 -1
3710 3710 3
3711 311 -1
3711 528 -1
3711 922 -1
3711 3711 3
3712 43 -1
3712 1945 -1
3712 2591 -1
3712 3712 4
3713 290 -1
3713 644 -1
3713 2818 -1
3713 3713 3
3714 1663 -1
3714 1852 -1
3714 3244 -1
3714 3714 4
3715 45 -1
3715 114 -1
3715 607 -1
3715 3715 3
3716 9 -1
3716 189 -1
3716 1297 -1
3716 3716 3
3717 190 -1
3717 652 -1
3717 2036 -1
3717 3717 3
3718 329 -1
3718 2672 -1
3718 3259 -1
3718 3718 3
3719 12 -1
3719 1658 -1
3719 2875 -1
3719 3719 3
3720 5 -1
3720 30 -1
3720 1821 -1
3720 3720 3
3721 1299 -1
3721 2090 -1
3721 3555 -1
3721 3721 3
3722 233 -1
3722 658 -1
3722 2208 -1
3722 3722 3
3723 7 -1
3723 667 -1
3723 2434 -1
3723 3723 3
3724 5 -1
3724 79 -1
3724 640 -1
3724 3724 3
3725 670 -1
3725 2675 -1
3725 3506 -1
3725 3725 3
3726 22 -1
3726 2787 -1
3726 3000 -1
3726 3726 3
3727 129 -1
3727 335 -1
3727 3208 -1
3727 3727 3
3728 286 -1
3728 1498 -1
3728 2622 -1
3728 3728 3
3729 239 -1
3729 593 -1
3729 3241 -1
3729 3729 3
3730 350 -1
3730 1628 -1
3730 2100 -1
3730 3730 3
3731 214 -1
3731 552 -1
3731 3124 -1
3731 3731 3
3732 34 -1
3732 687 -1
3732 1414 -1
3732 3732 3
3733 350 -1
3733 1013 -1
3733 2939 -1
3733 3733 4
3734 111 -1
3734 2154 -1
3734 2217 -1
3734 3734 3
3735 2898 -1
3735 2933 -1
3735 3040 -1
3735 3735 3
3736 17 -1
3736 1254 -1
3736 2837 -1
3736 3736 3
3737 233 -1
3737 2824 -1
3737 2947 -1
3737 3737 3
3738 681 -1
3738 867 -1
3738 3600 -1
3738 3738 3
3739 644 -1
3739 990 -1
3739 3275 -1
3739 3739 4
3740 2 -1
3740 986 -1
3740 3033 -1
3740 3740 3
3741 5 -1
3741 7 -1
3741 675 -1
3741 3741 5
3742 217 -1
3742 707 -1
3742 3144 -1
3742 3742 3
3743 6 -1
3743 341 -1
3743 2355 -1
3743 3743 3
3744 483 -1
3744 653 -1
3744 3075 -1
3744 3744 3
3745 1 -1
3745 33 -1
3745 180 -1
3745 3745 5
3746 1634 -1
3746 1989 -1
3746 2137 -1
3746 3746 3
3747 34 -1
3747 568 -1
3747 1157 -1
3747 3747 3
3748 1 -1
3748 1239 -1
3748 1248 -1
3748 3748 3
3749 187 -1
3749 1645 -1
3749 2840 -1
3749 3749 3
3750 568 -1
3750 2920 -1
3750 3603 -1
3750 3750 3
3751 767 -1
3751 2433 -1
3751 3155 -1
3751 3751 3
3752 5 -1
3752 8 -1
3752 2648 -1
3752 3752 3
3753 619 -1
3753 2336 -1
3753 3314 -1
3753 3753 3
3754 443 -1
3754 544 -1
3754 2792 -1
3754 3754 4
3755 122 -1
3755 1298 -1
3755 3622 -1
3755 3755 3
3756 154 -1
3756 204 -1
3756 777 -1
3756 3756 4
3757 112 -1
3757 736 -1
3757 1640 -1
3757 3757 4
3758 123 -1
3758 1183 -1
3758 3292 -1
3758 3758 3
3759 1518 -1
3759 1964 -1
3759 3235 -1
3759 3759 3
3760 705 -1
3760 2308 -1
3760 3402 -1
3760 3760 3
3761 5 -1
3761 18 -1
3761 3006 -1
3761 3761 3
3762 1427 -1
3762 1515 -1
3762 3552 -1
3762 3762 3
3763 895 -1
3763 2188 -1
3763 2494 -1
3763 3763 3
3764 458 -1
3764 522 -1
3764 3698 -1
3764 3764 3
3765 540 -1
3765 2326 -1
3765 2930 -1
3765 3765 3
3766 207 -1
3766 1116 -1
3766 3157 -1
3766 3766 3
3767 1387 -1
3767 3461 -1
3767 3529 -1
3767 3767 3
3768 138 -1
3768 576 -1
3768 850 -1
3768 3768 3
3769 411 -1
3769 3541 -1
3769 3593 -1
3769 3769 3
3770 899 -1
3770 1721 -1
3770 3307 -1
3770 3770 3
3771 411 -1
3771 707 -1
3771 1731 -1
3771 3771 3
3772 145 -1
3772 2073 -1
3772 3300 -1
3772 3772 3
3773 35 -1
3773 184 -1
3773 1355 -1
3773 3773 3
3774 604 -1
3774 684 -1
3774 2906 -1
3774 3774 3
3775 990 -1
3775 2225 -1
3775 2998 -1
3775 3775 3
3776 67 -1
3776 1802 -1
3776 1826 -1
3776 3776 3
3777 8 -1
3777 489 -1
3777 1680 -1
3777 3777 3
3778 111 -1
3778 731 -1
3778 1236 -1
3778 3778 3
3779 57 -1
3779 538 -1
3779 775 -1
3779 3779 3
3780 1217 -1
3780 2063 -1
3780 2071 -1
3780 3780 3
3781 13 -1
3781 311 -1
3781 963 -1
3781 3781 3
3782 30 -1
3782 2711 -1
3782 3219 -1
3782 3782 3
3783 525 -1
3783 2677 -1
3783 2892 -1
3783 3783 3
3784 63 -1
3784 1091 -1
3784 3128 -1
3784 3784 3
3785 1044 -1
3785 1299 -1
3785 3321 -1
3785 3785 4
3786 9 -1
3786 265 -1
3786 936 -1
3786 3786 3
3787 990 -1
3787 1740 -1
3787 2131 -1
3787 3787 3
3788 393 -1
3788 2907 -1
3788 3705 -1
3788 3788 3
3789 185 -1
3789 325 -1
3789 3016 -1
3789 3789 3
3790 700 -1
3790 1097 -1
3790 3238 -1
3790 3790 3
3791 55 -1
3791 443 -1
3791 1418 -1
3791 3791 3
3792 99 -1
3792 1327 -1
3792 2808 -1
3792 3792 3
3793 5 -1
3793 627 -1
3793 2072 -1
3793 3793 3
3794 292 -1
3794 652 -1
3794 3103 -1
3794 3794 3
3795 480 -1
3795 2025 -1
3795 3494 -1
3795 3795 3
3796 188 -1
3796 1371 -1
3796 3707 -1
3796 3796 3
3797 465 -1
3797 989 -1
3797 1003 -1
3797 3797 3
3798 61 -1
3798 2563 -1
3798 2746 -1
3798 3798 3
3799 270 -1
3799 444 -1
3799 1067 -1
3799 3799 3
3800 85 -1
3800 1211 -1
3800 1670 -1
3800 3800 4
3801 478 -1
3801 1300 -1
3801 3112 -1
3801 3801 3
3802 77 -1
3802 370 -1
3802 1711 -1
3802 3802 3
3803 71 -1
3803 313 -1
3803 422 -1
3803 3803 4
3804 59 -1
3804 905 -1
3804 1314 -1
3804 3804 3
3805 317 -1
3805 465 -1
3805 3145 -1
3805 3805 4
3806 15 -1
3806 249 -1
3806 2695 -1
3806 3806 3
3807 55 -1
3807 2319 -1
3807 3701 -1
3807 3807 3
3808 65 -1
3808 1577 -1
3808 2623 -1
3808 3808 4
3809 2722 -1
3809 2816 -1
3809 3745 -1
3809 3809 3
3810 10 -1
3810 684 -1
3810 2911 -1
3810 3810 3
3811 23 -1
3811 79 -1
3811 3369 -1
3811 3811 3
3812 43 -1
3812 1042 -1
3812 2324 -1
3812 3812 3
3813 522 -1
3813 865 -1
3813 1337 -1
3813 3813 3
3814 45 -1
3814 3614 -1
3814 3739 -1
3814 3814 3
3815 4 -1
3815 1066 -1
3815 3280 -1
3815 3815 3
3816 69 -1
3816 1182 -1
3816 3687 -1
3816 3816 3
3817 44 -1
3817 298 -1
3817 958 -1
3817 3817 3
3818 52 -1
3818 305 -1
3818 2008 -1
3818 3818 3
3819 82 -1
3819 1606 -1
3819 2112 -1
3819 3819 3
3820 680 -1
3820 2018 -1
3820 2312 -1
3820 3820 3
3821 133 -1
3821 137 -1
3821 2042 -1
3821 3821 3
3822 89 -1
3822 1849 -1
3822 3712 -1
3822 3822 3
3823 27 -1
3823 647 -1
3823 1125 -1
3823 3823 3
3824 612 -1
3824 1637 -1
3824 2642 -1
3824 3824 3
3825 6 -1
3825 1167 -1
3825 1449 -1
3825 3825 3
3826 212 -1
3826 2153 -1
3826 3110 -1
3826 3826 3
3827 156 -1
3827 1191 -1
3827 1668 -1
3827 3827 5
3828 159 -1
3828 1496 -1
3828 2532 -1
3828 3828 3
3829 5 -1
3829 2670 -1
3829 3377 -1
3829 3829 3
3830 35 -1
3830 1946 -1
3830 3365 -1
3830 3830 3
3831 552 -1
3831 1476 -1
3831 2140 -1
3831 3831 3
3832 2 -1
3832 267 -1
3832 1936 -1
3832 3832 3
3833 1020 -1
3833 1913 -1
3833 2199 -1
3833 3833 3
3834 7 -1
3834 150 -1
3834 320 -1
3834 3834 4
3835 429 -1
3835 1082 -1
3835 2356 -1
3835 3835 3
3836 466 -1
3836 2812 -1
3836 2893 -1
3836 3836 3
3837 247 -1
3837 444 -1
3837 2178 -1
3837 3837 3
3838 41 -1
3838 853 -1
3838 2665 -1
3838 3838 3
3839 409 -1
3839 890 -1
3839 1238 -1
3839 3839 3
3840 525 -1
3840 1941 -1
3840 2574 -1
3840 3840 3
3841 784 -1
3841 862 -1
3841 1994 -1
3841 3841 3
3842 998 -1
3842 1475 -1
3842 2933 -1
3842 3842 3
3843 114 -1
3843 597 -1
3843 2236 -1
3843 3843 4
3844 767 -1
3844 887 -1
3844 890 -1
3844 3844 3
3845 35 -1
3845 883 -1
3845 1935 -1
3845 3845 3
3846 56 -1
3846 1087 -1
3846 1965 -1
3846 3846 3
3847 223 -1
3847 949 -1
3847 1559 -1
3847 3847 3
3848 66 -1
3848 2158 -1
3848 2303 -1
3848 3848 4
3849 176 -1
3849 879 -1
3849 1812 -1
3849 3849 3
3850 456 -1
3850 1090 -1
3850 2621 -1
3850 3850 3
3851 652 -1
3851 1455 -1
3851 3339 -1
3851 3851 3
3852 13 -1
3852 2303 -1
3852 2674 -1
3852 3852 3
3853 271 -1
3853 335 -1
3853 699 -1
3853 3853 3
3854 156 -1
3854 2187 -1
3854 2744 -1
3854 3854 3
3855 113 -1
3855 721 -1
3855 2127 -1
3855 3855 3
3856 119 -1
3856 401 -1
3856 692 -1
3856 3856 4
3857 151 -1
3857 406 -1
3857 2734 -1
3857 3857 3
3858 78 -1
3858 1295 -1
3858 3741 -1
3858 3858 3
3859 118 -1
3859 1872 -1
3859 3560 -1
3859 3859 3
3860 47 -1
3860 2350 -1
3860 3264 -1
3860 3860 3
3861 69 -1
3861 73 -1
3861 1584 -1
3861 3861 3
3862 5 -1
3862 1381 -1
3862 2657 -1
3862 3862 3
3863 33 -1
3863 2346 -1
3863 3376 -1
3863 3863 3
3864 153 -1
3864 836 -1
3864 1024 -1
3864 3864 3
3865 14 -1
3865 168 -1
3865 1248 -1
3865 3865 3
3866 2 -1
3866 170 -1
3866 1354 -1
3866 3866 3
3867 442 -1
3867 1087 -1
3867 2347 -1
3867 3867 4
3868 566 -1
3868 1381 -1
3868 2355 -1
3868 3868 3
3869 151 -1
3869 887 -1
3869 1020 -1
3869 3869 3
3870 71 -1
3870 993 -1
3870 3232 -1
3870 3870 3
3871 28 -1
3871 33 -1
3871 3438 -1
3871 3871 3
3872 661 -1
3872 726 -1
3872 1256 -1
3872 3872 3
3873 213 -1
3873 1499 -1
3873 2195 -1
3873 3873 3
3874 72 -1
3874 865 -1
3874 1053 -1
3874 3874 3
3875 7 -1
3875 484 -1
3875 3370 -1
3875 3875 3
3876 6 -1
3876 92 -1
3876 500 -1
3876 3876 3
3877 162 -1
3877 1472 -1
3877 1677 -1
3877 3877 3
3878 1267 -1
3878 3462 -1
3878 3827 -1
3878 3878 3
3879 1067 -1
3879 1839 -1
3879 2330 -1
3879 3879 3
3880 34 -1
3880 47 -1
3880 2788 -1
3880 3880 3
3881 157 -1
3881 184 -1
3881 1790 -1
3881 3881 3
3882 17 -1
3882 853 -1
3882 1665 -1
3882 3882 3
3883 891 -1
3883 1064 -1
3883 1989 -1
3883 3883 3
3884 885 -1
3884 1352 -1
3884 1750 -1
3884 3884 3
3885 52 -1
3885 263 -1
3885 996 -1
3885 3885 3
3886 6 -1
3886 288 -1
3886 3610 -1
3886 3886 3
3887 1161 -1
3887 1316 -1
3887 1760 -1
3887 3887 3
3888 193 -1
3888 271 -1
3888 530 -1
3888 3888 4
3889 5 -1
3889 32 -1
3889 93 -1
3889 3889 3
3890 602 -1
3890 1381 -1
3890 1989 -1
3890 3890 3
3891 201 -1
3891 1438 -1
3891 1829 -1
3891 3891 3
3892 35 -1
3892 78 -1
3892 635 -1
3892 3892 3
3893 715 -1
3893 1576 -1
3893 3733 -1
3893 3893 3
3894 1414 -1
3894 1812 -1
3894 1977 -1
3894 3894 3
3895 6 -1
3895 2211 -1
3895 3306 -1
3895 3895 3
3896 7 -1
3896 117 -1
3896 1289 -1
3896 3896 3
3897 23 -1
3897 679 -1
3897 993 -1
3897 3897 3
3898 159 -1
3898 584 -1
3898 716 -1
3898 3898 3
3899 36 -1
3899 3157 -1
3899 3290 -1
3899 3899 3
3900 98 -1
3900 2280 -1
3900 3577 -1
3900 3900 3
3901 17 -1
3901 1057 -1
3901 2303 -1
3901 3901 3
3902 412 -1
3902 542 -1
3902 1808 -1
3902 3902 3
3903 1289 -1
3903 1876 -1
3903 3384 -1
3903 3903 3
3904 231 -1
3904 1511 -1
3904 2593 -1
3904 3904 3
3905 71 -1
3905 99 -1
3905 2917 -1
3905 3905 3
3906 451 -1
3906 1050 -1
3906 2287 -1
3906 3906 3
3907 731 -1
3907 1086 -1
3907 1989 -1
3907 3907 3
3908 1900 -1
3908 2002 -1
3908 2478 -1
3908 3908 3
3909 164 -1
3909 259 -1
3909 3443 -1
3909 3909 3
3910 373 -1
3910 2385 -1
3910 2640 -1
3910 3910 3
3911 430 -1
3911 967 -1
3911 2755 -1
3911 3911 3
3912 23 -1
3912 36 -1
3912 915 -1
3912 3912 3
3913 24 -1
3913 710 -1
3913 3808 -1
3913 3913 3
3914 127 -1
3914 1585 -1
3914 1629 -1
3914 3914 3
3915 74 -1
3915 627 -1
3915 1042 -1
3915 3915 3
3916 6 -1
3916 2174 -1
3916 2707 -1
3916 3916 3
3917 413 -1
3917 811 -1
3917 2911 -1
3917 3917 3
3918 535 -1
3918 907 -1
3918 2394 -1
3918 3918 3
3919 2 -1
3919 2101 -1
3919 3075 -1
3919 3919 3
3920 116 -1
3920 942 -1
3920 1486 -1
3920 3920 3
3921 20 -1
3921 23 -1
3921 290 -1
3921 3921 3
3922 877 -1
3922 1193 -1
3922 1631 -1
3922 3922 3
3923 7 -1
3923 3237 -1
3923 3745 -1
3923 3923 3
3924 5 -1
3924 2755 -1
3924 2804 -1
3924 3924 3
3925 1020 -1
3925 1417 -1
3925 2871 -1
3925 3925 3
3926 300 -1
3926 906 -1
3926 1622 -1
3926 3926 3
3927 135 -1
3927 247 -1
3927 661 -1
3927 3927 3
3928 158 -1
3928 685 -1
3928 1226 -1
3928 3928 3
3929 220 -1
3929 1304 -1
3929 2917 -1
3929 3929 3
3930 78 -1
3930 1229 -1
3930 1597 -1
3930 3930 3
3931 26 -1
3931 156 -1
3931 1520 -1
3931 3931 3
3932 7 -1
3932 23 -1
3932 1480 -1
3932 3932 3
3933 1150 -1
3933 1363 -1
3933 2923 -1
3933 3933 3
3934 11 -1
3934 231 -1
3934 638 -1
3934 3934 3
3935 383 -1
3935 1901 -1
3935 3308 -1
3935 3935 3
3936 458 -1
3936 1776 -1
3936 2019 -1
3936 3936 3
3937 1010 -1
3937 3003 -1
3937 3856 -1
3937 3937 3
3938 458 -1
3938 733 -1
3938 3343 -1
3938 3938 3
3939 316 -1
3939 1614 -1
3939 1776 -1
3939 3939 3
3940 60 -1
3940 988 -1
3940 3422 -1
3940 3940 3
3941 103 -1
3941 1201 -1
3941 1461 -1
3941 3941 3
3942 27 -1
3942 82 -1
3942 2938 -1
3942 3942 3
3943 264 -1
3943 532 -1
3943 3593 -1
3943 3943 3
3944 867 -1
3944 1427 -1
3944 3574 -1
3944 3944 3
3945 576 -1
3945 651 -1
3945 749 -1
3945 3945 3
3946 1129 -1
3946 3012 -1
3946 3304 -1
3946 3946 3
3947 1208 -1
3947 1774 -1
3947 2418 -1
3947 3947 3
3948 1117 -1
3948 1471 -1
3948 3180 -1
3948 3948 3
3949 305 -1
3949 2163 -1
3949 3443 -1
3949 3949 3
3950 82 -1
3950 1269 -1
3950 2373 -1
3950 3950 3
3951 396 -1
3951 974 -1
3951 2011 -1
3951 3951 3
3952 76 -1
3952 515 -1
3952 2712 -1
3952 3952 3
3953 214 -1
3953 965 -1
3953 2512 -1
3953 3953 3
3954 748 -1
3954 2578 -1
3954 2682 -1
3954 3954 3
3955 23 -1
3955 374 -1
3955 3540 -1
3955 3955 3
3956 118 -1
3956 893 -1
3956 1697 -1
3956 3956 3
3957 974 -1
3957 2156 -1
3957 3757 -1
3957 3957 3
3958 57 -1
3958 1029 -1
3958 3323 -1
3958 3958 3
3959 239 -1
3959 787 -1
3959 2332 -1
3959 3959 4
3960 673 -1
3960 928 -1
3960 1165 -1
3960 3960 3
3961 104 -1
3961 732 -1
3961 3959 -1
3961 3961 3
3962 32 -1
3962 753 -1
3962 2880 -1
3962 3962 3
3963 548 -1
3963 2067 -1
3963 3298 -1
3963 3963 3
3964 17 -1
3964 604 -1
3964 1757 -1
3964 3964 3
3965 70 -1
3965 242 -1
3965 3523 -1
3965 3965 3
3966 460 -1
3966 725 -1
3966 1239 -1
3966 3966 3
3967 782 -1
3967 1465 -1
3967 1639 -1
3967 3967 3
3968 45 -1
3968 77 -1
3968 3278 -1
3968 3968 3
3969 2 -1
3969 584 -1
3969 1115 -1
3969 3969 3
3970 307 -1
3970 1108 -1
3970 3867 -1
3970 3970 3
3971 253 -1
3971 2627 -1
3971 3077 -1
3971 3971 3
3972 894 -1
3972 1682 -1
3972 2430 -1
3972 3972 4
3973 847 -1
3973 1055 -1
3973 1815 -1
3973 3973 3
3974 105 -1
3974 496 -1
3974 1335 -1
3974 3974 3
3975 525 -1
3975 1464 -1
3975 3430 -1
3975 3975 3
3976 17 -1
3976 119 -1
3976 2972 -1
3976 3976 3
3977 11 -1
3977 31 -1
3977 565 -1
3977 3977 3
3978 210 -1
3978 1624 -1
3978 2797 -1
3978 3978 3
3979 10 -1
3979 778 -1
3979 1720 -1
3979 3979 3
3980 121 -1
3980 749 -1
3980 1241 -1
3980 3980 3
3981 808 -1
3981 2108 -1
3981 2336 -1
3981 3981 3
3982 218 -1
3982 1570 -1
3982 1933 -1
3982 3982 3
3983 730 -1
3983 1237 -1
3983 3741 -1
3983 3983 3
3984 617 -1
3984 2002 -1
3984 3754 -1
3984 3984 3
3985 15 -1
3985 138 -1
3985 2689 -1
3985 3985 3
3986 559 -1
3986 627 -1
3986 798 -1
3986 3986 3
3987 16 -1
3987 420 -1
3987 3366 -1
3987 3987 3
3988 103 -1
3988 1826 -1
3988 1972 -1
3988 3988 3
3989 137 -1
3989 209 -1
3989 240 -1
3989 3989 3
3990 53 -1
3990 685 -1
3990 2344 -1
3990 3990 3
3991 292 -1
3991 1832 -1
3991 3278 -1
3991 3991 3
3992 224 -1
3992 374 -1
3992 3714 -1
3992 3992 3
3993 559 -1
3993 2430 -1
3993 3756 -1
3993 3993 3
3994 206 -1
3994 1546 -1
3994 1650 -1
3994 3994 3
3995 571 -1
3995 1484 -1
3995 1906 -1
3995 3995 3
3996 2019 -1
3996 2730 -1
3996 3617 -1
3996 3996 3
3997 346 -1
3997 1063 -1
3997 3888 -1
3997 3997 3
3998 15 -1
3998 815 -1
3998 3585 -1
3998 3998 3
3999 12 -1
3999 745 -1
3999 804 -1
3999 3999 3
4000 264 -1
4000 1211 -1
4000 2443 -1
4000 4000 3
4001 82 -1
4001 371 -1
4001 2616 -1
4001 4001 3
4002 1714 -1
4002 3159 -1
4002 3972 -1
4002 4002 3
4003 334 -1
4003 497 -1
4003 1524 -1
4003 4003 3
4004 26 -1
4004 581 -1
4004 700 -1
4004 4004 3
4005 1747 -1
4005 1929 -1
4005 2106 -1
4005 4005 3
4006 348 -1
4006 1255 -1
4006 2318 -1
4006 4006 3
4007 1418 -1
4007 2102 -1
4007 2264 -1
4007 4007 4
4008 218 -1
4008 758 -1
4008 3480 -1
4008 4008 3
4009 458 -1
4009 1346 -1
4009 2096 -1
4009 4009 3
4010 803 -1
4010 1427 -1
4010 2718 -1
4010 4010 3
4011 1263 -1
4011 1286 -1
4011 2523 -1
4011 4011 3
4012 969 -1
4012 1260 -1
4012 2135 -1
4012 4012 3
4013 460 -1
4013 2104 -1
4013 3176 -1
4013 4013 3
4014 2307 -1
4014 2478 -1
4014 2881 -1
4014 4014 3
4015 55 -1
4015 1201 -1
4015 3159 -1
4015 4015 3
4016 104 -1
4016 480 -1
4016 3843 -1
4016 4016 3
4017 19 -1
4017 136 -1
4017 231 -1
4017 4017 3
4018 30 -1
4018 97 -1
4018 1116 -1
4018 4018 3
4019 605 -1
4019 733 -1
4019 1221 -1
4019 4019 3
4020 80 -1
4020 1911 -1
4020 1974 -1
4020 4020 3
4021 540 -1
4021 648 -1
4021 1024 -1
4021 4021 3
4022 651 -1
4022 2303 -1
4022 3015 -1
4022 4022 3
4023 152 -1
4023 1154 -1
4023 1230 -1
4023 4023 3
4024 105 -1
4024 274 -1
4024 756 -1
4024 4024 3
4025 438 -1
4025 3803 -1
4025 3848 -1
4025 4025 3
4026 147 -1
4026 159 -1
4026 4007 -1
4026 4026 3
4027 2033 -1
4027 2280 -1
4027 3805 -1
4027 4027 3
4028 21 -1
4028 582 -1
4028 3834 -1
4028 4028 3
4029 406 -1
4029 1830 -1
4029 3479 -1
4029 4029 3
4030 867 -1
4030 1865 -1
4030 3247 -1
4030 4030 3
4031 168 -1
4031 765 -1
4031 1998 -1
4031 4031 3
4032 7 -1
4032 61 -1
4032 775 -1
4032 4032 3
4033 9 -1
4033 424 -1
4033 2592 -1
4033 4033 3
4034 23 -1
4034 821 -1
4034 2278 -1
4034 4034 3
4035 5 -1
4035 2569 -1
4035 2884 -1
4035 4035 3
4036 82 -1
4036 1639 -1
4036 2571 -1
4036 4036 3
4037 7 -1
4037 8 -1
4037 82 -1
4037 4037 3
4038 2428 -1
4038 3525 -1
4038 3800 -1
4038 4038 3
4039 65 -1
4039 611 -1
4039 857 -1
4039 4039 3
4040 331 -1
4040 656 -1
4040 3512 -1
4040 4040 3
4041 104 -1
4041 951 -1
4041 3303 -1
4041 4041 3
4042 62 -1
4042 879 -1
4042 2752 -1
4042 4042 3
4043 190 -1
4043 2168 -1
4043 2317 -1
4043 4043 3
4044 15 -1
4044 32 -1
4044 416 -1
4044 4044 3
4045 117 -1
4045 1134 -1
4045 2744 -1
4045 4045 3
4046 112 -1
4046 814 -1
4046 3827 -1
4046 4046 3
4047 110 -1
4047 1488 -1
4047 2317 -1
4047 4047 3
4048 452 -1
4048 2065 -1
4048 2417 -1
4048 4048 3
4049 46 -1
4049 1060 -1
4049 2190 -1
4049 4049 3
4050 309 -1
4050 1199 -1
4050 3384 -1
4050 4050 3
4051 5 -1
4051 26 -1
4051 1798 -1
4051 4051 3
4052 425 -1
4052 3308 -1
4052 3785 -1
4052 4052 3
4053 256 -1
4053 932 -1
4053 1796 -1
4053 4053 3
4054 184 -1
4054 3509 -1
4054 3568 -1
4054 4054 3
4055 1 -1
4055 302 -1
4055 2081 -1
4055 4055 3
4056 2032 -1
4056 2320 -1
4056 3535 -1
4056 4056 3
4057 19 -1
4057 48 -1
4057 244 -1
4057 4057 3
