%%MatrixMarket matrix coordinate real symmetric
%
4057 4057 17566
1 1 9.200000000000000e+01
2 1 -1.000000000000000e+00
2 2 6.115075567364693e+01
3 1 -1.000000000000000e+00
3 3 8.000000000000000e+00
4 1 -1.000000000000000e+00
4 4 9.135950703918934e+01
5 1 -1.000000000000000e+00
5 3 -1.000000000000000e+00
5 4 -1.000000000000000e+00
5 5 2.329120223820210e+02
6 1 -1.000000000000000e+00
6 2 -1.000000000000000e+00
6 5 -1.000000000000000e+00
6 6 1.551714985966682e+02
7 1 -1.000000000000000e+00
7 3 -1.000000000000000e+00
7 6 -1.000000000000000e+00
7 7 1.820000000000000e+02
8 1 -1.000000000000000e+00
8 6 -1.000000000000000e+00
8 7 -1.000000000000000e+00
8 8 1.604492861032486e+02
9 2 -1.000000000000000e+00
9 6 -1.000000000000000e+00
9 7 -1.000000000000000e+00
9 9 8.749279928207397e+01
10 5 -1.000000000000000e+00
10 6 -1.000000000000000e+00
10 8 -1.000000000000000e+00
10 10 6.400000000000000e+01
11 1 -1.000000000000000e+00
11 5 -1.000000000000000e+00
11 8 -1.000000000000000e+00
11 11 7.536794435977936e+01
12 5 -1.000000000000000e+00
12 6 -1.000000000000000e+00
12 7 -1.000000000000000e+00
12 12 2.850395262241364e+01
13 2 -1.000000000000000e+00
13 5 -1.000000000000000e+00
13 7 -1.000000000000000e+00
13 13 9.918898224830627e+01
14 1 -1.000000000000000e+00
14 4 -1.000000000000000e+00
14 7 -1.000000000000000e+00
14 14 3.400000000000000e+01
15 4 -1.000000000000000e+00
15 8 -1.000000000000000e+00
15 9 -1.000000000000000e+00
15 15 5.053244844079018e+01
16 6 -1.000000000000000e+00
16 8 -1.000000000000000e+00
16 13 -1.000000000000000e+00
16 16 3.639310638606548e+01
17 5 -1.000000000000000e+00
17 6 -1.000000000000000e+00
17 15 -1.365781754255295e+00
17 17 6.589784190058708e+01
18 6 -1.000000000000000e+00
18 11 -1.000000000000000e+00
18 15 -1.000000000000000e+00
18 18 1.226207090914249e+01
19 1 -1.000000000000000e+00
19 4 -1.000000000000000e+00
19 6 -1.000000000000000e+00
19 19 4.100000000000000e+01
20 4 -1.000000000000000e+00
20 8 -1.000000000000000e+00
20 11 -1.000000000000000e+00
20 20 3.108451542258263e+01
21 5 -1.000000000000000e+00
21 6 -1.000000000000000e+00
21 8 -1.000000000000000e+00
21 21 3.608838834613562e+01
22 1 -1.000000000000000e+00
22 5 -1.000000000000000e+00
22 8 -1.000000000000000e+00
22 22 2.587287163734436e+01
23 9 -1.000000000000000e+00
23 13 -1.000000000000000e+00
23 17 -1.000000000000000e+00
23 23 8.218257418274879e+01
24 6 -1.000000000000000e+00
24 11 -1.000000000000000e+00
24 21 -1.000000000000000e+00
24 24 3.911359236389399e+01
25 6 -1.000000000000000e+00
25 7 -1.000000000000000e+00
25 11 -1.000000000000000e+00
25 25 7.173205077648163e+00
26 1 -1.000000000000000e+00
26 5 -1.000000000000000e+00
26 8 -1.000000000000000e+00
26 26 7.014433756470680e+01
27 7 -1.000000000000000e+00
27 10 -1.000000000000000e+00
27 26 -1.000000000000000e+00
27 27 5.323570224642754e+01
28 4 -1.000000000000000e+00
28 15 -1.000000000000000e+00
28 23 -1.000000000000000e+00
28 28 2.500000000000000e+01
29 7 -1.000000000000000e+00
29 17 -1.000000000000000e+00
29 27 -1.000000000000000e+00
29 29 2.930968564748764e+01
30 4 -1.000000000000000e+00
30 5 -1.000000000000000e+00
30 13 -1.000000000000000e+00
30 30 4.019421453028917e+01
31 5 -1.000000000000000e+00
31 8 -1.000000000000000e+00
31 15 -1.000000000000000e+00
31 31 4.400000000000000e+01
32 2 -1.000000000000000e+00
32 6 -1.000000000000000e+00
32 23 -1.000000000000000e+00
32 32 2.622360679507256e+01
33 2 -1.000000000000000e+00
33 15 -1.000000000000000e+00
33 31 -1.000000000000000e+00
33 33 2.400000000000000e+01
34 6 -1.000000000000000e+00
34 8 -1.000000000000000e+00
34 20 -1.000000000000000e+00
34 34 4.641827645897865e+01
35 4 -1.000000000000000e+00
35 5 -1.000000000000000e+00
35 23 -1.000000000000000e+00
35 35 7.940000000596046e+01
36 9 -1.000000000000000e+00
36 14 -1.000000000000000e+00
36 35 -1.000000000000000e+00
36 36 1.400000000000000e+01
37 4 -1.000000000000000e+00
37 26 -1.000000000000000e+00
37 27 -1.000000000000000e+00
37 37 1.936575894057751e+01
38 5 -1.000000000000000e+00
38 28 -1.000000000000000e+00
38 35 -1.000000000000000e+00
38 38 2.409449112415314e+01
39 5 -1.000000000000000e+00
39 6 -1.000000000000000e+00
39 28 -1.000000000000000e+00
39 39 2.813867504894733e+01
40 7 -1.000000000000000e+00
40 9 -1.000000000000000e+00
40 25 -1.000000000000000e+00
40 40 1.818257418274879e+01
41 7 -1.000000000000000e+00
41 11 -1.000000000000000e+00
41 35 -1.000000000000000e+00
41 41 9.333333343267441e+00
42 1 -1.000000000000000e+00
42 8 -1.000000000000000e+00
42 40 -1.000000000000000e+00
42 42 3.258553282916546e+01
43 10 -1.000000000000000e+00
43 30 -1.000000000000000e+00
43 37 -1.000000000000000e+00
43 43 3.141806316375732e+01
44 1 -1.000000000000000e+00
44 2 -1.000000000000000e+00
44 7 -1.000000000000000e+00
44 44 2.307453560084105e+01
45 4 -1.000000000000000e+00
45 6 -1.000000000000000e+00
45 8 -1.000000000000000e+00
45 45 1.718898224830627e+01
46 7 -1.000000000000000e+00
46 23 -1.000000000000000e+00
46 26 -1.000000000000000e+00
46 46 4.933471933007240e+01
47 4 -1.000000000000000e+00
47 7 -1.000000000000000e+00
47 13 -1.000000000000000e+00
47 47 2.728867512941360e+01
48 2 -1.000000000000000e+00
48 13 -1.000000000000000e+00
48 26 -1.000000000000000e+00
48 48 4.031167362630367e+01
49 11 -1.000000000000000e+00
49 15 -1.000000000000000e+00
49 17 -1.000000000000000e+00
49 49 2.122360679507256e+01
50 1 -1.000000000000000e+00
50 8 -1.000000000000000e+00
50 42 -1.000000000000000e+00
50 50 2.300000000000000e+01
51 4 -1.000000000000000e+00
51 13 -1.000000000000000e+00
51 46 -1.000000000000000e+00
51 51 2.631620446592569e+01
52 2 -1.000000000000000e+00
52 7 -1.000000000000000e+00
52 13 -1.188982248306274e+00
52 52 3.341258904337883e+01
53 5 -1.000000000000000e+00
53 20 -1.000000000000000e+00
53 35 -1.000000000000000e+00
53 53 1.019655319303274e+01
54 1 -1.000000000000000e+00
54 11 -1.000000000000000e+00
54 17 -1.000000000000000e+00
54 54 1.727735009789467e+01
55 1 -1.000000000000000e+00
55 31 -1.000000000000000e+00
55 45 -1.000000000000000e+00
55 55 2.275718435645103e+01
56 5 -1.000000000000000e+00
56 13 -1.000000000000000e+00
56 34 -1.000000000000000e+00
56 56 1.814664711058140e+01
57 5 -1.000000000000000e+00
57 6 -1.000000000000000e+00
57 8 -1.000000000000000e+00
57 57 7.761237245798111e+01
58 7 -1.000000000000000e+00
58 10 -1.000000000000000e+00
58 24 -1.000000000000000e+00
58 58 8.188982248306274e+00
59 5 -1.000000000000000e+00
59 8 -1.000000000000000e+00
59 9 -1.000000000000000e+00
59 59 3.110050377994776e+01
60 14 -1.000000000000000e+00
60 15 -1.000000000000000e+00
60 44 -1.000000000000000e+00
60 60 1.900000000000000e+01
61 11 -1.000000000000000e+00
61 26 -1.000000000000000e+00
61 50 -1.000000000000000e+00
61 61 2.515075567364693e+01
62 9 -1.000000000000000e+00
62 17 -1.000000000000000e+00
62 55 -1.000000000000000e+00
62 62 1.822360679507256e+01
63 1 -1.000000000000000e+00
63 5 -1.000000000000000e+00
63 62 -1.000000000000000e+00
63 63 1.507580980658531e+01
64 11 -1.000000000000000e+00
64 30 -1.000000000000000e+00
64 35 -1.000000000000000e+00
64 64 3.429351419210434e+00
65 7 -1.000000000000000e+00
65 8 -1.000000000000000e+00
65 35 -1.000000000000000e+00
65 65 2.820225995779037e+01
66 4 -1.000000000000000e+00
66 26 -1.000000000000000e+00
66 42 -1.000000000000000e+00
66 66 1.933333334326744e+01
67 7 -1.000000000000000e+00
67 11 -1.000000000000000e+00
67 17 -1.000000000000000e+00
67 67 2.208908707648516e+01
68 1 -1.000000000000000e+00
68 5 -1.000000000000000e+00
68 32 -1.000000000000000e+00
68 68 1.438229832053185e+01
69 1 -1.000000000000000e+00
69 13 -1.000000000000000e+00
69 23 -1.000000000000000e+00
69 69 1.600000000000000e+01
70 2 -1.000000000000000e+00
70 5 -1.000000000000000e+00
70 22 -1.000000000000000e+00
70 70 2.400000000000000e+01
71 2 -1.000000000000000e+00
71 30 -1.000000000000000e+00
71 57 -1.000000000000000e+00
71 71 3.715075567364693e+01
72 6 -1.000000000000000e+00
72 9 -1.000000000000000e+00
72 23 -1.000000000000000e+00
72 72 3.329809120297432e+01
73 5 -1.000000000000000e+00
73 6 -1.000000000000000e+00
73 47 -1.000000000000000e+00
73 73 1.027380114793777e+01
74 21 -1.000000000000000e+00
74 27 -1.000000000000000e+00
74 50 -1.000000000000000e+00
74 74 2.528347337245941e+01
75 1 -1.000000000000000e+00
75 5 -1.000000000000000e+00
75 8 -1.000000000000000e+00
75 75 2.414744195342064e+01
76 4 -1.000000000000000e+00
76 52 -1.000000000000000e+00
76 65 -1.000000000000000e+00
76 76 1.513608276844025e+01
77 7 -1.000000000000000e+00
77 20 -1.000000000000000e+00
77 24 -1.000000000000000e+00
77 77 3.022611181437969e+01
78 7 -1.000000000000000e+00
78 70 -1.000000000000000e+00
78 72 -1.000000000000000e+00
78 78 3.734846171736717e+01
79 4 -1.000000000000000e+00
79 5 -1.000000000000000e+00
79 38 -1.000000000000000e+00
79 79 3.033524224162102e+01
80 6 -1.000000000000000e+00
80 14 -1.000000000000000e+00
80 40 -1.000000000000000e+00
80 80 1.800000000000000e+01
81 6 -1.000000000000000e+00
81 9 -1.000000000000000e+00
81 28 -1.000000000000000e+00
81 81 2.237288971245289e+01
82 4 -1.000000000000000e+00
82 43 -1.000000000000000e+00
82 77 -1.000000000000000e+00
82 82 6.014433756470680e+01
83 8 -1.000000000000000e+00
83 26 -1.000000000000000e+00
83 59 -1.000000000000000e+00
83 83 8.000000000000000e+00
84 6 -1.000000000000000e+00
84 7 -1.000000000000000e+00
84 9 -1.000000000000000e+00
84 84 9.000000000000000e+00
85 5 -1.000000000000000e+00
85 26 -1.000000000000000e+00
85 32 -1.000000000000000e+00
85 85 3.000000000000000e+01
86 5 -1.000000000000000e+00
86 6 -1.000000000000000e+00
86 77 -1.000000000000000e+00
86 86 2.518446618318558e+01
87 4 -1.000000000000000e+00
87 6 -1.000000000000000e+00
87 8 -1.000000000000000e+00
87 87 1.645946609973907e+01
88 8 -1.000000000000000e+00
88 15 -1.000000000000000e+00
88 49 -1.000000000000000e+00
88 88 7.206418722867966e+00
89 9 -1.000000000000000e+00
89 19 -1.000000000000000e+00
89 27 -1.000000000000000e+00
89 89 1.419516584277153e+01
90 16 -1.000000000000000e+00
90 46 -1.000000000000000e+00
90 82 -1.000000000000000e+00
90 90 1.500000000000000e+01
91 12 -1.000000000000000e+00
91 20 -1.000000000000000e+00
91 79 -1.000000000000000e+00
91 91 6.192450091242790e+00
92 6 -1.000000000000000e+00
92 7 -1.000000000000000e+00
92 19 -1.000000000000000e+00
92 92 3.443259043991566e+01
93 23 -1.000000000000000e+00
93 47 -1.000000000000000e+00
93 86 -1.000000000000000e+00
93 93 1.641205140948296e+01
94 5 -1.000000000000000e+00
94 7 -1.000000000000000e+00
94 23 -1.000000000000000e+00
94 94 1.614433756470680e+01
95 1 -1.000000000000000e+00
95 2 -1.000000000000000e+00
95 68 -1.000000000000000e+00
95 95 2.925393390655518e+01
96 1 -1.000000000000000e+00
96 11 -1.000000000000000e+00
96 51 -1.178511232137680e-01
96 70 -1.000000000000000e+00
96 96 4.111785112321377e+01
97 4 -1.000000000000000e+00
97 52 -1.000000000000000e+00
97 81 -1.000000000000000e+00
97 97 1.800000000000000e+01
98 13 -1.000000000000000e+00
98 14 -1.000000000000000e+00
98 54 -1.000000000000000e+00
98 98 3.000000000000000e+01
99 11 -1.000000000000000e+00
99 13 -1.000000000000000e+00
99 96 -1.000000000000000e+00
99 99 2.912909944355488e+01
100 7 -1.000000000000000e+00
100 13 -1.000000000000000e+00
100 57 -1.000000000000000e+00
100 100 2.841135549545288e+01
101 12 -1.000000000000000e+00
101 32 -1.000000000000000e+00
101 89 -1.000000000000000e+00
101 101 2.021821790933609e+01
102 13 -1.000000000000000e+00
102 30 -1.000000000000000e+00
102 94 -1.000000000000000e+00
102 102 1.510000000149012e+01
103 17 -1.000000000000000e+00
103 35 -1.000000000000000e+00
103 90 -1.000000000000000e+00
103 103 3.000000000000000e+01
104 1 -1.000000000000000e+00
104 15 -1.000000000000000e+00
104 72 -1.000000000000000e+00
104 104 2.400000000000000e+01
105 6 -1.000000000000000e+00
105 12 -1.000000000000000e+00
105 26 -1.000000000000000e+00
105 105 1.312500000000000e+01
106 6 -1.000000000000000e+00
106 10 -1.000000000000000e+00
106 102 -1.000000000000000e+00
106 106 2.006299407780170e+01
107 17 -1.000000000000000e+00
107 75 -1.000000000000000e+00
107 103 -1.000000000000000e+00
107 107 2.771823352575302e+01
108 7 -1.000000000000000e+00
108 57 -1.000000000000000e+00
108 86 -1.000000000000000e+00
108 108 1.324273957312107e+01
109 38 -1.000000000000000e+00
109 48 -1.000000000000000e+00
109 57 -1.000000000000000e+00
109 109 2.534279918670654e+01
110 11 -1.000000000000000e+00
110 44 -1.000000000000000e+00
110 71 -1.000000000000000e+00
110 95 -1.178511381149292e-01
110 110 6.117851138114929e+00
111 8 -1.000000000000000e+00
111 43 -1.000000000000000e+00
111 45 -1.000000000000000e+00
111 111 2.520100757479668e+01
112 5 -1.000000000000000e+00
112 8 -1.000000000000000e+00
112 57 -1.000000000000000e+00
112 112 1.400000000000000e+01
113 4 -1.000000000000000e+00
113 11 -1.000000000000000e+00
113 57 -1.000000000000000e+00
113 113 1.337446430325508e+01
114 5 -1.000000000000000e+00
114 16 -1.000000000000000e+00
114 95 -1.000000000000000e+00
114 114 4.192331412434578e+01
115 7 -1.000000000000000e+00
115 11 -1.000000000000000e+00
115 16 -1.000000000000000e+00
115 115 1.432732686400414e+01
116 15 -1.000000000000000e+00
116 26 -1.000000000000000e+00
116 63 -1.000000000000000e+00
116 116 3.317407765984535e+01
117 17 -1.000000000000000e+00
117 45 -1.000000000000000e+00
117 52 -1.000000000000000e+00
117 117 2.400000000000000e+01
118 30 -1.000000000000000e+00
118 78 -1.000000000000000e+00
118 96 -1.000000000000000e+00
118 118 4.717149859666824e+01
119 7 -1.000000000000000e+00
119 55 -1.000000000000000e+00
119 115 -1.000000000000000e+00
119 119 1.526726123690605e+01
120 4 -1.000000000000000e+00
120 7 -1.000000000000000e+00
120 117 -1.000000000000000e+00
120 120 6.235702276229858e+00
121 1 -1.000000000000000e+00
121 52 -1.000000000000000e+00
121 98 -1.000000000000000e+00
121 121 2.310259783267975e+01
122 17 -1.000000000000000e+00
122 21 -1.000000000000000e+00
122 26 -1.000000000000000e+00
122 122 1.312909944355488e+01
123 5 -1.000000000000000e+00
123 14 -1.000000000000000e+00
123 23 -1.000000000000000e+00
123 123 3.212695528566837e+01
124 2 -1.000000000000000e+00
124 8 -1.000000000000000e+00
124 30 -1.000000000000000e+00
124 124 9.536949276924133e+00
125 39 -1.000000000000000e+00
125 62 -1.000000000000000e+00
125 75 -1.000000000000000e+00
125 125 6.085125647485256e+00
126 5 -1.000000000000000e+00
126 38 -1.000000000000000e+00
126 98 -1.000000000000000e+00
126 126 1.332197529077530e+01
127 8 -1.000000000000000e+00
127 17 -1.000000000000000e+00
127 46 -1.000000000000000e+00
127 127 1.213608275353909e+01
128 12 -1.000000000000000e+00
128 19 -1.000000000000000e+00
128 46 -1.000000000000000e+00
128 128 1.071330365538597e+01
129 5 -1.000000000000000e+00
129 13 -1.000000000000000e+00
129 52 -1.000000000000000e+00
129 129 1.800000000000000e+01
130 2 -1.000000000000000e+00
130 11 -1.000000000000000e+00
130 60 -1.000000000000000e+00
130 130 1.436476859450340e+01
131 5 -1.000000000000000e+00
131 48 -1.000000000000000e+00
131 112 -1.000000000000000e+00
131 131 1.334815531969070e+01
132 31 -1.000000000000000e+00
132 38 -1.000000000000000e+00
132 130 -1.000000000000000e+00
132 132 2.500000000000000e+01
133 8 -1.000000000000000e+00
133 54 -1.000000000000000e+00
133 76 -1.000000000000000e+00
133 133 1.412909944355488e+01
134 5 -1.000000000000000e+00
134 9 -1.000000000000000e+00
134 99 -1.000000000000000e+00
134 134 8.089087083935738e+00
135 7 -1.000000000000000e+00
135 16 -1.000000000000000e+00
135 121 -1.000000000000000e+00
135 135 2.930860671401024e+01
136 5 -1.000000000000000e+00
136 17 -1.000000000000000e+00
136 81 -1.000000000000000e+00
136 136 1.030151134729385e+01
137 13 -1.000000000000000e+00
137 27 -1.000000000000000e+00
137 35 -1.000000000000000e+00
137 137 2.155607053637505e+01
138 1 -1.000000000000000e+00
138 24 -1.000000000000000e+00
138 25 -1.000000000000000e+00
138 138 1.919245009124279e+01
139 4 -1.000000000000000e+00
139 10 -1.000000000000000e+00
139 56 -1.000000000000000e+00
139 139 2.310846523195505e+01
140 7 -1.000000000000000e+00
140 35 -1.000000000000000e+00
140 39 -1.000000000000000e+00
140 140 1.700000000000000e+01
141 21 -1.000000000000000e+00
141 46 -1.000000000000000e+00
141 117 -1.000000000000000e+00
141 141 8.348058067262173e+00
142 30 -1.000000000000000e+00
142 35 -1.000000000000000e+00
142 99 -1.000000000000000e+00
142 142 1.422360680252314e+01
143 47 -1.000000000000000e+00
143 109 -1.000000000000000e+00
143 131 -1.000000000000000e+00
143 143 1.129953524470329e+01
144 7 -1.000000000000000e+00
144 13 -1.000000000000000e+00
144 31 -1.000000000000000e+00
144 144 5.358793735504150e+00
145 6 -1.000000000000000e+00
145 99 -1.000000000000000e+00
145 140 -1.000000000000000e+00
145 145 1.122645539045334e+01
146 6 -1.000000000000000e+00
146 21 -1.000000000000000e+00
146 34 -1.000000000000000e+00
146 146 6.662316054105759e+00
147 60 -1.000000000000000e+00
147 129 -1.000000000000000e+00
147 137 -1.000000000000000e+00
147 147 8.335070520639420e+00
148 27 -1.000000000000000e+00
148 30 -1.000000000000000e+00
148 140 -1.000000000000000e+00
148 148 1.518397217988968e+01
149 13 -1.000000000000000e+00
149 23 -1.000000000000000e+00
149 99 -1.000000000000000e+00
149 149 1.064551815390587e+01
150 15 -1.000000000000000e+00
150 24 -1.000000000000000e+00
150 49 -1.000000000000000e+00
150 150 2.618618074059486e+01
151 8 -1.000000000000000e+00
151 13 -1.000000000000000e+00
151 123 -1.000000000000000e+00
151 151 2.218641091883183e+01
152 6 -1.000000000000000e+00
152 10 -1.000000000000000e+00
152 150 -1.000000000000000e+00
152 152 2.134870585799217e+01
153 35 -1.000000000000000e+00
153 41 -1.000000000000000e+00
153 47 -1.000000000000000e+00
153 153 3.236514836549759e+01
154 34 -1.000000000000000e+00
154 63 -1.000000000000000e+00
154 82 -1.000000000000000e+00
154 154 1.321134099364281e+01
155 13 -1.000000000000000e+00
155 139 -1.000000000000000e+00
155 152 -1.000000000000000e+00
155 155 5.298142403364182e+00
156 1 -1.000000000000000e+00
156 42 -1.000000000000000e+00
156 116 -1.000000000000000e+00
156 156 2.210000000149012e+01
157 9 -1.000000000000000e+00
157 36 -1.000000000000000e+00
157 44 -1.000000000000000e+00
157 157 3.548507127165794e+01
158 15 -1.000000000000000e+00
158 51 -1.000000000000000e+00
158 151 -1.000000000000000e+00
158 158 1.542022114992142e+01
159 51 -1.000000000000000e+00
159 63 -1.000000000000000e+00
159 135 -1.000000000000000e+00
159 159 1.921253106743097e+01
160 4 -1.000000000000000e+00
160 6 -1.000000000000000e+00
160 90 -1.000000000000000e+00
160 160 5.182574182748795e+00
161 95 -1.000000000000000e+00
161 119 -1.000000000000000e+00
161 147 -1.000000000000000e+00
161 161 1.527153511345387e+01
162 8 -1.000000000000000e+00
162 23 -1.000000000000000e+00
162 60 -1.000000000000000e+00
162 162 3.014002801477909e+01
163 8 -1.000000000000000e+00
163 48 -1.000000000000000e+00
163 153 -1.000000000000000e+00
163 163 2.100000000000000e+01
164 10 -1.000000000000000e+00
164 11 -1.000000000000000e+00
164 17 -1.000000000000000e+00
164 164 1.032544595003128e+01
165 22 -1.000000000000000e+00
165 70 -1.000000000000000e+00
165 105 -1.000000000000000e+00
165 165 1.737876570224762e+01
166 1 -1.000000000000000e+00
166 46 -1.000000000000000e+00
166 62 -1.000000000000000e+00
166 166 1.223717081546783e+01
167 57 -1.000000000000000e+00
167 72 -1.000000000000000e+00
167 103 -1.000000000000000e+00
167 167 1.200000000000000e+01
168 20 -1.000000000000000e+00
168 23 -1.000000000000000e+00
168 69 -1.000000000000000e+00
168 168 1.800000000000000e+01
169 14 -1.000000000000000e+00
169 94 -1.000000000000000e+00
169 157 -1.000000000000000e+00
169 169 1.433047007024288e+01
170 7 -1.000000000000000e+00
170 11 -1.000000000000000e+00
170 124 -1.000000000000000e+00
170 170 1.270365948975086e+01
171 1 -1.000000000000000e+00
171 72 -1.000000000000000e+00
171 92 -1.000000000000000e+00
171 171 1.513363061845303e+01
172 95 -1.000000000000000e+00
172 141 -1.000000000000000e+00
172 161 -1.000000000000000e+00
172 172 8.235702246427536e+00
173 11 -1.000000000000000e+00
173 98 -1.000000000000000e+00
173 126 -1.000000000000000e+00
173 173 7.202449180185795e+00
174 96 -1.000000000000000e+00
174 129 -1.000000000000000e+00
174 130 -1.000000000000000e+00
174 174 1.128867515921593e+01
175 2 -1.000000000000000e+00
175 12 -1.000000000000000e+00
175 13 -1.000000000000000e+00
175 175 4.297292873263359e+00
176 27 -1.000000000000000e+00
176 43 -1.000000000000000e+00
176 116 -1.000000000000000e+00
176 176 1.722019274532795e+01
177 46 -1.000000000000000e+00
177 106 -1.000000000000000e+00
177 109 -1.000000000000000e+00
177 177 4.000000000000000e+00
178 16 -1.000000000000000e+00
178 46 -1.000000000000000e+00
178 47 -1.000000000000000e+00
178 178 9.192450091242790e+00
179 7 -1.000000000000000e+00
179 23 -1.000000000000000e+00
179 104 -1.000000000000000e+00
179 179 9.226455390453339e+00
180 8 -1.000000000000000e+00
180 62 -1.000000000000000e+00
180 107 -3.849001824855804e-01
180 147 -1.000000000000000e+00
180 180 7.976036518812180e+00
181 1 -1.000000000000000e+00
181 106 -1.000000000000000e+00
181 142 -1.000000000000000e+00
181 181 5.000000000000000e+00
182 75 -1.000000000000000e+00
182 101 -1.000000000000000e+00
182 107 -1.000000000000000e+00
182 182 1.213363061845303e+01
183 113 -1.000000000000000e+00
183 150 -1.000000000000000e+00
183 162 -1.000000000000000e+00
183 183 3.186052098870277e+00
184 16 -1.000000000000000e+00
184 76 -1.000000000000000e+00
184 154 -1.000000000000000e+00
184 184 1.600000000000000e+01
185 32 -1.000000000000000e+00
185 61 -1.000000000000000e+00
185 165 -1.000000000000000e+00
185 185 1.400000000000000e+01
186 96 -1.000000000000000e+00
186 100 -1.000000000000000e+00
186 179 -1.000000000000000e+00
186 186 1.300000000000000e+01
187 6 -1.000000000000000e+00
187 35 -1.000000000000000e+00
187 109 -1.000000000000000e+00
187 187 1.411396057903767e+01
188 1 -1.000000000000000e+00
188 71 -1.000000000000000e+00
188 80 -1.000000000000000e+00
188 188 7.456042900681496e+00
189 7 -1.000000000000000e+00
189 19 -1.000000000000000e+00
189 87 -1.000000000000000e+00
189 189 1.400000000000000e+01
190 28 -1.000000000000000e+00
190 46 -1.000000000000000e+00
190 135 -1.000000000000000e+00
190 190 1.300000000000000e+01
191 6 -1.000000000000000e+00
191 22 -1.000000000000000e+00
191 121 -1.000000000000000e+00
191 191 1.400000000000000e+01
192 6 -1.000000000000000e+00
192 7 -1.000000000000000e+00
192 172 -1.000000000000000e+00
192 192 1.600000000000000e+01
193 5 -1.000000000000000e+00
193 7 -1.000000000000000e+00
193 11 -1.000000000000000e+00
193 193 1.525000002980232e+01
194 35 -1.000000000000000e+00
194 78 -1.000000000000000e+00
194 99 -1.000000000000000e+00
194 194 1.916666667163372e+01
195 5 -1.000000000000000e+00
195 162 -1.000000000000000e+00
195 180 -1.000000000000000e+00
195 195 5.522591665387154e+00
196 8 -1.000000000000000e+00
196 9 -1.000000000000000e+00
196 35 -1.000000000000000e+00
196 196 7.144337564706802e+00
197 43 -2.262778580188751e-01
197 49 -1.000000000000000e+00
197 159 -1.000000000000000e+00
197 162 -1.000000000000000e+00
197 197 9.648414939641953e+00
198 5 -1.000000000000000e+00
198 61 -1.000000000000000e+00
198 194 -1.000000000000000e+00
198 198 2.042154519259930e+01
199 116 -1.000000000000000e+00
199 139 -1.000000000000000e+00
199 149 -1.000000000000000e+00
199 199 1.921650634706020e+01
200 7 -1.000000000000000e+00
200 42 -1.000000000000000e+00
200 121 -1.000000000000000e+00
200 200 3.416666668653488e+01
201 1 -1.000000000000000e+00
201 7 -1.000000000000000e+00
201 157 -1.000000000000000e+00
201 201 1.800000000000000e+01
202 8 -1.000000000000000e+00
202 98 -1.000000000000000e+00
202 181 -1.000000000000000e+00
202 202 5.288675129413605e+00
203 85 -1.000000000000000e+00
203 94 -1.000000000000000e+00
203 97 -1.000000000000000e+00
203 203 1.513483996689320e+01
204 13 -1.000000000000000e+00
204 82 -1.000000000000000e+00
204 101 -1.000000000000000e+00
204 204 1.213608275353909e+01
205 9 -1.000000000000000e+00
205 96 -1.000000000000000e+00
205 118 -1.000000000000000e+00
205 205 1.300000000000000e+01
206 31 -1.000000000000000e+00
206 57 -1.000000000000000e+00
206 80 -1.000000000000000e+00
206 206 9.109108939766884e+00
207 13 -1.000000000000000e+00
207 31 -1.000000000000000e+00
207 82 -1.000000000000000e+00
207 207 1.810000000149012e+01
208 20 -1.000000000000000e+00
208 34 -1.000000000000000e+00
208 134 -1.000000000000000e+00
208 208 1.140089184045792e+01
209 25 -1.000000000000000e+00
209 131 -1.000000000000000e+00
209 145 -1.000000000000000e+00
209 209 2.436514836549759e+01
210 19 -1.000000000000000e+00
210 116 -1.000000000000000e+00
210 153 -1.000000000000000e+00
210 210 1.512403473258018e+01
211 6 -1.000000000000000e+00
211 74 -1.000000000000000e+00
211 145 -1.000000000000000e+00
211 211 5.000000000000000e+00
212 94 -1.000000000000000e+00
212 136 -1.000000000000000e+00
212 137 -1.000000000000000e+00
212 212 1.100000000000000e+01
213 10 -1.000000000000000e+00
213 133 -1.000000000000000e+00
213 200 -1.000000000000000e+00
213 213 5.000000000000000e+00
214 1 -1.000000000000000e+00
214 2 -1.000000000000000e+00
214 166 -1.000000000000000e+00
214 214 2.500000000000000e+01
215 35 -1.000000000000000e+00
215 105 -1.000000000000000e+00
215 129 -1.000000000000000e+00
215 215 1.254938806593418e+01
216 135 -1.000000000000000e+00
216 187 -1.000000000000000e+00
216 209 -1.000000000000000e+00
216 216 7.316211447119713e+00
217 5 -1.000000000000000e+00
217 78 -1.000000000000000e+00
217 170 -1.000000000000000e+00
217 217 8.000000000000000e+00
218 81 -1.000000000000000e+00
218 152 -1.000000000000000e+00
218 169 -1.000000000000000e+00
218 218 1.900000000000000e+01
219 13 -1.000000000000000e+00
219 118 -1.000000000000000e+00
219 136 -1.000000000000000e+00
219 219 1.600000000000000e+01
220 15 -1.000000000000000e+00
220 35 -1.000000000000000e+00
220 163 -1.000000000000000e+00
220 220 9.113960579037666e+00
221 47 -1.000000000000000e+00
221 100 -1.000000000000000e+00
221 135 -1.000000000000000e+00
221 221 8.583891376852989e+00
222 5 -1.000000000000000e+00
222 24 -1.000000000000000e+00
222 57 -1.000000000000000e+00
222 222 1.125335987657309e+01
223 5 -1.000000000000000e+00
223 32 -1.000000000000000e+00
223 196 -1.000000000000000e+00
223 223 1.212598815560341e+01
224 15 -1.000000000000000e+00
224 32 -1.000000000000000e+00
224 42 -1.000000000000000e+00
224 224 1.407580979913473e+01
225 5 -1.000000000000000e+00
225 26 -1.000000000000000e+00
225 161 -1.000000000000000e+00
225 225 1.140389323234558e+01
226 8 -1.000000000000000e+00
226 92 -1.000000000000000e+00
226 115 -1.000000000000000e+00
226 226 4.000000000000000e+00
227 51 -1.000000000000000e+00
227 52 -1.000000000000000e+00
227 115 -1.000000000000000e+00
227 227 1.200000000000000e+01
228 8 -1.000000000000000e+00
228 55 -1.000000000000000e+00
228 98 -1.000000000000000e+00
228 228 1.309901475161314e+01
229 31 -1.000000000000000e+00
229 82 -1.000000000000000e+00
229 147 -1.000000000000000e+00
229 229 1.100000000000000e+01
230 1 -1.000000000000000e+00
230 10 -1.000000000000000e+00
230 114 -3.289758265018463e-01
230 164 -1.000000000000000e+00
230 230 1.645496398210526e+01
231 21 -1.000000000000000e+00
231 23 -1.000000000000000e+00
231 80 -1.000000000000000e+00
231 231 2.436502814292908e+01
232 8 -1.000000000000000e+00
232 10 -1.000000000000000e+00
232 225 -1.000000000000000e+00
232 232 8.176776692271233e+00
233 8 -1.000000000000000e+00
233 14 -1.000000000000000e+00
233 17 -1.000000000000000e+00
233 233 2.116666667163372e+01
234 9 -1.000000000000000e+00
234 10 -1.000000000000000e+00
234 209 -1.000000000000000e+00
234 234 1.348826585710049e+01
235 4 -1.000000000000000e+00
235 32 -1.000000000000000e+00
235 34 -1.000000000000000e+00
235 235 9.149071201682091e+00
236 10 -1.000000000000000e+00
236 165 -1.000000000000000e+00
236 232 -1.000000000000000e+00
236 236 1.310959932953119e+01
237 72 -1.000000000000000e+00
237 162 -1.000000000000000e+00
237 196 -1.000000000000000e+00
237 237 8.251976311206818e+00
238 11 -1.000000000000000e+00
238 79 -1.000000000000000e+00
238 129 -1.000000000000000e+00
238 238 7.079056940972805e+00
239 10 -1.000000000000000e+00
239 74 -1.000000000000000e+00
239 210 -1.000000000000000e+00
239 239 3.516666667163372e+01
240 40 -1.000000000000000e+00
240 44 -1.000000000000000e+00
240 59 -1.000000000000000e+00
240 240 5.000000000000000e+00
241 12 -1.000000000000000e+00
241 71 -1.000000000000000e+00
241 201 -1.000000000000000e+00
241 241 1.508304548263550e+01
242 4 -1.000000000000000e+00
242 130 -1.000000000000000e+00
242 200 -1.000000000000000e+00
242 242 2.113867504894733e+01
243 29 -1.000000000000000e+00
243 56 -1.000000000000000e+00
243 71 -1.000000000000000e+00
243 243 2.000000000000000e+01
244 57 -1.000000000000000e+00
244 81 -1.000000000000000e+00
244 239 -1.000000000000000e+00
244 244 1.615811388194561e+01
245 38 -1.000000000000000e+00
245 86 -1.000000000000000e+00
245 241 -1.000000000000000e+00
245 245 8.284267604351044e+00
246 106 -1.000000000000000e+00
246 208 -1.000000000000000e+00
246 237 -1.000000000000000e+00
246 246 1.408006408065557e+01
247 6 -1.000000000000000e+00
247 11 -1.000000000000000e+00
247 149 -1.210455149412155e-01
247 162 -1.000000000000000e+00
247 247 1.412104551494122e+01
248 15 -1.000000000000000e+00
248 122 -1.000000000000000e+00
248 185 -1.000000000000000e+00
248 248 1.500000000000000e+01
249 27 -1.000000000000000e+00
249 60 -1.000000000000000e+00
249 229 -1.000000000000000e+00
249 249 1.300000000000000e+01
250 7 -1.000000000000000e+00
250 161 -1.000000000000000e+00
250 176 -1.000000000000000e+00
250 250 7.668891385197639e+00
251 6 -1.000000000000000e+00
251 92 -1.000000000000000e+00
251 137 -1.000000000000000e+00
251 251 7.000000000000000e+00
252 9 -1.000000000000000e+00
252 127 -1.000000000000000e+00
252 151 -1.186410918831825e+00
252 252 8.186410918831825e+00
253 86 -1.000000000000000e+00
253 160 -1.000000000000000e+00
253 220 -1.000000000000000e+00
253 253 1.942360679805279e+01
254 5 -1.000000000000000e+00
254 35 -1.000000000000000e+00
254 152 -1.000000000000000e+00
254 254 1.154541219770908e+01
255 107 -1.000000000000000e+00
255 115 -1.000000000000000e+00
255 152 -1.000000000000000e+00
255 255 1.000000000000000e+01
256 2 -1.000000000000000e+00
256 11 -1.000000000000000e+00
256 128 -1.825741827487946e-01
256 187 -1.000000000000000e+00
256 256 3.055160504579544e+01
257 14 -1.000000000000000e+00
257 152 -1.000000000000000e+00
257 162 -1.000000000000000e+00
257 257 1.316366343200207e+01
258 31 -1.000000000000000e+00
258 95 -1.000000000000000e+00
258 253 -1.000000000000000e+00
258 258 1.100000000000000e+01
259 5 -1.000000000000000e+00
259 33 -1.000000000000000e+00
259 87 -1.000000000000000e+00
259 259 1.725651085376740e+01
260 6 -1.000000000000000e+00
260 13 -1.000000000000000e+00
260 157 -1.000000000000000e+00
260 260 1.017407765984535e+01
261 157 -1.000000000000000e+00
261 162 -1.000000000000000e+00
261 198 -1.000000000000000e+00
261 261 8.000000000000000e+00
262 8 -1.000000000000000e+00
262 94 -1.000000000000000e+00
262 225 -1.000000000000000e+00
262 262 4.258198887109756e+00
263 13 -1.000000000000000e+00
263 118 -1.000000000000000e+00
263 172 -1.235702246427536e+00
263 263 1.120307508856058e+01
264 7 -1.000000000000000e+00
264 26 -1.000000000000000e+00
264 114 -1.000000000000000e+00
264 264 1.600000000000000e+01
265 4 -1.000000000000000e+00
265 6 -1.000000000000000e+00
265 75 -1.000000000000000e+00
265 265 8.000000000000000e+00
266 31 -1.000000000000000e+00
266 96 -1.000000000000000e+00
266 117 -1.000000000000000e+00
266 266 1.136773924529552e+01
267 13 -1.000000000000000e+00
267 56 -1.000000000000000e+00
267 193 -1.000000000000000e+00
267 267 1.100000000000000e+01
268 6 -1.000000000000000e+00
268 8 -1.000000000000000e+00
268 13 -1.000000000000000e+00
268 268 7.000000000000000e+00
269 6 -1.000000000000000e+00
269 15 -1.000000000000000e+00
269 249 -1.000000000000000e+00
269 269 1.500000000000000e+01
270 142 -1.000000000000000e+00
270 170 -1.000000000000000e+00
270 193 -1.000000000000000e+00
270 270 2.011418193951249e+01
271 5 -1.000000000000000e+00
271 239 -1.000000000000000e+00
271 262 -1.000000000000000e+00
271 271 1.063841916620731e+01
272 32 -1.000000000000000e+00
272 166 -1.000000000000000e+00
272 246 -1.000000000000000e+00
272 272 6.000000000000000e+00
273 9 -1.000000000000000e+00
273 156 -1.000000000000000e+00
273 171 -1.000000000000000e+00
273 273 1.017407765984535e+01
274 35 -1.000000000000000e+00
274 72 -1.000000000000000e+00
274 79 -1.000000000000000e+00
274 274 1.225819888710976e+01
275 4 -1.000000000000000e+00
275 35 -1.000000000000000e+00
275 59 -1.000000000000000e+00
275 275 1.013363061845303e+01
276 108 -1.000000000000000e+00
276 202 -1.000000000000000e+00
276 230 -1.000000000000000e+00
276 276 8.288675129413605e+00
277 129 -1.000000000000000e+00
277 165 -1.000000000000000e+00
277 192 -1.000000000000000e+00
277 277 8.236582033336163e+00
278 13 -1.000000000000000e+00
278 52 -1.000000000000000e+00
278 61 -1.000000000000000e+00
278 278 3.518299549818039e+00
279 116 -1.000000000000000e+00
279 191 -1.000000000000000e+00
279 258 -1.000000000000000e+00
279 279 8.947839528322220e+00
280 2 -1.000000000000000e+00
280 158 -1.000000000000000e+00
280 243 -1.000000000000000e+00
280 280 2.100000000000000e+01
281 70 -1.000000000000000e+00
281 89 -1.000000000000000e+00
281 108 -1.000000000000000e+00
281 281 1.042036869376898e+01
282 6 -1.000000000000000e+00
282 7 -1.000000000000000e+00
282 82 -1.000000000000000e+00
282 282 2.800000000000000e+01
283 44 -1.000000000000000e+00
283 69 -1.000000000000000e+00
283 111 -1.000000000000000e+00
283 283 6.000000000000000e+00
284 114 -1.000000000000000e+00
284 186 -1.000000000000000e+00
284 257 -1.000000000000000e+00
284 284 9.000000000000000e+00
285 11 -1.000000000000000e+00
285 23 -1.000000000000000e+00
285 239 -1.000000000000000e+00
285 285 7.124034732580185e+00
286 77 -1.000000000000000e+00
286 157 -1.000000000000000e+00
286 187 -1.000000000000000e+00
286 286 1.243461139500141e+01
287 14 -1.000000000000000e+00
287 92 -1.000000000000000e+00
287 118 -1.000000000000000e+00
287 287 1.418257418274879e+01
288 113 -1.000000000000000e+00
288 118 -1.000000000000000e+00
288 207 -1.000000000000000e+00
288 288 7.000000000000000e+00
289 28 -1.000000000000000e+00
289 100 -1.000000000000000e+00
289 118 -1.000000000000000e+00
289 289 9.000000000000000e+00
290 5 -1.000000000000000e+00
290 26 -1.000000000000000e+00
290 81 -1.000000000000000e+00
290 290 1.026967993378639e+01
291 7 -1.000000000000000e+00
291 46 -1.000000000000000e+00
291 75 -1.000000000000000e+00
291 291 5.000000000000000e+00
292 8 -1.000000000000000e+00
292 100 -1.000000000000000e+00
292 245 -1.000000000000000e+00
292 292 2.000000000000000e+01
293 13 -1.000000000000000e+00
293 19 -1.000000000000000e+00
293 97 -1.000000000000000e+00
293 293 5.350434325635433e+00
294 22 -1.000000000000000e+00
294 103 -1.000000000000000e+00
294 192 -1.000000000000000e+00
294 294 1.200000000000000e+01
295 4 -1.000000000000000e+00
295 130 -1.000000000000000e+00
295 221 -1.000000000000000e+00
295 295 6.129099443554878e+00
296 28 -1.000000000000000e+00
296 171 -1.000000000000000e+00
296 260 -1.000000000000000e+00
296 296 8.198029503226280e+00
297 6 -1.000000000000000e+00
297 89 -1.000000000000000e+00
297 199 -1.000000000000000e+00
297 297 1.944450044631958e+01
298 10 -1.000000000000000e+00
298 34 -1.000000000000000e+00
298 72 -1.000000000000000e+00
298 298 1.011547005921602e+01
299 21 -1.000000000000000e+00
299 66 -1.000000000000000e+00
299 117 -1.000000000000000e+00
299 299 4.171498596668243e+00
300 10 -1.000000000000000e+00
300 46 -1.000000000000000e+00
300 57 -1.000000000000000e+00
300 300 7.141421362757683e+00
301 5 -1.000000000000000e+00
301 42 -1.000000000000000e+00
301 284 -1.000000000000000e+00
301 301 9.314970403909683e+00
302 27 -1.000000000000000e+00
302 140 -1.000000000000000e+00
302 171 -1.000000000000000e+00
302 302 1.800000000000000e+01
303 11 -1.000000000000000e+00
303 200 -1.000000000000000e+00
303 218 -1.000000000000000e+00
303 303 8.158113881945610e+00
304 5 -1.000000000000000e+00
304 54 -1.000000000000000e+00
304 55 -1.000000000000000e+00
304 304 1.396145349740982e+01
305 9 -1.000000000000000e+00
305 107 -1.000000000000000e+00
305 280 -1.000000000000000e+00
305 305 2.715811388194561e+01
306 2 -1.000000000000000e+00
306 7 -1.000000000000000e+00
306 88 -1.000000000000000e+00
306 306 1.513693062961102e+01
307 34 -1.000000000000000e+00
307 78 -1.000000000000000e+00
307 264 -1.000000000000000e+00
307 307 1.119245009124279e+01
308 31 -1.000000000000000e+00
308 210 -1.000000000000000e+00
308 273 -1.000000000000000e+00
308 308 8.000000000000000e+00
309 9 -1.000000000000000e+00
309 105 -1.000000000000000e+00
309 268 -1.000000000000000e+00
309 309 4.262612879276276e+00
310 75 -1.000000000000000e+00
310 133 -1.000000000000000e+00
310 157 -1.000000000000000e+00
310 296 -1.980295032262802e-01
310 310 1.219802950322628e+01
311 6 -1.000000000000000e+00
311 139 -1.000000000000000e+00
311 279 -3.026137948036194e-01
311 297 -1.000000000000000e+00
311 311 1.546274195611477e+01
312 24 -1.000000000000000e+00
312 86 -1.000000000000000e+00
312 161 -7.372097671031952e-02
312 204 -1.000000000000000e+00
312 225 -2.132007181644440e-01
312 312 1.251052848994732e+01
313 24 -1.000000000000000e+00
313 194 -1.000000000000000e+00
313 215 -1.000000000000000e+00
313 313 1.400000000000000e+01
314 37 -1.000000000000000e+00
314 137 -1.000000000000000e+00
314 256 -1.000000000000000e+00
314 314 8.000000000000000e+00
315 7 -1.000000000000000e+00
315 74 -1.000000000000000e+00
315 217 -1.000000000000000e+00
315 315 2.000000000000000e+01
316 7 -1.000000000000000e+00
316 31 -1.000000000000000e+00
316 65 -1.000000000000000e+00
316 316 1.314744195342064e+01
317 31 -1.000000000000000e+00
317 57 -1.000000000000000e+00
317 85 -1.000000000000000e+00
317 317 2.044640105217695e+01
318 5 -1.000000000000000e+00
318 7 -1.000000000000000e+00
318 29 -1.036084391176701e+00
318 318 6.036084391176701e+00
319 4 -1.000000000000000e+00
319 8 -1.000000000000000e+00
319 47 -1.000000000000000e+00
319 319 1.120225995779037e+01
320 157 -1.000000000000000e+00
320 206 -1.000000000000000e+00
320 210 -1.000000000000000e+00
320 320 1.537151086330414e+01
321 9 -1.000000000000000e+00
321 11 -1.000000000000000e+00
321 35 -1.000000000000000e+00
321 321 1.112909944355488e+01
322 26 -1.000000000000000e+00
322 38 -1.000000000000000e+00
322 94 -1.000000000000000e+00
322 322 7.136082753539085e+00
323 100 -1.000000000000000e+00
323 199 -1.000000000000000e+00
323 238 -7.905694097280502e-02
323 243 -1.000000000000000e+00
323 323 1.022047830373049e+01
324 23 -1.000000000000000e+00
324 158 -1.000000000000000e+00
324 238 -1.000000000000000e+00
324 324 1.800000000000000e+01
325 7 -1.000000000000000e+00
325 8 -1.000000000000000e+00
325 83 -1.000000000000000e+00
325 325 1.935590180754662e+01
326 35 -1.000000000000000e+00
326 78 -1.000000000000000e+00
326 272 -1.000000000000000e+00
326 326 1.330034918338060e+01
327 13 -1.000000000000000e+00
327 118 -1.000000000000000e+00
327 229 -1.000000000000000e+00
327 327 1.132932582497597e+01
328 46 -9.128709137439728e-02
328 71 -1.000000000000000e+00
328 99 -1.000000000000000e+00
328 322 -1.000000000000000e+00
328 328 5.091287091374397e+00
329 37 -1.000000000000000e+00
329 80 -1.000000000000000e+00
329 189 -1.000000000000000e+00
329 329 1.000000000000000e+01
330 54 -1.000000000000000e+00
330 137 -1.000000000000000e+00
330 161 -1.000000000000000e+00
330 330 2.317213259637356e+01
331 52 -1.000000000000000e+00
331 94 -1.000000000000000e+00
331 157 -1.000000000000000e+00
331 331 5.123091489076614e+00
332 6 -1.000000000000000e+00
332 15 -1.000000000000000e+00
332 60 -1.000000000000000e+00
332 332 1.512500000000000e+01
333 82 -1.000000000000000e+00
333 108 -1.000000000000000e+00
333 274 -1.000000000000000e+00
333 333 1.400000000000000e+01
334 23 -1.000000000000000e+00
334 61 -1.000000000000000e+00
334 259 -1.000000000000000e+00
334 334 1.100000000000000e+01
335 7 -1.000000000000000e+00
335 102 -1.000000000000000e+00
335 153 -1.000000000000000e+00
335 335 1.748456485569477e+01
336 23 -1.000000000000000e+00
336 74 -1.000000000000000e+00
336 163 -1.000000000000000e+00
336 336 4.561356037855148e+00
337 46 -1.000000000000000e+00
337 107 -1.000000000000000e+00
337 242 -1.000000000000000e+00
337 337 7.000000000000000e+00
338 96 -1.000000000000000e+00
338 174 -1.000000000000000e+00
338 325 -1.000000000000000e+00
338 338 6.530330076813698e+00
339 47 -1.000000000000000e+00
339 71 -1.000000000000000e+00
339 172 -1.000000000000000e+00
339 339 8.000000000000000e+00
340 8 -1.000000000000000e+00
340 17 -1.000000000000000e+00
340 34 -1.000000000000000e+00
340 340 8.182574182748795e+00
341 8 -1.000000000000000e+00
341 254 -1.000000000000000e+00
341 307 -1.000000000000000e+00
341 341 1.100000000000000e+01
342 5 -1.000000000000000e+00
342 27 -1.000000000000000e+00
342 153 -1.000000000000000e+00
342 342 1.037178504467010e+01
343 5 -1.000000000000000e+00
343 12 -1.000000000000000e+00
343 43 -1.000000000000000e+00
343 343 1.115962868928909e+01
344 6 -1.000000000000000e+00
344 9 -1.000000000000000e+00
344 118 -1.000000000000000e+00
344 344 7.000000000000000e+00
345 7 -1.000000000000000e+00
345 13 -1.000000000000000e+00
345 297 -1.000000000000000e+00
345 345 6.149071201682091e+00
346 8 -1.000000000000000e+00
346 11 -1.000000000000000e+00
346 187 -1.000000000000000e+00
346 346 1.141875815391541e+01
347 7 -1.000000000000000e+00
347 123 -1.000000000000000e+00
347 305 -1.000000000000000e+00
347 347 8.202355571091175e+00
348 127 -1.000000000000000e+00
348 193 -1.000000000000000e+00
348 301 -1.000000000000000e+00
348 348 1.458775255084038e+01
349 4 -1.000000000000000e+00
349 324 -1.000000000000000e+00
349 339 -1.000000000000000e+00
349 349 5.174230851233006e+00
350 231 -1.000000000000000e+00
350 241 -1.000000000000000e+00
350 282 -1.000000000000000e+00
350 350 3.100000000000000e+01
351 5 -1.000000000000000e+00
351 8 -1.000000000000000e+00
351 113 -1.000000000000000e+00
351 351 7.691639363765717e+00
352 11 -1.000000000000000e+00
352 27 -1.000000000000000e+00
352 82 -1.000000000000000e+00
352 352 3.000000000000000e+00
353 17 -1.000000000000000e+00
353 81 -2.038588672876358e-01
353 192 -1.000000000000000e+00
353 200 -1.000000000000000e+00
353 353 9.643713071942329e+00
354 35 -1.000000000000000e+00
354 218 -1.000000000000000e+00
354 256 -1.000000000000000e+00
354 354 5.270520806312561e+00
355 26 -1.000000000000000e+00
355 116 -1.000000000000000e+00
355 224 -1.000000000000000e+00
355 355 5.000000000000000e+00
356 3 -1.000000000000000e+00
356 116 -1.000000000000000e+00
356 279 -1.000000000000000e+00
356 356 4.000000000000000e+00
357 8 -1.000000000000000e+00
357 11 -1.000000000000000e+00
357 157 -1.000000000000000e+00
357 357 7.000000000000000e+00
358 130 -1.000000000000000e+00
358 250 -1.000000000000000e+00
358 357 -1.000000000000000e+00
358 358 4.000000000000000e+00
359 5 -1.000000000000000e+00
359 118 -1.000000000000000e+00
359 305 -1.000000000000000e+00
359 359 7.000000000000000e+00
360 23 -1.000000000000000e+00
360 100 -1.000000000000000e+00
360 142 -1.000000000000000e+00
360 360 7.000000000000000e+00
361 200 -1.000000000000000e+00
361 218 -1.000000000000000e+00
361 334 -1.000000000000000e+00
361 361 9.149401605129242e+00
362 23 -1.000000000000000e+00
362 72 -1.000000000000000e+00
362 86 -1.000000000000000e+00
362 362 4.000000000000000e+00
363 7 -1.000000000000000e+00
363 57 -1.000000000000000e+00
363 209 -1.000000000000000e+00
363 363 9.188982248306274e+00
364 36 -1.000000000000000e+00
364 67 -1.000000000000000e+00
364 282 -1.000000000000000e+00
364 364 1.100000000000000e+01
365 4 -1.000000000000000e+00
365 6 -1.000000000000000e+00
365 57 -1.000000000000000e+00
365 365 8.414672330021858e+00
366 8 -1.000000000000000e+00
366 85 -1.000000000000000e+00
366 118 -1.000000000000000e+00
366 366 8.389593854546547e+00
367 108 -1.000000000000000e+00
367 190 -1.000000000000000e+00
367 287 -1.000000000000000e+00
367 367 8.000000000000000e+00
368 7 -1.000000000000000e+00
368 272 -1.000000000000000e+00
368 315 -1.000000000000000e+00
368 368 7.413947507739067e+00
369 9 -1.000000000000000e+00
369 102 -1.000000000000000e+00
369 265 -1.000000000000000e+00
369 369 1.341403423249722e+01
370 4 -1.000000000000000e+00
370 51 -1.000000000000000e+00
370 350 -1.000000000000000e+00
370 370 1.814322297275066e+01
371 10 -1.000000000000000e+00
371 92 -1.000000000000000e+00
371 192 -1.000000000000000e+00
371 371 1.138354616612196e+01
372 5 -1.000000000000000e+00
372 96 -1.000000000000000e+00
372 350 -1.000000000000000e+00
372 365 -1.924500912427902e-01
372 372 1.638490018248558e+01
373 49 -1.000000000000000e+00
373 174 -1.000000000000000e+00
373 207 -1.000000000000000e+00
373 373 4.000000000000000e+00
374 6 -1.000000000000000e+00
374 308 -1.000000000000000e+00
374 371 -1.000000000000000e+00
374 374 1.427735009789467e+01
375 230 -1.000000000000000e+00
375 239 -1.000000000000000e+00
375 334 -1.000000000000000e+00
375 375 4.186338990926743e+00
376 261 -1.000000000000000e+00
376 314 -1.000000000000000e+00
376 374 -1.000000000000000e+00
376 376 1.632232919335365e+01
377 57 -1.000000000000000e+00
377 132 -1.000000000000000e+00
377 223 -1.000000000000000e+00
377 377 4.000000000000000e+00
378 6 -1.000000000000000e+00
378 48 -1.000000000000000e+00
378 114 -1.000000000000000e+00
378 378 1.828005602955818e+01
379 33 -1.000000000000000e+00
379 135 -1.000000000000000e+00
379 326 -1.000000000000000e+00
379 379 6.335539743304253e+00
380 26 -1.000000000000000e+00
380 107 -1.000000000000000e+00
380 267 -1.000000000000000e+00
380 380 4.295766115188599e+00
381 27 -1.000000000000000e+00
381 46 -1.000000000000000e+00
381 153 -1.000000000000000e+00
381 381 5.293218787759542e+00
382 72 -1.000000000000000e+00
382 230 -1.000000000000000e+00
382 346 -1.000000000000000e+00
382 382 1.200000000000000e+01
383 9 -1.000000000000000e+00
383 57 -1.000000000000000e+00
383 304 -1.316227763891220e+00
383 383 1.731622776389122e+01
384 7 -1.000000000000000e+00
384 94 -1.000000000000000e+00
384 315 -1.000000000000000e+00
384 384 9.455070734024048e+00
385 1 -1.000000000000000e+00
385 48 -1.000000000000000e+00
385 283 -1.000000000000000e+00
385 385 9.149071186780930e+00
386 34 -1.000000000000000e+00
386 51 -1.132276952266693e-01
386 158 -2.338821440935135e-01
386 184 -1.000000000000000e+00
386 324 -1.000000000000000e+00
386 386 8.507238000631332e+00
387 55 -1.000000000000000e+00
387 58 -1.000000000000000e+00
387 59 -1.000000000000000e+00
387 387 7.000000000000000e+00
388 7 -1.000000000000000e+00
388 35 -1.000000000000000e+00
388 118 -1.000000000000000e+00
388 388 4.000000000000000e+00
389 28 -1.000000000000000e+00
389 207 -1.000000000000000e+00
389 242 -1.000000000000000e+00
389 304 -2.672612369060516e-01
389 389 6.421564593911171e+00
390 10 -1.000000000000000e+00
390 42 -1.000000000000000e+00
390 50 -1.000000000000000e+00
390 390 1.215811388194561e+01
391 10 -1.000000000000000e+00
391 51 -1.000000000000000e+00
391 65 -1.000000000000000e+00
391 391 1.257213579118252e+01
392 2 -1.000000000000000e+00
392 72 -1.000000000000000e+00
392 306 -1.000000000000000e+00
392 392 5.301511347293854e+00
393 23 -1.000000000000000e+00
393 117 -1.000000000000000e+00
393 134 -1.000000000000000e+00
393 393 2.010583343729377e+01
394 5 -1.000000000000000e+00
394 8 -1.000000000000000e+00
394 23 -1.000000000000000e+00
394 394 5.300000004470348e+00
395 56 -1.466471105813980e-01
395 82 -1.000000000000000e+00
395 248 -1.000000000000000e+00
395 259 -1.000000000000000e+00
395 395 1.031331376731396e+01
396 10 -1.000000000000000e+00
396 35 -1.000000000000000e+00
396 170 -1.000000000000000e+00
396 396 1.212598815560341e+01
397 42 -1.000000000000000e+00
397 239 -1.000000000000000e+00
397 366 -1.000000000000000e+00
397 397 3.087705798447132e+00
398 4 -1.000000000000000e+00
398 123 -1.000000000000000e+00
398 126 -1.000000000000000e+00
398 398 1.210411583632231e+01
399 23 -1.000000000000000e+00
399 57 -1.000000000000000e+00
399 75 -1.000000000000000e+00
399 301 -3.149704039096832e-01
399 399 1.231497040390968e+01
400 101 -1.000000000000000e+00
400 162 -1.000000000000000e+00
400 343 -1.000000000000000e+00
400 400 1.111785112321377e+01
401 29 -9.682457894086838e-02
401 46 -1.000000000000000e+00
401 317 -1.000000000000000e+00
401 318 -1.000000000000000e+00
401 401 8.142468124628067e+00
402 8 -1.000000000000000e+00
402 47 -1.000000000000000e+00
402 321 -1.000000000000000e+00
402 402 7.000000000000000e+00
403 7 -1.000000000000000e+00
403 57 -1.000000000000000e+00
403 111 -1.000000000000000e+00
403 403 1.416894048079848e+01
404 11 -1.000000000000000e+00
404 239 -1.000000000000000e+00
404 305 -1.000000000000000e+00
404 404 1.520412413775921e+01
405 20 -1.000000000000000e+00
405 130 -3.647685945034027e-01
405 174 -1.000000000000000e+00
405 293 -1.000000000000000e+00
405 405 4.364768594503403e+00
406 19 -1.000000000000000e+00
406 139 -1.000000000000000e+00
406 315 -1.000000000000000e+00
406 406 9.763441324234009e+00
407 76 -1.000000000000000e+00
407 266 -1.000000000000000e+00
407 333 -1.000000000000000e+00
407 407 1.241777457296848e+01
408 7 -1.000000000000000e+00
408 8 -1.000000000000000e+00
408 165 -1.000000000000000e+00
408 408 1.100000000000000e+01
409 27 -1.000000000000000e+00
409 170 -1.000000000000000e+00
409 205 -1.000000000000000e+00
409 409 1.100000000000000e+01
410 18 -1.000000000000000e+00
410 79 -1.000000000000000e+00
410 205 -1.000000000000000e+00
410 410 6.000000000000000e+00
411 6 -1.000000000000000e+00
411 9 -1.000000000000000e+00
411 42 -1.000000000000000e+00
411 411 1.813450907543302e+01
412 4 -1.000000000000000e+00
412 43 -1.000000000000000e+00
412 149 -1.000000000000000e+00
412 412 1.419245009124279e+01
413 95 -1.000000000000000e+00
413 153 -1.000000000000000e+00
413 244 -1.000000000000000e+00
413 413 1.034720724821091e+01
414 2 -1.000000000000000e+00
414 52 -1.000000000000000e+00
414 133 -1.000000000000000e+00
414 414 9.256817728281021e+00
415 5 -1.000000000000000e+00
415 30 -1.000000000000000e+00
415 214 -1.000000000000000e+00
415 415 6.569263771176338e+00
416 26 -1.000000000000000e+00
416 304 -1.000000000000000e+00
416 399 -1.000000000000000e+00
416 416 1.318240084499121e+01
417 65 -1.000000000000000e+00
417 93 -1.000000000000000e+00
417 220 -1.000000000000000e+00
417 417 7.000000000000000e+00
418 51 -1.000000000000000e+00
418 96 -1.000000000000000e+00
418 287 -1.000000000000000e+00
418 418 7.411248058080673e+00
419 7 -1.000000000000000e+00
419 21 -1.000000000000000e+00
419 123 -1.000000000000000e+00
419 419 1.200000000000000e+01
420 8 -1.000000000000000e+00
420 253 -1.000000000000000e+00
420 350 -1.000000000000000e+00
420 351 -2.000000029802322e-01
420 420 1.420000000298023e+01
421 28 -1.000000000000000e+00
421 63 -1.000000000000000e+00
421 346 -1.000000000000000e+00
421 421 6.000000000000000e+00
422 96 -1.000000000000000e+00
422 104 -1.000000000000000e+00
422 332 -1.000000000000000e+00
422 422 8.132842227816582e+00
423 4 -1.000000000000000e+00
423 82 -1.000000000000000e+00
423 323 -1.000000000000000e+00
423 423 1.739464612305164e+01
424 31 -1.000000000000000e+00
424 51 -1.000000000000000e+00
424 57 -1.000000000000000e+00
424 424 1.400000000000000e+01
425 4 -1.000000000000000e+00
425 7 -1.000000000000000e+00
425 253 -1.000000000000000e+00
425 425 1.409325049072504e+01
426 13 -1.000000000000000e+00
426 65 -1.000000000000000e+00
426 156 -1.000000000000000e+00
426 263 -1.036951765418053e-01
426 426 6.103695176541805e+00
427 4 -1.000000000000000e+00
427 8 -1.000000000000000e+00
427 184 -1.000000000000000e+00
427 427 4.000000000000000e+00
428 182 -1.000000000000000e+00
428 255 -1.000000000000000e+00
428 256 -1.000000000000000e+00
428 428 5.380039811134338e+00
429 57 -1.000000000000000e+00
429 114 -1.000000000000000e+00
429 257 -1.000000000000000e+00
429 429 1.016666667163372e+01
430 77 -1.000000000000000e+00
430 163 -1.000000000000000e+00
430 325 -1.000000000000000e+00
430 430 1.122718472778797e+01
431 5 -1.000000000000000e+00
431 59 -1.000000000000000e+00
431 426 -1.000000000000000e+00
431 431 8.774596631526947e+00
432 8 -1.000000000000000e+00
432 46 -2.434322386980057e-01
432 139 -1.000000000000000e+00
432 227 -1.000000000000000e+00
432 432 1.424343223869801e+01
433 4 -1.000000000000000e+00
433 19 -1.000000000000000e+00
433 320 -1.000000000000000e+00
433 433 7.348155319690704e+00
434 83 -1.000000000000000e+00
434 96 -1.000000000000000e+00
434 282 -1.000000000000000e+00
434 434 9.000000000000000e+00
435 7 -1.000000000000000e+00
435 34 -1.000000000000000e+00
435 211 -1.000000000000000e+00
435 435 9.000000000000000e+00
436 22 -1.000000000000000e+00
436 34 -1.000000000000000e+00
436 59 -1.000000000000000e+00
436 436 7.000000000000000e+00
437 10 -1.000000000000000e+00
437 96 -1.000000000000000e+00
437 370 -1.000000000000000e+00
437 437 8.000000000000000e+00
438 6 -1.000000000000000e+00
438 14 -1.000000000000000e+00
438 313 -1.000000000000000e+00
438 438 8.068041376769543e+00
439 81 -1.000000000000000e+00
439 372 -1.000000000000000e+00
439 385 -7.453559339046478e-02
439 404 -1.000000000000000e+00
439 439 1.227453559637070e+01
440 48 -1.000000000000000e+00
440 71 -1.000000000000000e+00
440 92 -1.000000000000000e+00
440 440 1.112427394837141e+01
441 51 -1.000000000000000e+00
441 282 -1.000000000000000e+00
441 325 -1.000000000000000e+00
441 441 1.319245009124279e+01
442 8 -1.000000000000000e+00
442 194 -1.000000000000000e+00
442 256 -1.000000000000000e+00
442 442 2.200000000000000e+01
443 6 -1.000000000000000e+00
443 306 -1.000000000000000e+00
443 307 -1.000000000000000e+00
443 443 1.100000000000000e+01
444 70 -1.000000000000000e+00
444 71 -1.000000000000000e+00
444 251 -1.000000000000000e+00
444 444 1.613363061845303e+01
445 70 -1.000000000000000e+00
445 254 -1.000000000000000e+00
445 375 -1.000000000000000e+00
445 445 1.400000000000000e+01
446 8 -1.000000000000000e+00
446 248 -1.000000000000000e+00
446 275 -1.000000000000000e+00
446 398 -1.041158363223076e-01
446 446 6.230103991925716e+00
447 7 -1.000000000000000e+00
447 8 -1.000000000000000e+00
447 133 -1.129099443554878e+00
447 447 1.012909944355488e+01
448 2 -1.507556736469269e-01
448 66 -1.000000000000000e+00
448 148 -1.000000000000000e+00
448 256 -1.000000000000000e+00
448 392 -1.507556736469269e-01
448 448 8.301511347293854e+00
449 194 -1.000000000000000e+00
449 411 -1.000000000000000e+00
449 440 -1.000000000000000e+00
449 449 5.104257203638554e+00
450 18 -1.000000000000000e+00
450 38 -1.000000000000000e+00
450 231 -1.000000000000000e+00
450 450 1.133333334326744e+01
451 89 -1.000000000000000e+00
451 124 -1.000000000000000e+00
451 207 -1.000000000000000e+00
451 451 2.100000000000000e+01
452 13 -1.000000000000000e+00
452 50 -1.000000000000000e+00
452 72 -1.000000000000000e+00
452 452 1.000000000000000e+01
453 6 -1.000000000000000e+00
453 8 -1.000000000000000e+00
453 11 -1.000000000000000e+00
453 453 8.061545744538307e+00
454 55 -1.000000000000000e+00
454 104 -1.000000000000000e+00
454 153 -1.000000000000000e+00
454 454 1.018898224830627e+01
455 5 -1.000000000000000e+00
455 102 -1.000000000000000e+00
455 233 -8.333333581686020e-02
455 410 -1.000000000000000e+00
455 455 9.083333335816860e+00
456 2 -1.000000000000000e+00
456 92 -1.000000000000000e+00
456 372 -1.000000000000000e+00
456 456 1.042677672207355e+01
457 4 -1.000000000000000e+00
457 5 -1.000000000000000e+00
457 21 -1.000000000000000e+00
457 457 7.072168782353401e+00
458 1 -1.000000000000000e+00
458 93 -1.000000000000000e+00
458 248 -1.000000000000000e+00
458 458 1.328867512941360e+01
459 62 -1.000000000000000e+00
459 161 -1.000000000000000e+00
459 405 -1.000000000000000e+00
459 459 6.226778671145439e+00
460 14 -1.000000000000000e+00
460 122 -1.000000000000000e+00
460 165 -1.000000000000000e+00
460 460 9.129099443554878e+00
461 7 -1.000000000000000e+00
461 39 -1.000000000000000e+00
461 90 -1.000000000000000e+00
461 461 1.531929732114077e+01
462 7 -1.000000000000000e+00
462 57 -1.000000000000000e+00
462 81 -1.000000000000000e+00
462 462 6.111803397536278e+00
463 137 -1.000000000000000e+00
463 157 -1.000000000000000e+00
463 189 -1.000000000000000e+00
463 463 3.000000000000000e+00
464 27 -1.000000000000000e+00
464 72 -1.000000000000000e+00
464 256 -1.000000000000000e+00
464 464 1.136073912680149e+01
465 13 -1.000000000000000e+00
465 312 -1.000000000000000e+00
465 347 -1.000000000000000e+00
465 465 8.331693664193153e+00
466 33 -1.000000000000000e+00
466 423 -1.000000000000000e+00
466 453 -1.000000000000000e+00
466 466 1.000000000000000e+01
467 209 -1.000000000000000e+00
467 316 -1.000000000000000e+00
467 359 -1.000000000000000e+00
467 467 4.311673626303673e+00
468 6 -1.000000000000000e+00
468 45 -1.000000000000000e+00
468 307 -1.000000000000000e+00
468 468 8.176776692271233e+00
469 61 -1.000000000000000e+00
469 130 -1.000000000000000e+00
469 330 -1.000000000000000e+00
469 469 7.000000000000000e+00
470 77 -1.000000000000000e+00
470 306 -1.000000000000000e+00
470 338 -1.000000000000000e+00
470 470 4.537459462881088e+00
471 1 -1.000000000000000e+00
471 9 -1.000000000000000e+00
471 223 -1.000000000000000e+00
471 471 8.000000000000000e+00
472 12 -1.000000000000000e+00
472 21 -1.000000000000000e+00
472 48 -1.000000000000000e+00
472 472 7.120385847985744e+00
473 77 -1.000000000000000e+00
473 82 -1.000000000000000e+00
473 191 -1.000000000000000e+00
473 473 3.000000000000000e+00
474 48 -1.000000000000000e+00
474 59 -1.000000000000000e+00
474 403 -1.000000000000000e+00
474 474 6.117851123213768e+00
475 114 -1.000000000000000e+00
475 225 -1.000000000000000e+00
475 411 -1.000000000000000e+00
475 475 4.244187355041504e+00
476 118 -1.000000000000000e+00
476 313 -1.000000000000000e+00
476 324 -1.000000000000000e+00
476 476 1.400000000000000e+01
477 71 -1.000000000000000e+00
477 220 -1.000000000000000e+00
477 297 -1.000000000000000e+00
477 477 5.248145848512650e+00
478 43 -1.000000000000000e+00
478 256 -1.000000000000000e+00
478 450 -1.000000000000000e+00
478 478 7.000000000000000e+00
479 107 -1.000000000000000e+00
479 150 -1.000000000000000e+00
479 257 -1.636634320020676e-01
479 297 -1.000000000000000e+00
479 479 1.036778758466244e+01
480 77 -1.000000000000000e+00
480 86 -1.000000000000000e+00
480 159 -1.000000000000000e+00
480 480 1.300000000000000e+01
481 32 -1.000000000000000e+00
481 108 -1.000000000000000e+00
481 313 -1.000000000000000e+00
481 481 5.076923079788685e+00
482 68 -1.000000000000000e+00
482 78 -1.000000000000000e+00
482 287 -1.000000000000000e+00
482 372 -1.924500912427902e-01
482 482 1.541467233002186e+01
483 1 -1.000000000000000e+00
483 78 -1.000000000000000e+00
483 221 -1.000000000000000e+00
483 483 1.840000000596046e+01
484 46 -1.000000000000000e+00
484 86 -1.000000000000000e+00
484 259 -1.000000000000000e+00
484 484 1.000000000000000e+01
485 49 -1.000000000000000e+00
485 327 -1.000000000000000e+00
485 472 -1.000000000000000e+00
485 485 8.138675048947334e+00
486 4 -1.000000000000000e+00
486 9 -1.000000000000000e+00
486 67 -1.000000000000000e+00
486 486 4.132453233003616e+00
487 31 -1.000000000000000e+00
487 69 -1.000000000000000e+00
487 298 -1.000000000000000e+00
487 487 1.300000000000000e+01
488 44 -1.000000000000000e+00
488 92 -1.000000000000000e+00
488 383 -1.000000000000000e+00
488 488 1.314142136275768e+01
489 55 -1.000000000000000e+00
489 82 -1.000000000000000e+00
489 239 -1.000000000000000e+00
489 489 1.000000000000000e+01
490 7 -1.000000000000000e+00
490 8 -1.000000000000000e+00
490 114 -1.000000000000000e+00
490 490 5.000000000000000e+00
491 86 -1.000000000000000e+00
491 93 -1.000000000000000e+00
491 292 -1.000000000000000e+00
491 491 9.000000000000000e+00
492 7 -1.000000000000000e+00
492 28 -1.000000000000000e+00
492 413 -1.102062076330185e+00
492 492 6.617498412728310e+00
493 5 -1.000000000000000e+00
493 57 -1.000000000000000e+00
493 74 -1.000000000000000e+00
493 493 6.516397774219513e+00
494 13 -1.000000000000000e+00
494 231 -1.000000000000000e+00
494 398 -1.000000000000000e+00
494 494 1.526340357959270e+01
495 13 -1.000000000000000e+00
495 109 -1.000000000000000e+00
495 274 -1.000000000000000e+00
495 495 6.140028014779091e+00
496 9 -1.000000000000000e+00
496 29 -1.000000000000000e+00
496 77 -1.000000000000000e+00
496 496 1.325354626774788e+01
497 77 -1.000000000000000e+00
497 254 -1.000000000000000e+00
497 383 -1.000000000000000e+00
497 497 1.400000000000000e+01
498 15 -1.000000000000000e+00
498 35 -1.000000000000000e+00
498 395 -1.000000000000000e+00
498 498 8.000000000000000e+00
499 256 -1.000000000000000e+00
499 296 -1.000000000000000e+00
499 386 -1.000000000000000e+00
499 499 7.174077659845352e+00
500 422 -1.000000000000000e+00
500 442 -1.000000000000000e+00
500 464 -1.000000000000000e+00
500 500 9.414034232497215e+00
501 21 -1.000000000000000e+00
501 315 -1.000000000000000e+00
501 419 -1.000000000000000e+00
501 501 4.382333733141422e+00
502 11 -1.000000000000000e+00
502 71 -1.000000000000000e+00
502 186 -1.000000000000000e+00
502 502 4.000000000000000e+00
503 17 -1.000000000000000e+00
503 23 -1.000000000000000e+00
503 190 -1.000000000000000e+00
503 503 5.000000000000000e+00
504 214 -1.000000000000000e+00
504 235 -1.000000000000000e+00
504 483 -1.000000000000000e+00
504 504 5.000000000000000e+00
505 6 -1.000000000000000e+00
505 127 -1.000000000000000e+00
505 243 -1.000000000000000e+00
505 505 8.413514271378517e+00
506 101 -1.000000000000000e+00
506 390 -1.000000000000000e+00
506 452 -1.000000000000000e+00
506 506 6.000000000000000e+00
507 51 -1.000000000000000e+00
507 100 -1.000000000000000e+00
507 277 -1.083189032971859e+00
507 507 1.113075418397784e+01
508 24 -1.000000000000000e+00
508 59 -1.000000000000000e+00
508 66 -1.000000000000000e+00
508 508 7.000000000000000e+00
509 85 -1.000000000000000e+00
509 150 -1.000000000000000e+00
509 260 -1.000000000000000e+00
509 509 6.000000000000000e+00
510 236 -1.000000000000000e+00
510 290 -1.000000000000000e+00
510 313 -1.000000000000000e+00
510 510 9.000000000000000e+00
511 8 -1.000000000000000e+00
511 216 -1.000000000000000e+00
511 256 -1.000000000000000e+00
511 511 1.312309148907661e+01
512 5 -1.000000000000000e+00
512 51 -1.000000000000000e+00
512 496 -1.000000000000000e+00
512 512 4.000000000000000e+00
513 9 -1.000000000000000e+00
513 39 -1.000000000000000e+00
513 61 -1.000000000000000e+00
513 513 9.422571554780006e+00
514 8 -1.000000000000000e+00
514 44 -1.000000000000000e+00
514 425 -1.000000000000000e+00
514 514 6.000000000000000e+00
515 27 -1.000000000000000e+00
515 37 -1.000000000000000e+00
515 59 -1.000000000000000e+00
515 515 5.000000000000000e+00
516 88 -1.206418722867966e+00
516 189 -1.000000000000000e+00
516 455 -1.000000000000000e+00
516 516 6.206418722867966e+00
517 13 -1.000000000000000e+00
517 96 -1.000000000000000e+00
517 335 -1.000000000000000e+00
517 517 8.333333343267441e+00
518 135 -1.000000000000000e+00
518 286 -1.000000000000000e+00
518 305 -1.000000000000000e+00
518 518 8.000000000000000e+00
519 81 -1.000000000000000e+00
519 123 -1.000000000000000e+00
519 353 -1.138342887163162e+00
519 519 3.138342887163162e+00
520 79 -1.000000000000000e+00
520 199 -1.000000000000000e+00
520 239 -1.000000000000000e+00
520 520 5.000000000000000e+00
521 159 -1.000000000000000e+00
521 316 -1.000000000000000e+00
521 466 -1.000000000000000e+00
521 521 5.000000000000000e+00
522 163 -1.000000000000000e+00
522 363 -1.000000000000000e+00
522 408 -1.000000000000000e+00
522 522 2.500000000000000e+01
523 4 -1.000000000000000e+00
523 62 -1.000000000000000e+00
523 214 -1.000000000000000e+00
523 523 6.000000000000000e+00
524 153 -1.000000000000000e+00
524 154 -1.000000000000000e+00
524 273 -1.000000000000000e+00
524 524 4.000000000000000e+00
525 6 -1.000000000000000e+00
525 7 -1.000000000000000e+00
525 143 -1.000000000000000e+00
525 525 1.000000000000000e+01
526 97 -1.000000000000000e+00
526 140 -1.000000000000000e+00
526 209 -1.000000000000000e+00
526 526 9.123091489076614e+00
527 16 -1.000000000000000e+00
527 201 -1.000000000000000e+00
527 525 -1.000000000000000e+00
527 527 5.000000000000000e+00
528 6 -1.000000000000000e+00
528 85 -1.000000000000000e+00
528 227 -1.000000000000000e+00
528 528 6.456629648804665e+00
529 297 -1.000000000000000e+00
529 343 -1.000000000000000e+00
529 513 -1.000000000000000e+00
529 529 7.635933578014374e+00
530 6 -1.000000000000000e+00
530 123 -1.000000000000000e+00
530 263 -1.000000000000000e+00
530 530 9.262709781527519e+00
531 46 -1.000000000000000e+00
531 95 -1.000000000000000e+00
531 367 -1.000000000000000e+00
531 531 1.310369517654181e+01
532 48 -1.000000000000000e+00
532 122 -1.129099443554878e+00
532 345 -1.000000000000000e+00
532 532 8.129099443554878e+00
533 20 -1.000000000000000e+00
533 35 -1.000000000000000e+00
533 245 -1.000000000000000e+00
533 533 7.301776692271233e+00
534 32 -1.000000000000000e+00
534 301 -1.000000000000000e+00
534 510 -1.000000000000000e+00
534 534 9.000000000000000e+00
535 5 -1.000000000000000e+00
535 16 -1.000000000000000e+00
535 317 -1.000000000000000e+00
535 535 1.614142136275768e+01
536 42 -1.000000000000000e+00
536 89 -1.112687230110168e+00
536 217 -1.000000000000000e+00
536 536 3.161482233554125e+00
537 2 -1.000000000000000e+00
537 248 -1.000000000000000e+00
537 383 -1.000000000000000e+00
537 537 4.103695176541805e+00
538 28 -1.000000000000000e+00
538 201 -1.000000000000000e+00
538 282 -1.000000000000000e+00
538 538 6.282136715948582e+00
539 6 -1.000000000000000e+00
539 82 -1.000000000000000e+00
539 280 -1.000000000000000e+00
539 539 4.000000000000000e+00
540 98 -1.000000000000000e+00
540 225 -1.000000000000000e+00
540 425 -1.000000000000000e+00
540 540 1.500000000000000e+01
541 5 -1.000000000000000e+00
541 137 -1.000000000000000e+00
541 391 -3.494181036949158e-01
541 474 -1.000000000000000e+00
541 541 5.733064755797386e+00
542 27 -1.000000000000000e+00
542 35 -1.000000000000000e+00
542 52 -1.000000000000000e+00
542 542 8.434831783175468e+00
543 5 -1.000000000000000e+00
543 11 -1.000000000000000e+00
543 315 -1.000000000000000e+00
543 543 3.000000000000000e+00
544 57 -1.000000000000000e+00
544 192 -1.000000000000000e+00
544 361 -1.000000000000000e+00
544 544 8.117851138114929e+00
545 9 -1.000000000000000e+00
545 79 -1.000000000000000e+00
545 215 -1.000000000000000e+00
545 545 1.017677669227123e+01
546 13 -1.000000000000000e+00
546 80 -1.000000000000000e+00
546 235 -1.000000000000000e+00
546 546 8.000000000000000e+00
547 34 -1.000000000000000e+00
547 118 -1.000000000000000e+00
547 535 -1.000000000000000e+00
547 547 2.231622776389122e+01
548 27 -1.000000000000000e+00
548 59 -1.000000000000000e+00
548 81 -1.000000000000000e+00
548 548 9.352010443806648e+00
549 5 -1.000000000000000e+00
549 82 -1.000000000000000e+00
549 118 -1.000000000000000e+00
549 137 -1.773937046527863e-01
549 549 6.275451771914959e+00
550 242 -1.000000000000000e+00
550 243 -1.000000000000000e+00
550 533 -1.000000000000000e+00
550 550 8.267261236906052e+00
551 104 -1.000000000000000e+00
551 444 -1.000000000000000e+00
551 500 -1.000000000000000e+00
551 551 5.626918226480484e+00
552 27 -1.000000000000000e+00
552 70 -1.000000000000000e+00
552 103 -1.000000000000000e+00
552 552 9.000000000000000e+00
553 21 -1.000000000000000e+00
553 138 -1.000000000000000e+00
553 178 -1.000000000000000e+00
553 553 3.182574182748795e+00
554 5 -1.000000000000000e+00
554 7 -1.000000000000000e+00
554 522 -1.000000000000000e+00
554 554 8.000000000000000e+00
555 31 -1.000000000000000e+00
555 207 -1.000000000000000e+00
555 363 -1.000000000000000e+00
555 555 5.000000000000000e+00
556 124 -1.000000000000000e+00
556 432 -1.000000000000000e+00
556 531 -1.000000000000000e+00
556 556 6.504030421376228e+00
557 254 -1.000000000000000e+00
557 320 -1.000000000000000e+00
557 353 -1.000000000000000e+00
557 557 1.209128709137440e+01
558 388 -1.000000000000000e+00
558 399 -1.000000000000000e+00
558 522 -1.000000000000000e+00
558 558 6.000000000000000e+00
559 133 -1.000000000000000e+00
559 207 -1.000000000000000e+00
559 468 -1.000000000000000e+00
559 559 7.000000000000000e+00
560 325 -1.000000000000000e+00
560 437 -1.000000000000000e+00
560 442 -1.000000000000000e+00
560 560 5.000000000000000e+00
561 139 -1.000000000000000e+00
561 219 -1.000000000000000e+00
561 224 -1.000000000000000e+00
561 561 7.329037055373192e+00
562 17 -1.000000000000000e+00
562 50 -1.000000000000000e+00
562 54 -1.000000000000000e+00
562 562 7.000000000000000e+00
563 34 -1.000000000000000e+00
563 238 -1.000000000000000e+00
563 305 -1.000000000000000e+00
563 563 4.000000000000000e+00
564 191 -1.000000000000000e+00
564 210 -1.000000000000000e+00
564 547 -1.000000000000000e+00
564 564 7.000000000000000e+00
565 40 -1.000000000000000e+00
565 81 -1.000000000000000e+00
565 407 -1.000000000000000e+00
565 565 7.230769231915474e+00
566 54 -1.000000000000000e+00
566 215 -1.000000000000000e+00
566 231 -1.141421362757683e+00
566 566 6.282842725515366e+00
567 29 -1.000000000000000e+00
567 47 -1.000000000000000e+00
567 312 -1.000000000000000e+00
567 567 5.000000000000000e+00
568 42 -1.000000000000000e+00
568 199 -1.000000000000000e+00
568 255 -1.000000000000000e+00
568 568 1.911785113811493e+01
569 13 -1.000000000000000e+00
569 65 -1.000000000000000e+00
569 251 -1.000000000000000e+00
569 569 5.000000000000000e+00
570 241 -1.000000000000000e+00
570 409 -1.000000000000000e+00
570 423 -1.000000000000000e+00
570 570 6.000000000000000e+00
571 96 -1.000000000000000e+00
571 101 -1.000000000000000e+00
571 319 -1.000000000000000e+00
571 571 1.536767423152924e+01
572 24 -1.000000000000000e+00
572 72 -1.000000000000000e+00
572 544 -1.000000000000000e+00
572 572 1.314907118678093e+01
573 2 -1.000000000000000e+00
573 297 -1.000000000000000e+00
573 556 -1.000000000000000e+00
573 573 5.000000000000000e+00
574 23 -1.000000000000000e+00
574 132 -1.000000000000000e+00
574 448 -1.000000000000000e+00
574 574 1.000000000000000e+01
575 32 -1.000000000000000e+00
575 65 -1.000000000000000e+00
575 328 -1.000000000000000e+00
575 575 1.200000000000000e+01
576 7 -1.000000000000000e+00
576 11 -1.000000000000000e+00
576 37 -1.767767071723938e-01
576 106 -1.000000000000000e+00
576 576 1.431040732562542e+01
577 74 -1.000000000000000e+00
577 311 -1.000000000000000e+00
577 557 -1.000000000000000e+00
577 577 5.372521236538887e+00
578 79 -1.000000000000000e+00
578 491 -1.000000000000000e+00
578 575 -1.000000000000000e+00
578 578 1.200000000000000e+01
579 61 -1.000000000000000e+00
579 70 -1.000000000000000e+00
579 127 -1.000000000000000e+00
579 579 8.377356559038162e+00
580 30 -1.000000000000000e+00
580 63 -7.580980658531189e-02
580 98 -1.000000000000000e+00
580 121 -1.000000000000000e+00
580 477 -2.481458485126495e-01
580 580 6.323955655097961e+00
581 298 -1.000000000000000e+00
581 302 -1.000000000000000e+00
581 303 -1.000000000000000e+00
581 581 1.122517623007298e+01
582 350 -1.000000000000000e+00
582 360 -1.000000000000000e+00
582 361 -1.069337524473667e+00
582 544 -1.178511381149292e-01
582 582 6.187188662588596e+00
583 8 -1.000000000000000e+00
583 151 -1.000000000000000e+00
583 258 -1.000000000000000e+00
583 583 5.079056940972805e+00
584 8 -1.000000000000000e+00
584 44 -1.000000000000000e+00
584 49 -1.000000000000000e+00
584 584 7.117851138114929e+00
585 234 -1.000000000000000e+00
585 359 -1.000000000000000e+00
585 532 -1.000000000000000e+00
585 585 4.000000000000000e+00
586 39 -1.000000000000000e+00
586 43 -1.191785305738449e+00
586 542 -1.000000000000000e+00
586 586 5.415392100811005e+00
587 8 -1.000000000000000e+00
587 434 -1.000000000000000e+00
587 445 -1.000000000000000e+00
587 587 4.000000000000000e+00
588 48 -1.000000000000000e+00
588 68 -1.000000000000000e+00
588 82 -1.000000000000000e+00
588 588 4.000000000000000e+00
589 209 -1.000000000000000e+00
589 267 -1.000000000000000e+00
589 384 -1.000000000000000e+00
589 589 4.000000000000000e+00
590 27 -1.000000000000000e+00
590 35 -1.000000000000000e+00
590 197 -1.000000000000000e+00
590 542 -2.491364479064941e-01
590 590 8.034411758184433e+00
591 13 -1.000000000000000e+00
591 30 -1.000000000000000e+00
591 359 -1.000000000000000e+00
591 591 1.100000000000000e+01
592 59 -1.000000000000000e+00
592 106 -1.000000000000000e+00
592 231 -1.000000000000000e+00
592 592 7.000000000000000e+00
593 4 -1.000000000000000e+00
593 100 -1.226455420255661e+00
593 401 -1.000000000000000e+00
593 593 1.143057957291603e+01
594 215 -1.000000000000000e+00
594 242 -1.138675048947334e+00
594 451 -1.000000000000000e+00
594 594 4.289430722594261e+00
595 271 -1.000000000000000e+00
595 372 -1.000000000000000e+00
595 480 -1.000000000000000e+00
595 595 3.000000000000000e+00
596 19 -1.000000000000000e+00
596 205 -1.000000000000000e+00
596 487 -1.000000000000000e+00
596 596 3.134839966893196e+00
597 61 -1.000000000000000e+00
597 129 -1.000000000000000e+00
597 385 -1.000000000000000e+00
597 597 1.200000000000000e+01
598 162 -1.000000000000000e+00
598 192 -1.000000000000000e+00
598 307 -1.000000000000000e+00
598 598 5.192450091242790e+00
599 20 -1.000000000000000e+00
599 55 -1.000000000000000e+00
599 468 -1.000000000000000e+00
599 599 8.100503779947758e+00
600 7 -1.000000000000000e+00
600 483 -1.000000000000000e+00
600 569 -1.000000000000000e+00
600 600 1.200000000000000e+01
601 24 -1.113592363893986e+00
601 209 -1.000000000000000e+00
601 471 -1.000000000000000e+00
601 601 4.341464765369892e+00
602 67 -1.000000000000000e+00
602 70 -1.000000000000000e+00
602 461 -1.000000000000000e+00
602 602 1.115430335700512e+01
603 97 -1.000000000000000e+00
603 113 -1.000000000000000e+00
603 137 -1.000000000000000e+00
603 603 3.000000000000000e+00
604 8 -1.000000000000000e+00
604 214 -1.000000000000000e+00
604 251 -1.000000000000000e+00
604 604 8.204124152660370e+00
605 15 -1.000000000000000e+00
605 17 -1.000000000000000e+00
605 196 -1.000000000000000e+00
605 605 6.000000000000000e+00
606 121 -1.000000000000000e+00
606 201 -1.000000000000000e+00
606 335 -1.000000000000000e+00
606 606 1.100000000000000e+01
607 97 -1.000000000000000e+00
607 109 -1.000000000000000e+00
607 158 -1.000000000000000e+00
607 607 1.000000000000000e+01
608 30 -1.000000000000000e+00
608 56 -1.000000000000000e+00
608 205 -1.000000000000000e+00
608 608 5.209656983613968e+00
609 5 -1.000000000000000e+00
609 52 -1.000000000000000e+00
609 350 -1.000000000000000e+00
609 609 1.018569533526897e+01
610 6 -1.000000000000000e+00
610 96 -1.000000000000000e+00
610 132 -1.000000000000000e+00
610 610 4.000000000000000e+00
611 59 -1.000000000000000e+00
611 109 -1.000000000000000e+00
611 209 -1.000000000000000e+00
611 611 9.000000000000000e+00
612 29 -1.000000000000000e+00
612 233 -1.083333335816860e+00
612 455 -1.000000000000000e+00
612 612 8.083333335816860e+00
613 201 -1.000000000000000e+00
613 425 -1.000000000000000e+00
613 461 -1.000000000000000e+00
613 613 1.416666667163372e+01
614 23 -1.000000000000000e+00
614 157 -1.000000000000000e+00
614 411 -1.000000000000000e+00
614 614 3.000000000000000e+00
615 8 -1.000000000000000e+00
615 38 -1.000000000000000e+00
615 114 -1.000000000000000e+00
615 615 5.240965798497200e+00
616 263 -1.000000000000000e+00
616 476 -1.000000000000000e+00
616 571 -1.000000000000000e+00
616 616 1.000000000000000e+01
617 15 -1.666666865348816e-01
617 17 -1.258198887109756e+00
617 124 -1.000000000000000e+00
617 325 -1.000000000000000e+00
617 406 -3.162277638912201e-01
617 617 9.982615947723389e+00
618 33 -1.000000000000000e+00
618 77 -1.000000000000000e+00
618 302 -1.000000000000000e+00
618 618 1.211785113811493e+01
619 114 -1.000000000000000e+00
619 164 -1.250000149011612e-01
619 252 -1.000000000000000e+00
619 465 -1.000000000000000e+00
619 619 1.055037513375282e+01
620 1 -1.000000000000000e+00
620 78 -1.000000000000000e+00
620 109 -1.000000000000000e+00
620 620 7.294674649834633e+00
621 198 -1.000000000000000e+00
621 263 -2.182179093360901e-01
621 420 -1.000000000000000e+00
621 517 -1.000000000000000e+00
621 621 1.021821790933609e+01
622 27 -1.000000000000000e+00
622 82 -1.000000000000000e+00
622 133 -1.000000000000000e+00
622 622 3.000000000000000e+00
623 103 -1.000000000000000e+00
623 163 -1.000000000000000e+00
623 368 -1.000000000000000e+00
623 623 3.577350258827209e+00
624 35 -1.000000000000000e+00
624 280 -1.000000000000000e+00
624 531 -1.000000000000000e+00
624 624 4.433449029922485e+00
625 132 -1.000000000000000e+00
625 158 -1.000000000000000e+00
625 389 -1.543033570051193e-01
625 420 -1.000000000000000e+00
625 537 -1.036951765418053e-01
625 625 8.361693710088730e+00
626 5 -1.000000000000000e+00
626 107 -1.000000000000000e+00
626 209 -1.000000000000000e+00
626 626 6.628217250108719e+00
627 23 -1.000000000000000e+00
627 47 -1.000000000000000e+00
627 304 -1.000000000000000e+00
627 627 1.300000000000000e+01
628 5 -1.000000000000000e+00
628 8 -1.000000000000000e+00
628 297 -1.000000000000000e+00
628 628 8.000000000000000e+00
629 123 -1.000000000000000e+00
629 264 -1.000000000000000e+00
629 282 -1.000000000000000e+00
629 629 8.077849894762039e+00
630 114 -1.000000000000000e+00
630 289 -1.000000000000000e+00
630 561 -1.000000000000000e+00
630 630 8.000000000000000e+00
631 39 -1.000000000000000e+00
631 416 -1.000000000000000e+00
631 550 -1.000000000000000e+00
631 631 6.285714298486710e+00
632 14 -1.000000000000000e+00
632 174 -1.000000000000000e+00
632 599 -1.000000000000000e+00
632 632 6.000000000000000e+00
633 39 -1.000000000000000e+00
633 60 -1.000000000000000e+00
633 441 -1.000000000000000e+00
633 633 3.622008442878723e+00
634 152 -1.000000000000000e+00
634 197 -1.507556736469269e-01
634 382 -1.000000000000000e+00
634 542 -1.856953352689743e-01
634 586 -2.236067950725555e-01
634 590 -2.236067950725555e-01
634 600 -1.000000000000000e+00
634 634 1.067916268110275e+01
635 50 -1.000000000000000e+00
635 303 -1.000000000000000e+00
635 489 -1.000000000000000e+00
635 635 7.000000000000000e+00
636 9 -1.000000000000000e+00
636 116 -1.000000000000000e+00
636 175 -1.906925141811371e-01
636 234 -1.000000000000000e+00
636 636 1.135972335934639e+01
637 11 -1.000000000000000e+00
637 198 -1.000000000000000e+00
637 524 -1.000000000000000e+00
637 637 4.000000000000000e+00
638 4 -1.000000000000000e+00
638 46 -1.000000000000000e+00
638 310 -1.000000000000000e+00
638 566 -1.414213627576828e-01
638 638 5.141421362757683e+00
639 82 -1.000000000000000e+00
639 104 -1.000000000000000e+00
639 256 -1.000000000000000e+00
639 639 5.000000000000000e+00
640 66 -1.000000000000000e+00
640 302 -1.000000000000000e+00
640 319 -1.000000000000000e+00
640 640 9.000000000000000e+00
641 155 -1.000000000000000e+00
641 561 -1.000000000000000e+00
641 625 -1.000000000000000e+00
641 641 5.182574182748795e+00
642 242 -1.000000000000000e+00
642 311 -1.000000000000000e+00
642 577 -2.182178795337677e-01
642 607 -1.000000000000000e+00
642 642 5.218217879533768e+00
643 5 -1.000000000000000e+00
643 92 -1.000000000000000e+00
643 104 -1.000000000000000e+00
643 271 -2.085144072771072e-01
643 626 -2.948839068412781e-01
643 643 3.503398314118385e+00
644 7 -1.000000000000000e+00
644 274 -1.000000000000000e+00
644 346 -1.000000000000000e+00
644 644 7.338057518005371e+00
645 5 -1.000000000000000e+00
645 164 -1.000000000000000e+00
645 267 -1.000000000000000e+00
645 645 6.000000000000000e+00
646 44 -1.000000000000000e+00
646 59 -1.000000000000000e+00
646 259 -1.000000000000000e+00
646 646 7.277350097894669e+00
647 17 -1.000000000000000e+00
647 221 -1.000000000000000e+00
647 256 -1.000000000000000e+00
647 647 6.541888445615768e+00
648 71 -1.000000000000000e+00
648 491 -1.000000000000000e+00
648 576 -1.000000000000000e+00
648 648 1.361084392666817e+01
649 57 -1.000000000000000e+00
649 232 -1.176776692271233e+00
649 447 -1.000000000000000e+00
649 649 6.321114256978035e+00
650 4 -1.000000000000000e+00
650 97 -1.000000000000000e+00
650 103 -1.000000000000000e+00
650 650 1.000000000000000e+01
651 114 -1.000000000000000e+00
651 199 -1.000000000000000e+00
651 423 -1.000000000000000e+00
651 651 1.200000000000000e+01
652 96 -1.000000000000000e+00
652 107 -1.000000000000000e+00
652 326 -1.000000000000000e+00
652 652 1.300000000000000e+01
653 98 -1.000000000000000e+00
653 163 -1.000000000000000e+00
653 485 -1.000000000000000e+00
653 653 1.000000000000000e+01
654 57 -1.000000000000000e+00
654 75 -1.000000000000000e+00
654 158 -1.000000000000000e+00
654 654 5.213200718164444e+00
655 7 -1.000000000000000e+00
655 10 -1.000000000000000e+00
655 133 -1.000000000000000e+00
655 655 7.246182978153229e+00
656 13 -1.000000000000000e+00
656 16 -1.000000000000000e+00
656 178 -1.000000000000000e+00
656 656 5.408248275518417e+00
657 10 -1.000000000000000e+00
657 132 -1.000000000000000e+00
657 378 -1.000000000000000e+00
657 657 8.000000000000000e+00
658 419 -1.000000000000000e+00
658 464 -1.000000000000000e+00
658 645 -1.000000000000000e+00
658 658 6.000000000000000e+00
659 67 -1.000000000000000e+00
659 79 -1.000000000000000e+00
659 292 -1.000000000000000e+00
659 659 5.161164596676826e+00
660 46 -1.000000000000000e+00
660 200 -1.000000000000000e+00
660 533 -1.000000000000000e+00
660 660 4.000000000000000e+00
661 6 -1.000000000000000e+00
661 36 -1.000000000000000e+00
661 209 -1.000000000000000e+00
661 661 8.000000000000000e+00
662 71 -1.000000000000000e+00
662 166 -1.000000000000000e+00
662 290 -1.000000000000000e+00
662 662 7.000000000000000e+00
663 65 -1.000000000000000e+00
663 114 -1.000000000000000e+00
663 545 -1.000000000000000e+00
663 663 6.171498596668243e+00
664 46 -1.000000000000000e+00
664 79 -1.000000000000000e+00
664 328 -1.000000000000000e+00
664 664 6.267261236906052e+00
665 6 -1.000000000000000e+00
665 13 -1.000000000000000e+00
665 621 -1.000000000000000e+00
665 665 5.235702246427536e+00
666 4 -1.000000000000000e+00
666 7 -1.000000000000000e+00
666 369 -1.000000000000000e+00
666 666 6.000000000000000e+00
667 14 -1.000000000000000e+00
667 355 -1.000000000000000e+00
667 396 -1.000000000000000e+00
667 667 6.000000000000000e+00
668 30 -1.000000000000000e+00
668 202 -1.000000000000000e+00
668 494 -1.114332392811775e+00
668 668 4.191028892993927e+00
669 1 -1.000000000000000e+00
669 89 -1.000000000000000e+00
669 423 -1.000000000000000e+00
669 669 7.000000000000000e+00
670 69 -1.000000000000000e+00
670 244 -1.000000000000000e+00
670 393 -1.000000000000000e+00
670 670 7.082199491560459e+00
671 131 -1.000000000000000e+00
671 207 -1.000000000000000e+00
671 457 -1.072168782353401e+00
671 671 6.136718504130840e+00
672 55 -1.000000000000000e+00
672 165 -1.000000000000000e+00
672 200 -1.000000000000000e+00
672 672 1.214433756470680e+01
673 7 -1.000000000000000e+00
673 42 -1.000000000000000e+00
673 423 -1.000000000000000e+00
673 673 1.040824830532074e+01
674 57 -1.000000000000000e+00
674 239 -1.000000000000000e+00
674 654 -1.000000000000000e+00
674 674 8.188982248306274e+00
675 231 -1.000000000000000e+00
675 350 -1.000000000000000e+00
675 540 -1.000000000000000e+00
675 675 1.000000000000000e+01
676 17 -1.000000000000000e+00
676 230 -1.000000000000000e+00
676 270 -1.000000000000000e+00
676 676 3.000000000000000e+00
677 33 -1.000000000000000e+00
677 324 -1.000000000000000e+00
677 483 -1.000000000000000e+00
677 677 5.125000000000000e+00
678 13 -1.000000000000000e+00
678 437 -1.000000000000000e+00
678 673 -1.000000000000000e+00
678 678 6.179558381438255e+00
679 44 -1.000000000000000e+00
679 106 -1.000000000000000e+00
679 258 -1.000000000000000e+00
679 646 -1.386750489473343e-01
679 679 1.213867504894733e+01
680 9 -1.000000000000000e+00
680 35 -1.000000000000000e+00
680 247 -1.000000000000000e+00
680 680 8.000000000000000e+00
681 1 -1.000000000000000e+00
681 10 -1.000000000000000e+00
681 168 -1.000000000000000e+00
681 681 1.022767090797424e+01
682 214 -1.000000000000000e+00
682 432 -1.000000000000000e+00
682 452 -1.000000000000000e+00
682 682 6.262188687920570e+00
683 74 -1.000000000000000e+00
683 317 -1.092847667634487e+00
683 530 -1.000000000000000e+00
683 683 6.224154107272625e+00
684 183 -1.860520988702774e-01
684 230 -1.000000000000000e+00
684 505 -1.000000000000000e+00
684 520 -1.000000000000000e+00
684 684 8.299279808998108e+00
685 1 -1.000000000000000e+00
685 6 -1.000000000000000e+00
685 244 -1.000000000000000e+00
685 685 1.100000000000000e+01
686 34 -1.000000000000000e+00
686 207 -1.000000000000000e+00
686 376 -1.000000000000000e+00
686 686 1.000000000000000e+01
687 29 -1.000000000000000e+00
687 46 -1.000000000000000e+00
687 378 -1.000000000000000e+00
687 687 5.050062615424395e+00
688 1 -1.000000000000000e+00
688 82 -1.000000000000000e+00
688 252 -1.000000000000000e+00
688 688 7.169030860066414e+00
689 11 -1.000000000000000e+00
689 404 -1.000000000000000e+00
689 628 -1.000000000000000e+00
689 689 7.174077659845352e+00
690 63 -1.000000000000000e+00
690 116 -1.000000000000000e+00
690 230 -1.000000000000000e+00
690 690 7.062622427940369e+00
691 11 -1.000000000000000e+00
691 184 -1.000000000000000e+00
691 434 -1.000000000000000e+00
691 691 6.000000000000000e+00
692 103 -1.000000000000000e+00
692 349 -1.000000000000000e+00
692 547 -1.000000000000000e+00
692 692 4.506379589438438e+00
693 53 -1.000000000000000e+00
693 264 -1.000000000000000e+00
693 394 -1.100000001490116e+00
693 693 4.100000001490116e+00
694 5 -1.000000000000000e+00
694 13 -1.000000000000000e+00
694 86 -1.000000000000000e+00
694 694 5.000000000000000e+00
695 57 -1.000000000000000e+00
695 173 -1.057353936135769e+00
695 390 -1.000000000000000e+00
695 695 9.057353936135769e+00
696 8 -1.000000000000000e+00
696 242 -1.000000000000000e+00
696 600 -1.000000000000000e+00
696 696 8.000000000000000e+00
697 33 -1.000000000000000e+00
697 466 -1.000000000000000e+00
697 531 -1.000000000000000e+00
697 697 4.000000000000000e+00
698 168 -1.000000000000000e+00
698 317 -1.000000000000000e+00
698 505 -1.000000000000000e+00
698 698 1.000000000000000e+01
699 116 -1.000000000000000e+00
699 315 -1.000000000000000e+00
699 583 -1.079056940972805e+00
699 699 9.079056940972805e+00
700 111 -1.000000000000000e+00
700 176 -1.000000000000000e+00
700 591 -1.000000000000000e+00
700 700 8.406180977821350e+00
701 13 -1.000000000000000e+00
701 20 -1.000000000000000e+00
701 442 -1.000000000000000e+00
701 701 5.000000000000000e+00
702 11 -1.000000000000000e+00
702 407 -1.000000000000000e+00
702 451 -1.000000000000000e+00
702 702 5.129099443554878e+00
703 104 -1.000000000000000e+00
703 585 -1.000000000000000e+00
703 612 -1.000000000000000e+00
703 703 6.000000000000000e+00
704 132 -1.000000000000000e+00
704 231 -1.000000000000000e+00
704 483 -1.000000000000000e+00
704 704 9.154713183641434e+00
705 23 -1.000000000000000e+00
705 61 -1.000000000000000e+00
705 336 -2.132007181644440e-01
705 472 -1.000000000000000e+00
705 705 5.213200718164444e+00
706 4 -1.000000000000000e+00
706 378 -1.000000000000000e+00
706 597 -1.000000000000000e+00
706 706 7.427373856306076e+00
707 102 -1.000000000000000e+00
707 442 -1.000000000000000e+00
707 558 -1.000000000000000e+00
707 707 2.119518001377583e+01
708 24 -1.000000000000000e+00
708 46 -1.000000000000000e+00
708 538 -1.666666716337204e-01
708 704 -1.000000000000000e+00
708 708 7.166666671633720e+00
709 51 -1.000000000000000e+00
709 198 -1.229539051651955e+00
709 461 -1.000000000000000e+00
709 709 3.327129058539867e+00
710 43 -1.000000000000000e+00
710 78 -1.000000000000000e+00
710 95 -1.000000000000000e+00
710 710 9.322680436074734e+00
711 395 -1.000000000000000e+00
711 483 -1.000000000000000e+00
711 526 -1.000000000000000e+00
711 711 3.000000000000000e+00
712 13 -1.000000000000000e+00
712 77 -1.000000000000000e+00
712 200 -1.000000000000000e+00
712 712 3.000000000000000e+00
713 132 -1.000000000000000e+00
713 236 -1.000000000000000e+00
713 511 -1.000000000000000e+00
713 713 6.117851123213768e+00
714 108 -1.000000000000000e+00
714 191 -1.000000000000000e+00
714 243 -1.000000000000000e+00
714 714 3.000000000000000e+00
715 4 -1.000000000000000e+00
715 384 -1.000000000000000e+00
715 535 -1.000000000000000e+00
715 715 8.355956360697746e+00
716 6 -1.000000000000000e+00
716 158 -1.000000000000000e+00
716 344 -1.000000000000000e+00
716 716 5.162221416831017e+00
717 6 -1.000000000000000e+00
717 95 -1.000000000000000e+00
717 710 -1.226455390453339e+00
717 717 4.757362708449364e+00
718 48 -1.000000000000000e+00
718 92 -2.703690230846405e-01
718 164 -1.000000000000000e+00
718 200 -1.000000000000000e+00
718 692 -2.457365840673447e-01
718 718 4.516105607151985e+00
719 118 -1.000000000000000e+00
719 296 -1.000000000000000e+00
719 461 -1.000000000000000e+00
719 719 7.000000000000000e+00
720 165 -1.000000000000000e+00
720 393 -1.000000000000000e+00
720 674 -1.000000000000000e+00
720 720 7.000000000000000e+00
721 19 -1.000000000000000e+00
721 26 -1.000000000000000e+00
721 72 -1.000000000000000e+00
721 721 7.000000000000000e+00
722 239 -1.000000000000000e+00
722 366 -2.070196717977524e-01
722 517 -1.000000000000000e+00
722 611 -1.000000000000000e+00
722 722 7.396001920104027e+00
723 48 -1.000000000000000e+00
723 123 -1.000000000000000e+00
723 256 -1.000000000000000e+00
723 723 3.000000000000000e+00
724 92 -1.000000000000000e+00
724 343 -1.000000000000000e+00
724 413 -1.000000000000000e+00
724 492 -1.951800137758255e-01
724 724 6.195180013775826e+00
725 13 -1.000000000000000e+00
725 241 -1.000000000000000e+00
725 497 -1.000000000000000e+00
725 725 9.000000000000000e+00
726 157 -1.000000000000000e+00
726 169 -1.000000000000000e+00
726 698 -1.000000000000000e+00
726 726 7.000000000000000e+00
727 13 -1.000000000000000e+00
727 193 -1.000000000000000e+00
727 229 -1.000000000000000e+00
727 727 8.000000000000000e+00
728 39 -1.000000000000000e+00
728 496 -1.000000000000000e+00
728 678 -1.000000000000000e+00
728 706 -4.273738563060760e-01
728 728 7.609948039054871e+00
729 106 -1.000000000000000e+00
729 507 -1.000000000000000e+00
729 607 -1.000000000000000e+00
729 729 5.218217909336090e+00
730 93 -1.000000000000000e+00
730 121 -1.000000000000000e+00
730 156 -1.000000000000000e+00
730 730 1.333209259808064e+01
731 547 -1.000000000000000e+00
731 657 -1.000000000000000e+00
731 721 -1.000000000000000e+00
731 731 9.000000000000000e+00
732 104 -1.000000000000000e+00
732 305 -1.000000000000000e+00
732 564 -1.000000000000000e+00
732 732 9.000000000000000e+00
733 2 -1.000000000000000e+00
733 12 -1.000000000000000e+00
733 436 -1.000000000000000e+00
733 733 1.019511575251818e+01
734 66 -1.000000000000000e+00
734 95 -1.000000000000000e+00
734 302 -1.000000000000000e+00
734 734 6.000000000000000e+00
735 7 -1.000000000000000e+00
735 151 -1.000000000000000e+00
735 403 -1.000000000000000e+00
735 735 4.000000000000000e+00
736 62 -1.000000000000000e+00
736 594 -1.000000000000000e+00
736 690 -1.000000000000000e+00
736 736 9.000000000000000e+00
737 79 -1.000000000000000e+00
737 173 -1.000000000000000e+00
737 395 -1.000000000000000e+00
737 737 1.417677669227123e+01
738 21 -1.000000000000000e+00
738 212 -1.000000000000000e+00
738 228 -1.000000000000000e+00
738 738 5.267261236906052e+00
739 147 -1.414213627576828e-01
739 161 -1.197814136743546e+00
739 225 -1.906925141811371e-01
739 311 -1.000000000000000e+00
739 312 -2.236067950725555e-01
739 444 -1.000000000000000e+00
739 739 8.936108991503716e+00
740 118 -1.000000000000000e+00
740 200 -1.000000000000000e+00
740 391 -1.000000000000000e+00
740 740 7.522232979536057e+00
741 111 -1.000000000000000e+00
741 187 -1.000000000000000e+00
741 246 -1.000000000000000e+00
741 741 4.000000000000000e+00
742 93 -1.000000000000000e+00
742 174 -1.000000000000000e+00
742 378 -1.000000000000000e+00
742 742 5.000000000000000e+00
743 104 -1.000000000000000e+00
743 131 -1.000000000000000e+00
743 230 -1.000000000000000e+00
743 743 5.000000000000000e+00
744 10 -1.000000000000000e+00
744 214 -1.000000000000000e+00
744 237 -1.000000000000000e+00
744 744 7.158113881945610e+00
745 14 -1.000000000000000e+00
745 42 -1.000000000000000e+00
745 464 -1.000000000000000e+00
745 745 7.160128161311150e+00
746 6 -1.000000000000000e+00
746 26 -1.000000000000000e+00
746 114 -1.000000000000000e+00
746 746 3.182574182748795e+00
747 8 -1.000000000000000e+00
747 291 -1.000000000000000e+00
747 572 -1.000000000000000e+00
747 747 4.000000000000000e+00
748 23 -1.000000000000000e+00
748 304 -1.000000000000000e+00
748 625 -1.036951765418053e-01
748 683 -1.000000000000000e+00
748 748 6.103695176541805e+00
749 65 -1.000000000000000e+00
749 96 -1.000000000000000e+00
749 399 -1.000000000000000e+00
749 749 1.373660561442375e+01
750 18 -1.000000000000000e+00
750 85 -1.000000000000000e+00
750 103 -1.000000000000000e+00
750 750 5.369030863046646e+00
751 96 -1.000000000000000e+00
751 214 -1.000000000000000e+00
751 219 -1.000000000000000e+00
751 751 8.000000000000000e+00
752 6 -1.171498596668243e+00
752 282 -1.000000000000000e+00
752 310 -1.000000000000000e+00
752 752 3.531930148601532e+00
753 6 -1.000000000000000e+00
753 121 -1.000000000000000e+00
753 430 -1.000000000000000e+00
753 753 7.136082753539085e+00
754 59 -1.000000000000000e+00
754 439 -1.000000000000000e+00
754 475 -1.094491124153137e+00
754 754 6.094491124153137e+00
755 182 -1.000000000000000e+00
755 442 -1.000000000000000e+00
755 509 -1.000000000000000e+00
755 755 8.000000000000000e+00
756 148 -1.000000000000000e+00
756 259 -1.000000000000000e+00
756 439 -1.000000000000000e+00
756 756 5.000000000000000e+00
757 9 -1.000000000000000e+00
757 92 -1.000000000000000e+00
757 640 -1.000000000000000e+00
757 757 1.173804154992104e+01
758 5 -1.000000000000000e+00
758 8 -1.000000000000000e+00
758 617 -1.000000000000000e+00
758 758 1.133333334326744e+01
759 5 -1.000000000000000e+00
759 17 -1.000000000000000e+00
759 101 -1.000000000000000e+00
759 759 6.348461702466011e+00
760 6 -1.000000000000000e+00
760 342 -1.000000000000000e+00
760 574 -1.000000000000000e+00
760 760 8.227921158075333e+00
761 57 -1.000000000000000e+00
761 89 -1.000000000000000e+00
761 430 -1.000000000000000e+00
761 761 4.000000000000000e+00
762 13 -1.000000000000000e+00
762 221 -1.000000000000000e+00
762 230 -1.000000000000000e+00
762 762 6.129099443554878e+00
763 561 -1.000000000000000e+00
763 684 -1.000000000000000e+00
763 706 -1.000000000000000e+00
763 763 6.000000000000000e+00
764 35 -1.000000000000000e+00
764 74 -1.000000000000000e+00
764 253 -1.000000000000000e+00
764 764 5.000000000000000e+00
765 5 -1.000000000000000e+00
765 126 -1.000000000000000e+00
765 540 -1.000000000000000e+00
765 765 1.213423119485378e+01
766 5 -1.000000000000000e+00
766 297 -1.000000000000000e+00
766 332 -1.000000000000000e+00
766 766 6.612372398376465e+00
767 5 -1.000000000000000e+00
767 22 -1.000000000000000e+00
767 485 -1.000000000000000e+00
767 766 -6.123723983764648e-01
767 767 8.612372398376465e+00
768 35 -1.000000000000000e+00
768 646 -1.138675048947334e+00
768 679 -1.000000000000000e+00
768 768 3.138675048947334e+00
769 5 -1.000000000000000e+00
769 9 -1.000000000000000e+00
769 736 -1.000000000000000e+00
769 769 1.026987361162901e+01
770 150 -1.000000000000000e+00
770 186 -1.000000000000000e+00
770 231 -1.000000000000000e+00
770 770 6.288553707301617e+00
771 23 -1.000000000000000e+00
771 57 -1.000000000000000e+00
771 554 -1.000000000000000e+00
771 771 6.000000000000000e+00
772 65 -1.000000000000000e+00
772 503 -1.000000000000000e+00
772 550 -1.267261236906052e+00
772 772 8.675509512424469e+00
773 57 -1.000000000000000e+00
773 73 -1.000000000000000e+00
773 269 -1.000000000000000e+00
773 773 8.072168782353401e+00
774 5 -1.000000000000000e+00
774 123 -1.000000000000000e+00
774 498 -1.000000000000000e+00
774 774 6.188982248306274e+00
775 72 -1.000000000000000e+00
775 103 -1.000000000000000e+00
775 367 -1.000000000000000e+00
775 775 9.000000000000000e+00
776 385 -1.000000000000000e+00
776 475 -1.496962308883667e-01
776 618 -1.000000000000000e+00
776 754 -1.000000000000000e+00
776 776 6.149696230888367e+00
777 46 -1.000000000000000e+00
777 81 -1.000000000000000e+00
777 179 -1.000000000000000e+00
777 777 1.516796775162220e+01
778 391 -2.227176874876022e-01
778 466 -1.000000000000000e+00
778 513 -1.000000000000000e+00
778 541 -1.186771854758263e+00
778 778 6.409489542245865e+00
779 190 -1.000000000000000e+00
779 200 -1.000000000000000e+00
779 765 -1.000000000000000e+00
779 779 6.000000000000000e+00
780 27 -1.000000000000000e+00
780 275 -1.000000000000000e+00
780 315 -1.000000000000000e+00
780 780 6.160128161311150e+00
781 58 -1.000000000000000e+00
781 65 -1.000000000000000e+00
781 686 -1.000000000000000e+00
781 781 7.169841557741165e+00
782 5 -1.000000000000000e+00
782 121 -1.000000000000000e+00
782 458 -1.000000000000000e+00
782 782 5.000000000000000e+00
783 236 -1.000000000000000e+00
783 627 -1.000000000000000e+00
783 650 -1.000000000000000e+00
783 783 3.000000000000000e+00
784 31 -1.000000000000000e+00
784 194 -1.000000000000000e+00
784 707 -1.000000000000000e+00
784 784 1.100000000000000e+01
785 225 -1.000000000000000e+00
785 438 -1.000000000000000e+00
785 451 -1.000000000000000e+00
785 785 9.193391073495150e+00
786 157 -1.000000000000000e+00
786 412 -1.000000000000000e+00
786 540 -1.000000000000000e+00
786 786 8.000000000000000e+00
787 696 -1.000000000000000e+00
787 699 -1.000000000000000e+00
787 730 -1.000000000000000e+00
787 787 9.111803397536278e+00
788 244 -1.000000000000000e+00
788 672 -1.000000000000000e+00
788 772 -1.000000000000000e+00
788 788 6.209656983613968e+00
789 26 -1.000000000000000e+00
789 96 -1.000000000000000e+00
789 506 -1.000000000000000e+00
789 789 5.000000000000000e+00
790 2 -1.000000000000000e+00
790 153 -1.000000000000000e+00
790 572 -1.149071186780930e+00
790 790 5.240358278155327e+00
791 7 -1.000000000000000e+00
791 57 -1.000000000000000e+00
791 651 -1.000000000000000e+00
791 791 5.000000000000000e+00
792 50 -1.000000000000000e+00
792 314 -1.000000000000000e+00
792 366 -1.000000000000000e+00
792 792 6.000000000000000e+00
793 236 -1.000000000000000e+00
793 659 -1.000000000000000e+00
793 719 -1.000000000000000e+00
793 793 6.377612680196762e+00
794 205 -1.000000000000000e+00
794 214 -1.000000000000000e+00
794 334 -1.000000000000000e+00
794 794 6.000000000000000e+00
795 4 -1.000000000000000e+00
795 82 -1.000000000000000e+00
795 785 -1.000000000000000e+00
795 795 4.800422310829163e+00
796 7 -1.000000000000000e+00
796 29 -1.000000000000000e+00
796 201 -1.000000000000000e+00
796 796 6.000000000000000e+00
797 139 -1.108465231955051e+00
797 210 -1.000000000000000e+00
797 575 -1.000000000000000e+00
797 797 5.108465231955051e+00
798 7 -1.000000000000000e+00
798 547 -1.000000000000000e+00
798 567 -1.000000000000000e+00
798 798 1.800000000000000e+01
799 9 -1.000000000000000e+00
799 11 -1.000000000000000e+00
799 647 -1.000000000000000e+00
799 799 7.136082753539085e+00
800 77 -1.000000000000000e+00
800 118 -1.000000000000000e+00
800 192 -1.000000000000000e+00
800 800 8.000000000000000e+00
801 10 -1.000000000000000e+00
801 447 -1.000000000000000e+00
801 769 -1.000000000000000e+00
801 801 3.000000000000000e+00
802 8 -1.000000000000000e+00
802 72 -1.000000000000000e+00
802 135 -1.000000000000000e+00
802 802 5.000000000000000e+00
803 40 -1.000000000000000e+00
803 57 -4.082483053207397e-01
803 631 -1.000000000000000e+00
803 731 -1.000000000000000e+00
803 803 8.612372457981110e+00
804 12 -5.039526224136353e-01
804 223 -1.000000000000000e+00
804 487 -1.000000000000000e+00
804 749 -1.000000000000000e+00
804 804 5.772216558456421e+00
805 6 -1.000000000000000e+00
805 266 -1.000000000000000e+00
805 364 -1.000000000000000e+00
805 805 5.126491114497185e+00
806 340 -1.000000000000000e+00
806 384 -1.000000000000000e+00
806 765 -1.000000000000000e+00
806 806 1.031865693628788e+01
807 79 -1.000000000000000e+00
807 297 -1.000000000000000e+00
807 411 -1.000000000000000e+00
807 807 8.000000000000000e+00
808 118 -1.000000000000000e+00
808 398 -1.000000000000000e+00
808 671 -1.000000000000000e+00
808 808 1.000000000000000e+01
809 67 -1.000000000000000e+00
809 86 -1.000000000000000e+00
809 436 -1.000000000000000e+00
809 809 9.000000000000000e+00
810 5 -1.000000000000000e+00
810 223 -1.000000000000000e+00
810 396 -1.000000000000000e+00
810 810 5.577350258827209e+00
811 7 -1.000000000000000e+00
811 745 -1.000000000000000e+00
811 786 -1.000000000000000e+00
811 811 1.113867504894733e+01
812 114 -1.000000000000000e+00
812 408 -1.000000000000000e+00
812 542 -1.000000000000000e+00
812 812 8.000000000000000e+00
813 26 -1.000000000000000e+00
813 203 -1.000000000000000e+00
813 400 -1.000000000000000e+00
813 813 3.000000000000000e+00
814 111 -1.000000000000000e+00
814 396 -1.000000000000000e+00
814 476 -1.000000000000000e+00
814 814 2.000000000000000e+01
815 218 -1.000000000000000e+00
815 419 -1.000000000000000e+00
815 607 -1.000000000000000e+00
815 815 7.000000000000000e+00
816 28 -1.000000000000000e+00
816 279 -1.267261236906052e+00
816 311 -1.000000000000000e+00
816 816 3.534522473812103e+00
817 23 -1.000000000000000e+00
817 308 -1.000000000000000e+00
817 374 -1.000000000000000e+00
817 817 8.085749298334122e+00
818 6 -1.000000000000000e+00
818 41 -1.000000000000000e+00
818 364 -1.000000000000000e+00
818 818 7.188982248306274e+00
819 6 -1.000000000000000e+00
819 153 -1.000000000000000e+00
819 330 -1.000000000000000e+00
819 819 5.000000000000000e+00
820 106 -1.000000000000000e+00
820 204 -1.000000000000000e+00
820 321 -1.000000000000000e+00
820 820 6.075809799134731e+00
821 75 -1.000000000000000e+00
821 140 -1.000000000000000e+00
821 199 -1.000000000000000e+00
821 821 4.000000000000000e+00
822 117 -1.000000000000000e+00
822 454 -1.000000000000000e+00
822 648 -1.000000000000000e+00
822 822 5.000000000000000e+00
823 1 -1.000000000000000e+00
823 182 -1.133630618453026e+00
823 191 -1.000000000000000e+00
823 823 5.267261236906052e+00
824 219 -1.000000000000000e+00
824 485 -1.000000000000000e+00
824 559 -1.000000000000000e+00
824 824 6.000000000000000e+00
825 35 -1.000000000000000e+00
825 108 -1.000000000000000e+00
825 655 -1.246182978153229e+00
825 825 5.246182978153229e+00
826 84 -1.000000000000000e+00
826 393 -1.000000000000000e+00
826 442 -1.000000000000000e+00
826 641 -1.825741827487946e-01
826 826 6.619010001420975e+00
827 9 -1.000000000000000e+00
827 98 -1.000000000000000e+00
827 787 -1.000000000000000e+00
827 827 5.052342392504215e+00
828 29 -1.000000000000000e+00
828 54 -1.000000000000000e+00
828 734 -1.000000000000000e+00
828 828 4.000000000000000e+00
829 53 -1.000000000000000e+00
829 57 -1.000000000000000e+00
829 574 -1.000000000000000e+00
829 829 8.218217909336090e+00
830 31 -1.000000000000000e+00
830 235 -1.000000000000000e+00
830 247 -1.000000000000000e+00
830 830 4.000000000000000e+00
831 1 -1.000000000000000e+00
831 16 -1.000000000000000e+00
831 75 -1.000000000000000e+00
831 831 5.253470271825790e+00
832 6 -1.000000000000000e+00
832 119 -2.672612369060516e-01
832 200 -1.000000000000000e+00
832 623 -5.773502588272095e-01
832 826 -1.000000000000000e+00
832 832 6.177944868803024e+00
833 7 -1.000000000000000e+00
833 150 -1.000000000000000e+00
833 392 -1.000000000000000e+00
833 832 -3.333333730697632e-01
833 833 5.569035649299622e+00
834 280 -1.000000000000000e+00
834 719 -1.000000000000000e+00
834 745 -1.000000000000000e+00
834 834 3.250000029802322e+00
835 13 -1.000000000000000e+00
835 103 -1.000000000000000e+00
835 109 -1.000000000000000e+00
835 835 6.000000000000000e+00
836 13 -1.000000000000000e+00
836 92 -1.000000000000000e+00
836 376 -1.000000000000000e+00
836 836 5.000000000000000e+00
837 102 -1.000000000000000e+00
837 157 -1.000000000000000e+00
837 225 -1.000000000000000e+00
837 837 4.000000000000000e+00
838 116 -1.000000000000000e+00
838 253 -1.000000000000000e+00
838 630 -1.000000000000000e+00
838 838 7.204124137759209e+00
839 17 -1.000000000000000e+00
839 72 -1.000000000000000e+00
839 406 -1.000000000000000e+00
839 757 -1.666666865348816e-01
839 839 6.385402467101812e+00
840 190 -1.000000000000000e+00
840 243 -1.000000000000000e+00
840 267 -1.000000000000000e+00
840 840 4.000000000000000e+00
841 116 -1.000000000000000e+00
841 557 -1.000000000000000e+00
841 587 -1.000000000000000e+00
841 841 4.000000000000000e+00
842 21 -1.000000000000000e+00
842 451 -1.000000000000000e+00
842 707 -1.000000000000000e+00
842 842 5.187865130603313e+00
843 2 -1.000000000000000e+00
843 99 -1.000000000000000e+00
843 444 -1.000000000000000e+00
843 843 5.089087076485157e+00
844 195 -1.000000000000000e+00
844 445 -1.000000000000000e+00
844 655 -1.000000000000000e+00
844 844 6.160128161311150e+00
845 5 -1.000000000000000e+00
845 100 -1.000000000000000e+00
845 342 -1.000000000000000e+00
845 845 1.114907118678093e+01
846 325 -1.000000000000000e+00
846 527 -1.000000000000000e+00
846 613 -1.000000000000000e+00
846 846 5.235702276229858e+00
847 153 -1.000000000000000e+00
847 368 -1.000000000000000e+00
847 399 -1.000000000000000e+00
847 847 8.000000000000000e+00
848 11 -1.000000000000000e+00
848 19 -1.000000000000000e+00
848 540 -1.000000000000000e+00
848 848 5.116247639060020e+00
849 218 -1.000000000000000e+00
849 326 -1.000000000000000e+00
849 494 -1.000000000000000e+00
849 849 5.000000000000000e+00
850 22 -1.000000000000000e+00
850 88 -1.000000000000000e+00
850 256 -1.000000000000000e+00
850 850 7.000000000000000e+00
851 57 -1.000000000000000e+00
851 422 -1.132842227816582e+00
851 557 -1.000000000000000e+00
851 851 4.132842227816582e+00
852 10 -1.000000000000000e+00
852 116 -1.000000000000000e+00
852 428 -1.000000000000000e+00
852 852 3.312370494008064e+00
853 99 -1.000000000000000e+00
853 406 -1.000000000000000e+00
853 505 -1.000000000000000e+00
853 853 6.426776692271233e+00
854 11 -1.000000000000000e+00
854 96 -1.000000000000000e+00
854 281 -3.535533845424652e-01
854 305 -1.000000000000000e+00
854 854 5.449778430163860e+00
855 10 -1.000000000000000e+00
855 132 -1.000000000000000e+00
855 656 -1.000000000000000e+00
855 855 3.000000000000000e+00
856 1 -1.000000000000000e+00
856 425 -1.093250490725040e+00
856 571 -1.000000000000000e+00
856 856 3.213636346161366e+00
857 646 -1.000000000000000e+00
857 737 -1.000000000000000e+00
857 753 -1.000000000000000e+00
857 857 1.000000000000000e+01
858 23 -1.000000000000000e+00
858 171 -1.000000000000000e+00
858 341 -1.000000000000000e+00
858 780 -1.601281613111496e-01
858 858 7.320844694972038e+00
859 72 -1.000000000000000e+00
859 115 -1.000000000000000e+00
859 613 -1.000000000000000e+00
859 859 5.000000000000000e+00
860 110 -1.000000000000000e+00
860 241 -1.000000000000000e+00
860 497 -1.000000000000000e+00
860 860 5.000000000000000e+00
861 15 -1.000000000000000e+00
861 44 -1.000000000000000e+00
861 123 -1.000000000000000e+00
861 861 6.000000000000000e+00
862 2 -1.000000000000000e+00
862 5 -1.000000000000000e+00
862 751 -1.000000000000000e+00
862 862 6.235702276229858e+00
863 208 -1.000000000000000e+00
863 320 -2.300895005464554e-01
863 736 -1.000000000000000e+00
863 785 -1.000000000000000e+00
863 863 6.338554732501507e+00
864 191 -1.000000000000000e+00
864 228 -1.000000000000000e+00
864 451 -1.000000000000000e+00
864 864 5.319801077246666e+00
865 109 -1.000000000000000e+00
865 114 -1.000000000000000e+00
865 162 -1.000000000000000e+00
865 722 -1.889822483062744e-01
865 865 8.188982248306274e+00
866 19 -1.000000000000000e+00
866 118 -1.000000000000000e+00
866 207 -1.000000000000000e+00
866 713 -1.178511232137680e-01
866 866 5.117851123213768e+00
867 29 -1.000000000000000e+00
867 79 -1.000000000000000e+00
867 700 -1.000000000000000e+00
867 867 1.100000000000000e+01
868 154 -1.000000000000000e+00
868 163 -1.000000000000000e+00
868 704 -1.000000000000000e+00
868 868 6.000000000000000e+00
869 47 -2.886751294136047e-01
869 319 -1.000000000000000e+00
869 627 -1.000000000000000e+00
869 773 -1.000000000000000e+00
869 869 5.586817502975464e+00
870 50 -1.000000000000000e+00
870 82 -1.000000000000000e+00
870 766 -1.000000000000000e+00
870 870 6.196116134524345e+00
871 33 -1.000000000000000e+00
871 424 -1.000000000000000e+00
871 544 -1.000000000000000e+00
871 871 9.351617455482483e+00
872 1 -1.000000000000000e+00
872 8 -1.000000000000000e+00
872 301 -1.000000000000000e+00
872 872 5.000000000000000e+00
873 65 -1.000000000000000e+00
873 103 -1.000000000000000e+00
873 793 -1.000000000000000e+00
873 873 4.000000000000000e+00
874 12 -1.000000000000000e+00
874 360 -1.000000000000000e+00
874 403 -1.000000000000000e+00
874 874 5.000000000000000e+00
875 13 -1.000000000000000e+00
875 77 -1.000000000000000e+00
875 742 -1.000000000000000e+00
875 875 5.058321189135313e+00
876 13 -1.000000000000000e+00
876 395 -1.000000000000000e+00
876 648 -1.000000000000000e+00
876 876 6.000000000000000e+00
877 50 -1.000000000000000e+00
877 188 -1.094491124153137e+00
877 249 -1.000000000000000e+00
877 877 5.227073654532433e+00
878 37 -1.000000000000000e+00
878 140 -1.000000000000000e+00
878 577 -1.000000000000000e+00
878 878 7.129099443554878e+00
879 81 -1.000000000000000e+00
879 263 -1.000000000000000e+00
879 516 -1.000000000000000e+00
879 879 1.300000000000000e+01
880 113 -1.000000000000000e+00
880 185 -1.000000000000000e+00
880 391 -1.000000000000000e+00
880 880 4.000000000000000e+00
881 165 -1.000000000000000e+00
881 247 -1.000000000000000e+00
881 478 -1.000000000000000e+00
881 881 3.000000000000000e+00
882 169 -1.000000000000000e+00
882 540 -1.000000000000000e+00
882 737 -1.000000000000000e+00
882 882 4.000000000000000e+00
883 8 -1.000000000000000e+00
883 177 -1.000000000000000e+00
883 273 -1.000000000000000e+00
883 883 6.797697976231575e+00
884 4 -1.000000000000000e+00
884 6 -1.000000000000000e+00
884 9 -1.000000000000000e+00
884 884 1.415885528177023e+01
885 8 -1.000000000000000e+00
885 156 -1.000000000000000e+00
885 258 -1.000000000000000e+00
885 351 -1.754115968942642e-01
885 885 1.117541159689426e+01
886 317 -1.000000000000000e+00
886 341 -1.000000000000000e+00
886 521 -1.000000000000000e+00
886 886 4.204124137759209e+00
887 215 -1.000000000000000e+00
887 476 -1.000000000000000e+00
887 632 -1.000000000000000e+00
887 887 9.147441953420639e+00
888 51 -1.000000000000000e+00
888 107 -1.000000000000000e+00
888 198 -1.000000000000000e+00
888 888 1.500000000000000e+01
889 7 -1.000000000000000e+00
889 47 -1.000000000000000e+00
889 843 -1.000000000000000e+00
889 889 6.000000000000000e+00
890 7 -1.000000000000000e+00
890 23 -1.000000000000000e+00
890 332 -1.000000000000000e+00
890 890 1.008512565493584e+01
891 95 -1.000000000000000e+00
891 141 -1.000000000000000e+00
891 814 -1.000000000000000e+00
891 891 7.000000000000000e+00
892 49 -1.000000000000000e+00
892 106 -1.000000000000000e+00
892 613 -1.000000000000000e+00
892 892 5.076923079788685e+00
893 22 -1.000000000000000e+00
893 30 -1.000000000000000e+00
893 325 -1.000000000000000e+00
893 740 -3.481553196907043e-01
893 893 6.681488662958145e+00
894 113 -1.000000000000000e+00
894 138 -1.000000000000000e+00
894 323 -1.000000000000000e+00
894 894 7.329612478613853e+00
895 9 -1.000000000000000e+00
895 300 -1.000000000000000e+00
895 740 -1.000000000000000e+00
895 895 8.102062068879604e+00
896 180 -1.000000000000000e+00
896 398 -1.000000000000000e+00
896 691 -1.000000000000000e+00
896 896 4.154418274760246e+00
897 263 -1.290994435548782e-01
897 323 -1.000000000000000e+00
897 404 -1.000000000000000e+00
897 790 -1.000000000000000e+00
897 897 8.466199353337288e+00
898 50 -1.000000000000000e+00
898 204 -1.000000000000000e+00
898 441 -1.000000000000000e+00
898 898 5.514976635575294e+00
899 26 -1.000000000000000e+00
899 118 -1.000000000000000e+00
899 199 -1.000000000000000e+00
899 740 -1.740776598453522e-01
899 893 -3.333333432674408e-01
899 899 5.507411003112793e+00
900 305 -1.000000000000000e+00
900 568 -1.000000000000000e+00
900 715 -1.000000000000000e+00
900 806 -1.360827535390854e-01
900 900 6.136082753539085e+00
901 6 -1.000000000000000e+00
901 52 -1.000000000000000e+00
901 379 -1.160128146409988e+00
901 884 -7.580979913473129e-02
901 901 4.235937945544720e+00
902 29 -1.000000000000000e+00
902 74 -1.000000000000000e+00
902 811 -1.000000000000000e+00
902 902 6.943846821784973e+00
903 445 -1.000000000000000e+00
903 762 -1.000000000000000e+00
903 858 -1.000000000000000e+00
903 903 4.000000000000000e+00
904 1 -1.000000000000000e+00
904 48 -1.000000000000000e+00
904 474 -1.178511232137680e-01
904 680 -1.000000000000000e+00
904 904 5.117851123213768e+00
905 153 -1.000000000000000e+00
905 169 -1.000000000000000e+00
905 393 -1.000000000000000e+00
905 905 6.000000000000000e+00
906 72 -1.109108954668045e+00
906 224 -1.000000000000000e+00
906 372 -1.000000000000000e+00
906 906 7.109108954668045e+00
907 95 -1.000000000000000e+00
907 207 -1.000000000000000e+00
907 517 -1.000000000000000e+00
907 907 6.282574184238911e+00
908 107 -1.000000000000000e+00
908 228 -1.000000000000000e+00
908 650 -1.000000000000000e+00
908 908 4.447213590145111e+00
909 82 -1.000000000000000e+00
909 311 -1.000000000000000e+00
909 414 -1.000000000000000e+00
909 909 8.000000000000000e+00
910 1 -1.000000000000000e+00
910 82 -1.000000000000000e+00
910 234 -1.000000000000000e+00
910 910 5.338061720132828e+00
911 312 -1.000000000000000e+00
911 572 -1.000000000000000e+00
911 771 -1.000000000000000e+00
911 911 4.000000000000000e+00
912 35 -1.000000000000000e+00
912 727 -1.000000000000000e+00
912 764 -1.000000000000000e+00
912 912 4.000000000000000e+00
913 82 -1.000000000000000e+00
913 335 -1.000000000000000e+00
913 510 -1.000000000000000e+00
913 913 3.192450091242790e+00
914 281 -1.000000000000000e+00
914 454 -1.000000000000000e+00
914 886 -1.000000000000000e+00
914 914 5.000000000000000e+00
915 33 -1.000000000000000e+00
915 111 -1.000000000000000e+00
915 166 -2.371708154678345e-01
915 290 -2.696799337863922e-01
915 510 -1.000000000000000e+00
915 915 4.506850749254227e+00
916 11 -1.000000000000000e+00
916 114 -1.000000000000000e+00
916 151 -1.000000000000000e+00
916 276 -2.886751294136047e-01
916 916 5.288675129413605e+00
917 21 -1.000000000000000e+00
917 370 -1.000000000000000e+00
917 518 -1.000000000000000e+00
917 917 4.596284806728363e+00
918 57 -1.000000000000000e+00
918 98 -1.000000000000000e+00
918 829 -1.000000000000000e+00
918 918 4.000000000000000e+00
919 35 -1.000000000000000e+00
919 260 -1.000000000000000e+00
919 765 -1.000000000000000e+00
919 919 4.000000000000000e+00
920 5 -1.000000000000000e+00
920 10 -1.000000000000000e+00
920 658 -1.000000000000000e+00
920 920 7.000000000000000e+00
921 100 -1.000000000000000e+00
921 417 -1.000000000000000e+00
921 458 -1.000000000000000e+00
921 921 7.000000000000000e+00
922 19 -1.000000000000000e+00
922 24 -1.000000000000000e+00
922 118 -1.000000000000000e+00
922 922 7.000000000000000e+00
923 10 -1.000000000000000e+00
923 102 -1.000000000000000e+00
923 657 -1.000000000000000e+00
923 923 7.000000000000000e+00
924 53 -1.102062068879604e+00
924 69 -1.000000000000000e+00
924 545 -1.000000000000000e+00
924 924 3.256365425884724e+00
925 306 -1.000000000000000e+00
925 330 -1.000000000000000e+00
925 757 -1.000000000000000e+00
925 925 5.000000000000000e+00
926 42 -1.000000000000000e+00
926 523 -1.000000000000000e+00
926 640 -1.000000000000000e+00
926 926 1.027577561140060e+01
927 494 -1.000000000000000e+00
927 732 -1.000000000000000e+00
927 889 -1.000000000000000e+00
927 927 5.245703607797623e+00
928 4 -1.000000000000000e+00
928 218 -1.000000000000000e+00
928 274 -1.000000000000000e+00
928 928 1.318257418274879e+01
929 302 -1.000000000000000e+00
929 483 -1.000000000000000e+00
929 682 -1.000000000000000e+00
929 929 3.130465611815453e+00
930 51 -1.000000000000000e+00
930 138 -1.000000000000000e+00
930 267 -1.000000000000000e+00
930 930 3.000000000000000e+00
931 59 -1.000000000000000e+00
931 70 -1.000000000000000e+00
931 313 -1.000000000000000e+00
931 931 1.138724876940250e+01
932 2 -1.000000000000000e+00
932 42 -1.000000000000000e+00
932 65 -1.000000000000000e+00
932 932 6.000000000000000e+00
933 1 -1.000000000000000e+00
933 85 -1.000000000000000e+00
933 100 -1.000000000000000e+00
933 375 -1.118033975362778e-01
933 933 4.111803397536278e+00
934 5 -1.000000000000000e+00
934 447 -1.000000000000000e+00
934 794 -1.000000000000000e+00
934 934 7.000000000000000e+00
935 132 -1.000000000000000e+00
935 137 -1.000000000000000e+00
935 266 -1.000000000000000e+00
935 935 7.195180013775826e+00
936 5 -1.000000000000000e+00
936 104 -1.000000000000000e+00
936 271 -1.000000000000000e+00
936 936 5.174077659845352e+00
937 339 -1.000000000000000e+00
937 522 -1.000000000000000e+00
937 781 -1.000000000000000e+00
937 937 7.338061720132828e+00
938 418 -1.581138819456100e-01
938 654 -2.132007181644440e-01
938 685 -1.000000000000000e+00
938 755 -1.000000000000000e+00
938 897 -1.000000000000000e+00
938 938 4.371314600110054e+00
939 224 -1.000000000000000e+00
939 457 -1.000000000000000e+00
939 464 -1.000000000000000e+00
939 939 1.006085805967450e+01
940 60 -1.000000000000000e+00
940 113 -1.000000000000000e+00
940 673 -1.000000000000000e+00
940 940 7.000000000000000e+00
941 34 -1.000000000000000e+00
941 233 -1.000000000000000e+00
941 484 -1.000000000000000e+00
941 941 5.000000000000000e+00
942 85 -1.000000000000000e+00
942 162 -1.000000000000000e+00
942 670 -1.000000000000000e+00
942 942 1.000000000000000e+01
943 115 -1.000000000000000e+00
943 237 -1.000000000000000e+00
943 391 -1.000000000000000e+00
943 943 4.092450030148029e+00
944 6 -1.000000000000000e+00
944 42 -1.000000000000000e+00
944 296 -1.000000000000000e+00
944 297 -3.175003230571747e-01
944 944 5.317500323057175e+00
945 5 -1.000000000000000e+00
945 6 -1.000000000000000e+00
945 151 -1.000000000000000e+00
945 945 3.235702276229858e+00
946 12 -1.000000000000000e+00
946 29 -1.000000000000000e+00
946 191 -1.000000000000000e+00
946 946 1.200000000000000e+01
947 96 -1.000000000000000e+00
947 162 -1.000000000000000e+00
947 319 -1.000000000000000e+00
947 947 3.000000000000000e+00
948 8 -1.000000000000000e+00
948 19 -1.000000000000000e+00
948 302 -1.000000000000000e+00
948 948 4.000000000000000e+00
949 86 -1.000000000000000e+00
949 513 -1.000000000000000e+00
949 626 -1.000000000000000e+00
949 949 6.333333343267441e+00
950 86 -1.000000000000000e+00
950 847 -1.000000000000000e+00
950 874 -1.000000000000000e+00
950 950 1.100000000000000e+01
951 454 -1.000000000000000e+00
951 663 -1.000000000000000e+00
951 845 -1.000000000000000e+00
951 951 6.000000000000000e+00
952 1 -1.000000000000000e+00
952 7 -1.000000000000000e+00
952 393 -1.000000000000000e+00
952 952 1.100000000000000e+01
953 2 -1.000000000000000e+00
953 92 -1.000000000000000e+00
953 730 -1.000000000000000e+00
953 953 9.454147309064865e+00
954 4 -1.000000000000000e+00
954 26 -1.000000000000000e+00
954 565 -1.000000000000000e+00
954 954 4.000000000000000e+00
955 7 -1.000000000000000e+00
955 33 -1.000000000000000e+00
955 726 -1.000000000000000e+00
955 955 7.975814908742905e+00
956 10 -1.000000000000000e+00
956 248 -1.000000000000000e+00
956 689 -1.000000000000000e+00
956 956 6.131306424736977e+00
957 53 -1.000000000000000e+00
957 591 -1.000000000000000e+00
957 956 -1.000000000000000e+00
957 957 4.000000000000000e+00
958 49 -1.000000000000000e+00
958 135 -1.000000000000000e+00
958 248 -1.000000000000000e+00
958 958 7.000000000000000e+00
959 13 -1.000000000000000e+00
959 82 -1.000000000000000e+00
959 719 -1.000000000000000e+00
959 959 3.000000000000000e+00
960 22 -1.000000000000000e+00
960 117 -1.000000000000000e+00
960 722 -1.000000000000000e+00
960 960 7.168430387973785e+00
961 348 -1.000000000000000e+00
961 368 -1.000000000000000e+00
961 487 -1.000000000000000e+00
961 961 1.120000000298023e+01
962 39 -1.000000000000000e+00
962 111 -1.000000000000000e+00
962 545 -1.000000000000000e+00
962 962 7.166666686534882e+00
963 72 -1.000000000000000e+00
963 399 -1.000000000000000e+00
963 561 -1.839418113231659e-01
963 630 -1.000000000000000e+00
963 963 9.183941811323166e+00
964 24 -1.000000000000000e+00
964 74 -1.000000000000000e+00
964 955 -1.000000000000000e+00
964 964 6.208466768264771e+00
965 5 -1.000000000000000e+00
965 413 -1.000000000000000e+00
965 937 -1.000000000000000e+00
965 965 6.000000000000000e+00
966 13 -1.000000000000000e+00
966 814 -1.000000000000000e+00
966 896 -1.154418274760246e+00
966 966 3.154418274760246e+00
967 131 -1.000000000000000e+00
967 320 -1.000000000000000e+00
967 521 -1.000000000000000e+00
967 967 9.000000000000000e+00
968 518 -1.000000000000000e+00
968 653 -1.000000000000000e+00
968 758 -1.000000000000000e+00
968 968 3.000000000000000e+00
969 16 -1.000000000000000e+00
969 80 -1.000000000000000e+00
969 103 -1.000000000000000e+00
969 969 6.000000000000000e+00
970 116 -1.000000000000000e+00
970 237 -1.000000000000000e+00
970 963 -1.000000000000000e+00
970 970 4.213200718164444e+00
971 143 -1.581138819456100e-01
971 376 -1.000000000000000e+00
971 487 -1.000000000000000e+00
971 884 -1.000000000000000e+00
971 971 5.220613881945610e+00
972 2 -1.000000000000000e+00
972 99 -1.000000000000000e+00
972 776 -1.000000000000000e+00
972 972 4.000000000000000e+00
973 17 -1.000000000000000e+00
973 241 -1.000000000000000e+00
973 317 -1.000000000000000e+00
973 804 -1.139605790376663e-01
973 973 6.113960579037666e+00
974 292 -1.000000000000000e+00
974 626 -1.000000000000000e+00
974 777 -1.000000000000000e+00
974 974 8.158113881945610e+00
975 67 -1.000000000000000e+00
975 163 -1.000000000000000e+00
975 371 -1.091863043606281e+00
975 975 8.242809422314167e+00
976 105 -1.000000000000000e+00
976 386 -1.000000000000000e+00
976 685 -1.000000000000000e+00
976 976 5.000000000000000e+00
977 269 -1.000000000000000e+00
977 464 -1.000000000000000e+00
977 902 -1.000000000000000e+00
977 977 5.000000000000000e+00
978 48 -1.000000000000000e+00
978 248 -1.000000000000000e+00
978 320 -1.000000000000000e+00
978 978 4.000000000000000e+00
979 6 -1.000000000000000e+00
979 7 -1.000000000000000e+00
979 286 -1.000000000000000e+00
979 979 3.000000000000000e+00
980 200 -1.000000000000000e+00
980 269 -1.000000000000000e+00
980 547 -1.000000000000000e+00
980 980 7.000000000000000e+00
981 57 -1.000000000000000e+00
981 225 -1.000000000000000e+00
981 412 -1.000000000000000e+00
981 981 6.000000000000000e+00
982 6 -1.000000000000000e+00
982 604 -2.041241526603699e-01
982 773 -1.000000000000000e+00
982 777 -1.000000000000000e+00
982 982 5.204124152660370e+00
983 5 -1.000000000000000e+00
983 274 -1.000000000000000e+00
983 378 -1.000000000000000e+00
983 983 1.129290658980608e+01
984 162 -1.000000000000000e+00
984 227 -1.000000000000000e+00
984 456 -1.000000000000000e+00
984 984 9.000000000000000e+00
985 5 -1.000000000000000e+00
985 43 -1.000000000000000e+00
985 687 -1.050062615424395e+00
985 985 9.050062615424395e+00
986 7 -1.000000000000000e+00
986 13 -1.000000000000000e+00
986 324 -1.000000000000000e+00
986 986 4.000000000000000e+00
987 107 -1.000000000000000e+00
987 320 -1.000000000000000e+00
987 600 -1.000000000000000e+00
987 987 1.600000000000000e+01
988 247 -1.000000000000000e+00
988 330 -1.172132596373558e+00
988 451 -1.000000000000000e+00
988 988 6.172132596373558e+00
989 374 -1.000000000000000e+00
989 449 -1.000000000000000e+00
989 545 -1.000000000000000e+00
989 989 1.111180339753628e+01
990 7 -1.000000000000000e+00
990 132 -1.000000000000000e+00
990 266 -7.669650018215179e-02
990 869 -1.000000000000000e+00
990 990 8.151232101023197e+00
991 7 -1.000000000000000e+00
991 465 -1.000000000000000e+00
991 673 -1.000000000000000e+00
991 991 4.000000000000000e+00
992 17 -1.000000000000000e+00
992 406 -4.472135603427887e-01
992 489 -1.000000000000000e+00
992 516 -1.000000000000000e+00
992 617 -2.357022762298584e-01
992 992 3.682915836572647e+00
993 65 -1.000000000000000e+00
993 257 -1.000000000000000e+00
993 593 -1.000000000000000e+00
993 993 9.463127538561821e+00
994 224 -1.000000000000000e+00
994 522 -1.000000000000000e+00
994 803 -1.000000000000000e+00
994 994 3.000000000000000e+00
995 1 -1.000000000000000e+00
995 76 -1.000000000000000e+00
995 848 -1.116247639060020e+00
995 995 4.183363236486912e+00
996 8 -1.000000000000000e+00
996 72 -1.000000000000000e+00
996 977 -1.000000000000000e+00
996 996 7.000000000000000e+00
997 26 -1.000000000000000e+00
997 214 -1.000000000000000e+00
997 369 -1.000000000000000e+00
997 746 -1.825741827487946e-01
997 997 7.182574182748795e+00
998 319 -1.000000000000000e+00
998 522 -1.000000000000000e+00
998 975 -1.000000000000000e+00
998 998 4.000000000000000e+00
999 22 -1.000000000000000e+00
999 214 -1.000000000000000e+00
999 535 -1.000000000000000e+00
999 999 3.377778887748718e+00
1000 23 -1.000000000000000e+00
1000 29 -1.000000000000000e+00
1000 128 -1.000000000000000e+00
1000 1000 9.438529014587402e+00
1001 1 -1.000000000000000e+00
1001 59 -1.000000000000000e+00
1001 424 -1.000000000000000e+00
1001 1001 1.008703882247210e+01
1002 13 -1.000000000000000e+00
1002 143 -1.000000000000000e+00
1002 350 -1.000000000000000e+00
1002 1002 5.000000000000000e+00
1003 14 -1.000000000000000e+00
1003 184 -1.000000000000000e+00
1003 259 -1.000000000000000e+00
1003 1003 5.087038829922676e+00
1004 231 -1.000000000000000e+00
1004 253 -1.000000000000000e+00
1004 616 -1.000000000000000e+00
1004 1004 8.000000000000000e+00
1005 219 -1.000000000000000e+00
1005 430 -1.227184727787971e+00
1005 703 -1.000000000000000e+00
1005 1005 4.227184727787971e+00
1006 38 -1.000000000000000e+00
1006 39 -1.000000000000000e+00
1006 99 -1.000000000000000e+00
1006 1006 3.000000000000000e+00
1007 5 -1.000000000000000e+00
1007 69 -1.000000000000000e+00
1007 760 -1.227921158075333e+00
1007 1007 3.227921158075333e+00
1008 153 -1.000000000000000e+00
1008 446 -1.000000000000000e+00
1008 820 -1.000000000000000e+00
1008 1008 4.000000000000000e+00
1009 8 -1.000000000000000e+00
1009 20 -1.000000000000000e+00
1009 529 -1.000000000000000e+00
1009 928 -1.825741827487946e-01
1009 1009 7.311673626303673e+00
1010 119 -1.000000000000000e+00
1010 245 -1.000000000000000e+00
1010 568 -1.000000000000000e+00
1010 1010 6.062994077801704e+00
1011 7 -1.000000000000000e+00
1011 767 -1.000000000000000e+00
1011 993 -1.000000000000000e+00
1011 1011 6.210818499326706e+00
1012 235 -1.000000000000000e+00
1012 384 -1.000000000000000e+00
1012 784 -1.000000000000000e+00
1012 1012 5.000000000000000e+00
1013 32 -1.000000000000000e+00
1013 523 -1.000000000000000e+00
1013 939 -1.000000000000000e+00
1013 1013 6.000000000000000e+00
1014 10 -1.000000000000000e+00
1014 193 -1.000000000000000e+00
1014 214 -1.000000000000000e+00
1014 1014 5.454548746347427e+00
1015 85 -1.000000000000000e+00
1015 350 -1.000000000000000e+00
1015 483 -1.000000000000000e+00
1015 1015 3.000000000000000e+00
1016 10 -1.000000000000000e+00
1016 16 -1.000000000000000e+00
1016 86 -1.844661831855774e-01
1016 385 -1.000000000000000e+00
1016 470 -2.539860904216766e-01
1016 1016 7.438452273607254e+00
1017 244 -1.000000000000000e+00
1017 380 -1.000000000000000e+00
1017 578 -1.000000000000000e+00
1017 1017 6.176776692271233e+00
1018 6 -1.000000000000000e+00
1018 57 -1.000000000000000e+00
1018 77 -1.000000000000000e+00
1018 1018 5.207613706588745e+00
1019 340 -1.000000000000000e+00
1019 347 -1.071611486375332e+00
1019 451 -1.000000000000000e+00
1019 1019 5.296543590724468e+00
1020 646 -1.000000000000000e+00
1020 680 -1.000000000000000e+00
1020 814 -1.000000000000000e+00
1020 1020 7.000000000000000e+00
1021 270 -1.000000000000000e+00
1021 282 -1.000000000000000e+00
1021 845 -1.000000000000000e+00
1021 1021 7.000000000000000e+00
1022 49 -1.000000000000000e+00
1022 188 -1.000000000000000e+00
1022 419 -1.000000000000000e+00
1022 1022 7.000000000000000e+00
1023 5 -1.000000000000000e+00
1023 57 -1.000000000000000e+00
1023 457 -1.000000000000000e+00
1023 1023 6.098058067262173e+00
1024 453 -1.000000000000000e+00
1024 522 -1.000000000000000e+00
1024 850 -1.000000000000000e+00
1024 1024 7.000000000000000e+00
1025 17 -1.000000000000000e+00
1025 90 -1.000000000000000e+00
1025 591 -1.000000000000000e+00
1025 1025 6.572579786181450e+00
1026 189 -1.000000000000000e+00
1026 815 -1.000000000000000e+00
1026 892 -1.000000000000000e+00
1026 1026 3.000000000000000e+00
1027 52 -1.000000000000000e+00
1027 441 -1.000000000000000e+00
1027 488 -1.414213627576828e-01
1027 827 -1.000000000000000e+00
1027 1027 7.224181957542896e+00
1028 61 -1.000000000000000e+00
1028 92 -1.000000000000000e+00
1028 419 -1.000000000000000e+00
1028 1028 7.117851138114929e+00
1029 246 -1.000000000000000e+00
1029 432 -1.000000000000000e+00
1029 547 -1.000000000000000e+00
1029 1029 9.000000000000000e+00
1030 401 -1.000000000000000e+00
1030 439 -1.000000000000000e+00
1030 760 -1.000000000000000e+00
1030 1030 4.000000000000000e+00
1031 154 -1.000000000000000e+00
1031 239 -1.000000000000000e+00
1031 952 -1.000000000000000e+00
1031 1031 8.477914944291115e+00
1032 2 -1.000000000000000e+00
1032 334 -1.000000000000000e+00
1032 448 -1.000000000000000e+00
1032 1032 6.000000000000000e+00
1033 96 -1.000000000000000e+00
1033 386 -1.000000000000000e+00
1033 425 -1.000000000000000e+00
1033 1033 4.000000000000000e+00
1034 71 -1.000000000000000e+00
1034 135 -1.000000000000000e+00
1034 773 -1.000000000000000e+00
1034 1034 3.192450091242790e+00
1035 276 -1.000000000000000e+00
1035 748 -1.000000000000000e+00
1035 812 -1.000000000000000e+00
1035 1035 6.288675129413605e+00
1036 249 -1.000000000000000e+00
1036 442 -1.000000000000000e+00
1036 934 -1.000000000000000e+00
1036 1036 6.000000000000000e+00
1037 40 -1.000000000000000e+00
1037 382 -1.000000000000000e+00
1037 996 -1.000000000000000e+00
1037 1037 5.000000000000000e+00
1038 26 -1.000000000000000e+00
1038 602 -1.000000000000000e+00
1038 884 -1.000000000000000e+00
1038 1038 5.000000000000000e+00
1039 14 -1.000000000000000e+00
1039 401 -1.000000000000000e+00
1039 949 -1.000000000000000e+00
1039 1039 5.166666671633720e+00
1040 562 -1.000000000000000e+00
1040 685 -1.000000000000000e+00
1040 922 -1.000000000000000e+00
1040 1040 5.000000000000000e+00
1041 93 -1.000000000000000e+00
1041 99 -1.000000000000000e+00
1041 868 -1.000000000000000e+00
1041 1041 6.000000000000000e+00
1042 23 -1.000000000000000e+00
1042 348 -1.000000000000000e+00
1042 445 -1.000000000000000e+00
1042 1042 6.000000000000000e+00
1043 166 -1.000000000000000e+00
1043 581 -1.000000000000000e+00
1043 980 -1.000000000000000e+00
1043 1043 5.494244128465652e+00
1044 17 -1.000000000000000e+00
1044 104 -1.000000000000000e+00
1044 518 -1.000000000000000e+00
1044 617 -3.086067140102386e-01
1044 1044 7.526824593544006e+00
1045 204 -1.000000000000000e+00
1045 645 -1.000000000000000e+00
1045 772 -4.082482755184174e-01
1045 798 -1.000000000000000e+00
1045 1045 9.408248275518417e+00
1046 444 -1.000000000000000e+00
1046 695 -1.000000000000000e+00
1046 733 -1.075592890381813e+00
1046 1046 4.382777959108353e+00
1047 6 -1.000000000000000e+00
1047 8 -1.000000000000000e+00
1047 65 -1.000000000000000e+00
1047 262 -2.581988871097565e-01
1047 1047 4.539916962385178e+00
1048 1 -1.000000000000000e+00
1048 494 -1.000000000000000e+00
1048 961 -1.000000000000000e+00
1048 1048 4.000000000000000e+00
1049 77 -1.000000000000000e+00
1049 395 -1.000000000000000e+00
1049 814 -1.000000000000000e+00
1049 1049 9.000000000000000e+00
1050 4 -1.000000000000000e+00
1050 35 -1.000000000000000e+00
1050 342 -1.000000000000000e+00
1050 1050 6.000000000000000e+00
1051 488 -1.000000000000000e+00
1051 901 -1.000000000000000e+00
1051 911 -1.000000000000000e+00
1051 1051 5.000000000000000e+00
1052 21 -1.000000000000000e+00
1052 632 -1.000000000000000e+00
1052 840 -1.000000000000000e+00
1052 1052 4.000000000000000e+00
1053 30 -1.000000000000000e+00
1053 415 -2.338535934686661e-01
1053 608 -2.096569836139679e-01
1053 772 -1.000000000000000e+00
1053 884 -1.000000000000000e+00
1053 1053 7.577141195535660e+00
1054 476 -1.000000000000000e+00
1054 549 -1.000000000000000e+00
1054 928 -1.000000000000000e+00
1054 1054 9.133630618453026e+00
1055 456 -1.000000000000000e+00
1055 591 -1.000000000000000e+00
1055 1031 -1.000000000000000e+00
1055 1055 9.079056940972805e+00
1056 15 -1.000000000000000e+00
1056 138 -1.000000000000000e+00
1056 148 -1.000000000000000e+00
1056 1056 5.057353932410479e+00
1057 20 -1.000000000000000e+00
1057 34 -1.000000000000000e+00
1057 157 -1.000000000000000e+00
1057 1057 1.000000000000000e+01
1058 77 -1.000000000000000e+00
1058 765 -1.000000000000000e+00
1058 1023 -1.000000000000000e+00
1058 1058 1.500000000000000e+01
1059 96 -1.000000000000000e+00
1059 796 -1.000000000000000e+00
1059 942 -1.000000000000000e+00
1059 983 -1.072112545371056e-01
1059 1059 7.289785437285900e+00
1060 305 -1.000000000000000e+00
1060 467 -1.290994435548782e-01
1060 514 -1.000000000000000e+00
1060 612 -1.000000000000000e+00
1060 1060 5.333223581314087e+00
1061 201 -1.000000000000000e+00
1061 234 -1.000000000000000e+00
1061 1058 -1.000000000000000e+00
1061 1061 6.348155319690704e+00
1062 807 -1.000000000000000e+00
1062 931 -1.000000000000000e+00
1062 946 -1.000000000000000e+00
1062 1062 7.174077659845352e+00
1063 29 -1.000000000000000e+00
1063 209 -1.000000000000000e+00
1063 474 -1.000000000000000e+00
1063 1063 9.326911747455597e+00
1064 37 -1.000000000000000e+00
1064 146 -1.000000000000000e+00
1064 545 -1.000000000000000e+00
1064 1064 1.223230782151222e+01
1065 98 -1.000000000000000e+00
1065 333 -1.000000000000000e+00
1065 571 -1.000000000000000e+00
1065 1065 8.000000000000000e+00
1066 8 -1.000000000000000e+00
1066 159 -1.000000000000000e+00
1066 1000 -1.000000000000000e+00
1066 1066 7.182574182748795e+00
1067 48 -1.000000000000000e+00
1067 429 -1.000000000000000e+00
1067 479 -1.204124152660370e+00
1067 1067 8.337754771113396e+00
1068 77 -1.000000000000000e+00
1068 384 -1.000000000000000e+00
1068 625 -1.000000000000000e+00
1068 1068 8.000000000000000e+00
1069 57 -1.000000000000000e+00
1069 65 -1.000000000000000e+00
1069 479 -1.000000000000000e+00
1069 1069 6.000000000000000e+00
1070 27 -1.000000000000000e+00
1070 461 -1.000000000000000e+00
1070 989 -1.111803397536278e+00
1070 1070 3.315927550196648e+00
1071 404 -1.000000000000000e+00
1071 621 -1.000000000000000e+00
1071 726 -1.000000000000000e+00
1071 1071 4.000000000000000e+00
1072 35 -1.000000000000000e+00
1072 48 -1.825741827487946e-01
1072 95 -1.000000000000000e+00
1072 413 -1.000000000000000e+00
1072 1072 7.182574182748795e+00
1073 34 -1.000000000000000e+00
1073 95 -1.000000000000000e+00
1073 292 -1.000000000000000e+00
1073 1073 3.000000000000000e+00
1074 35 -1.000000000000000e+00
1074 48 -1.000000000000000e+00
1074 888 -1.000000000000000e+00
1074 1074 5.300000011920929e+00
1075 8 -1.000000000000000e+00
1075 483 -1.000000000000000e+00
1075 928 -1.000000000000000e+00
1075 1075 6.813717812299728e+00
1076 4 -1.000000000000000e+00
1076 242 -1.000000000000000e+00
1076 708 -1.000000000000000e+00
1076 1076 1.100000000000000e+01
1077 221 -2.041241377592087e-01
1077 222 -1.000000000000000e+00
1077 455 -1.000000000000000e+00
1077 757 -1.000000000000000e+00
1077 1077 4.393106371164322e+00
1078 43 -1.000000000000000e+00
1078 634 -1.223606795072556e+00
1078 679 -1.000000000000000e+00
1078 1078 3.223606795072556e+00
1079 320 -1.141421362757683e+00
1079 353 -1.000000000000000e+00
1079 863 -1.108465231955051e+00
1079 1079 3.249886594712734e+00
1080 31 -1.000000000000000e+00
1080 37 -1.000000000000000e+00
1080 55 -4.743416309356689e-01
1080 255 -1.000000000000000e+00
1080 648 -2.500000000000000e-01
1080 1080 6.724341630935669e+00
1081 6 -1.000000000000000e+00
1081 242 -1.000000000000000e+00
1081 361 -1.000000000000000e+00
1081 500 -2.425356358289719e-01
1081 1081 5.398709401488304e+00
1082 21 -1.000000000000000e+00
1082 43 -1.000000000000000e+00
1082 1010 -1.000000000000000e+00
1082 1082 6.150755673646927e+00
1083 156 -1.000000000000000e+00
1083 617 -1.000000000000000e+00
1083 812 -1.000000000000000e+00
1083 1083 4.000000000000000e+00
1084 5 -1.000000000000000e+00
1084 35 -1.000000000000000e+00
1084 534 -1.000000000000000e+00
1084 1084 5.000000000000000e+00
1085 6 -1.000000000000000e+00
1085 284 -1.000000000000000e+00
1085 814 -1.000000000000000e+00
1085 1085 3.196116134524345e+00
1086 239 -1.000000000000000e+00
1086 315 -1.000000000000000e+00
1086 964 -1.000000000000000e+00
1086 1086 5.000000000000000e+00
1087 27 -1.000000000000000e+00
1087 142 -1.000000000000000e+00
1087 366 -1.000000000000000e+00
1087 1087 1.000000000000000e+01
1088 5 -1.000000000000000e+00
1088 23 -1.000000000000000e+00
1088 395 -1.000000000000000e+00
1088 1088 5.288675129413605e+00
1089 9 -1.000000000000000e+00
1089 194 -1.000000000000000e+00
1089 449 -1.042572036385536e-01
1089 628 -1.000000000000000e+00
1089 1089 3.104257203638554e+00
1090 23 -1.000000000000000e+00
1090 159 -1.000000000000000e+00
1090 919 -1.000000000000000e+00
1090 1090 8.000000000000000e+00
1091 55 -1.000000000000000e+00
1091 724 -1.000000000000000e+00
1091 876 -1.000000000000000e+00
1091 1091 6.000000000000000e+00
1092 153 -1.000000000000000e+00
1092 431 -1.000000000000000e+00
1092 534 -1.000000000000000e+00
1092 1092 5.000000000000000e+00
1093 6 -1.000000000000000e+00
1093 539 -1.000000000000000e+00
1093 838 -1.204124137759209e+00
1093 1093 3.204124137759209e+00
1094 159 -1.000000000000000e+00
1094 297 -1.000000000000000e+00
1094 484 -1.000000000000000e+00
1094 1094 4.106600359082222e+00
1095 239 -1.000000000000000e+00
1095 282 -1.000000000000000e+00
1095 325 -1.710964888334274e-01
1095 846 -1.000000000000000e+00
1095 1095 5.171096488833427e+00
1096 18 -1.000000000000000e+00
1096 923 -1.000000000000000e+00
1096 967 -1.000000000000000e+00
1096 1096 8.000000000000000e+00
1097 119 -1.000000000000000e+00
1097 526 -1.230914890766144e-01
1097 809 -1.000000000000000e+00
1097 842 -1.000000000000000e+00
1097 1097 9.123091489076614e+00
1098 186 -1.000000000000000e+00
1098 431 -1.000000000000000e+00
1098 921 -1.000000000000000e+00
1098 1098 3.000000000000000e+00
1099 164 -1.000000000000000e+00
1099 329 -1.000000000000000e+00
1099 420 -1.000000000000000e+00
1099 1099 4.182574182748795e+00
1100 163 -1.000000000000000e+00
1100 253 -1.000000000000000e+00
1100 513 -1.000000000000000e+00
1100 1100 6.000000000000000e+00
1101 13 -1.000000000000000e+00
1101 49 -1.000000000000000e+00
1101 263 -2.981424033641815e-01
1101 950 -1.000000000000000e+00
1101 1101 7.298142403364182e+00
1102 32 -1.000000000000000e+00
1102 65 -1.202259957790375e+00
1102 364 -1.000000000000000e+00
1102 1102 3.202259957790375e+00
1103 6 -1.000000000000000e+00
1103 527 -1.000000000000000e+00
1103 788 -1.000000000000000e+00
1103 1103 7.000000000000000e+00
1104 257 -1.000000000000000e+00
1104 429 -1.666666716337204e-01
1104 494 -1.000000000000000e+00
1104 581 -1.000000000000000e+00
1104 1104 3.355648905038834e+00
1105 737 -1.000000000000000e+00
1105 871 -1.000000000000000e+00
1105 950 -1.000000000000000e+00
1105 1105 1.355613864958286e+01
1106 240 -1.000000000000000e+00
1106 761 -1.000000000000000e+00
1106 884 -1.000000000000000e+00
1106 1106 1.000000000000000e+01
1107 126 -1.000000000000000e+00
1107 231 -1.000000000000000e+00
1107 672 -1.000000000000000e+00
1107 1107 4.000000000000000e+00
1108 87 -1.000000000000000e+00
1108 195 -1.000000000000000e+00
1108 307 -1.924500912427902e-01
1108 433 -1.000000000000000e+00
1108 598 -1.924500912427902e-01
1108 1108 8.962250441312790e+00
1109 7 -1.000000000000000e+00
1109 164 -2.004459351301193e-01
1109 619 -1.000000000000000e+00
1109 849 -1.000000000000000e+00
1109 1109 4.200445935130119e+00
1110 5 -1.000000000000000e+00
1110 398 -1.000000000000000e+00
1110 665 -1.000000000000000e+00
1110 1110 4.436430066823959e+00
1111 85 -1.000000000000000e+00
1111 135 -1.000000000000000e+00
1111 142 -1.000000000000000e+00
1111 1077 -1.889822334051132e-01
1111 1111 4.188982233405113e+00
1112 5 -1.000000000000000e+00
1112 770 -1.000000000000000e+00
1112 895 -1.000000000000000e+00
1112 1112 6.000000000000000e+00
1113 562 -1.000000000000000e+00
1113 679 -1.000000000000000e+00
1113 938 -1.000000000000000e+00
1113 1113 4.000000000000000e+00
1114 96 -1.000000000000000e+00
1114 231 -1.000000000000000e+00
1114 973 -1.000000000000000e+00
1114 1114 5.000000000000000e+00
1115 8 -1.000000000000000e+00
1115 131 -1.000000000000000e+00
1115 132 -1.000000000000000e+00
1115 1115 8.000000000000000e+00
1116 26 -1.000000000000000e+00
1116 116 -1.174077659845352e+00
1116 775 -1.000000000000000e+00
1116 1116 7.174077659845352e+00
1117 9 -1.000000000000000e+00
1117 980 -1.000000000000000e+00
1117 1090 -1.000000000000000e+00
1117 1117 4.140028014779091e+00
1118 48 -1.000000000000000e+00
1118 326 -1.000000000000000e+00
1118 402 -1.000000000000000e+00
1118 1118 3.000000000000000e+00
1119 123 -1.000000000000000e+00
1119 212 -1.000000000000000e+00
1119 310 -1.000000000000000e+00
1119 1119 7.000000000000000e+00
1120 8 -1.000000000000000e+00
1120 233 -1.000000000000000e+00
1120 1069 -1.000000000000000e+00
1120 1120 3.000000000000000e+00
1121 618 -1.000000000000000e+00
1121 1017 -1.176776692271233e+00
1121 1058 -1.000000000000000e+00
1121 1121 4.176776692271233e+00
1122 35 -1.000000000000000e+00
1122 754 -1.000000000000000e+00
1122 1049 -1.000000000000000e+00
1122 1122 4.000000000000000e+00
1123 13 -1.000000000000000e+00
1123 158 -1.000000000000000e+00
1123 785 -1.138342887163162e+00
1123 1123 7.389655232429504e+00
1124 159 -1.000000000000000e+00
1124 369 -1.000000000000000e+00
1124 931 -1.000000000000000e+00
1124 1124 3.000000000000000e+00
1125 10 -1.000000000000000e+00
1125 504 -1.000000000000000e+00
1125 745 -1.000000000000000e+00
1125 1125 1.000000000000000e+01
1126 60 -1.000000000000000e+00
1126 382 -1.000000000000000e+00
1126 1041 -1.000000000000000e+00
1126 1126 7.733798608183861e+00
1127 606 -1.000000000000000e+00
1127 749 -1.000000000000000e+00
1127 985 -1.000000000000000e+00
1127 1127 4.000000000000000e+00
1128 8 -1.000000000000000e+00
1128 140 -1.000000000000000e+00
1128 143 -1.000000000000000e+00
1128 533 -1.767766922712326e-01
1128 1128 5.331080049276352e+00
1129 398 -1.000000000000000e+00
1129 446 -1.259881556034088e-01
1129 1008 -1.000000000000000e+00
1129 1029 -1.000000000000000e+00
1129 1129 8.227003410458565e+00
1130 26 -1.000000000000000e+00
1130 79 -1.000000000000000e+00
1130 341 -1.000000000000000e+00
1130 1130 6.223606795072556e+00
1131 33 -1.000000000000000e+00
1131 362 -1.000000000000000e+00
1131 479 -1.000000000000000e+00
1131 1131 1.135355338454247e+01
1132 122 -1.000000000000000e+00
1132 123 -1.242535635828972e+00
1132 137 -1.000000000000000e+00
1132 1132 4.363803453743458e+00
1133 10 -1.000000000000000e+00
1133 895 -1.000000000000000e+00
1133 1062 -1.000000000000000e+00
1133 1133 4.052704624831676e+00
1134 290 -1.000000000000000e+00
1134 327 -1.000000000000000e+00
1134 728 -1.825741827487946e-01
1134 1110 -1.000000000000000e+00
1134 1134 8.182574182748795e+00
1135 806 -1.000000000000000e+00
1135 944 -1.000000000000000e+00
1135 993 -1.000000000000000e+00
1135 1135 9.000000000000000e+00
1136 157 -1.000000000000000e+00
1136 292 -1.000000000000000e+00
1136 482 -1.000000000000000e+00
1136 1136 4.000000000000000e+00
1137 230 -1.000000000000000e+00
1137 588 -1.000000000000000e+00
1137 867 -1.000000000000000e+00
1137 1137 6.000000000000000e+00
1138 5 -1.365148365497589e+00
1138 99 -1.000000000000000e+00
1138 1075 -1.000000000000000e+00
1138 1138 4.730296730995178e+00
1139 157 -1.000000000000000e+00
1139 286 -1.000000000000000e+00
1139 1114 -1.000000000000000e+00
1139 1139 1.119611613452435e+01
1140 5 -1.000000000000000e+00
1140 26 -1.000000000000000e+00
1140 1103 -1.000000000000000e+00
1140 1140 4.000000000000000e+00
1141 380 -1.666666716337204e-01
1141 387 -1.000000000000000e+00
1141 482 -1.000000000000000e+00
1141 730 -1.000000000000000e+00
1141 931 -2.182179093360901e-01
1141 1141 4.384884580969810e+00
1142 233 -1.000000000000000e+00
1142 739 -1.000000000000000e+00
1142 818 -1.000000000000000e+00
1142 1142 4.000000000000000e+00
1143 403 -1.000000000000000e+00
1143 413 -1.245145171880722e+00
1143 445 -1.000000000000000e+00
1143 492 -1.601281613111496e-01
1143 1143 6.405273333191872e+00
1144 57 -1.000000000000000e+00
1144 265 -1.000000000000000e+00
1144 785 -1.000000000000000e+00
1144 1144 3.129099443554878e+00
1145 70 -1.000000000000000e+00
1145 597 -1.000000000000000e+00
1145 1116 -1.000000000000000e+00
1145 1145 4.138675048947334e+00
1146 9 -1.000000000000000e+00
1146 87 -1.000000000000000e+00
1146 419 -1.000000000000000e+00
1146 1146 6.114332392811775e+00
1147 84 -1.000000000000000e+00
1147 565 -1.000000000000000e+00
1147 1076 -1.000000000000000e+00
1147 1147 6.000000000000000e+00
1148 109 -1.000000000000000e+00
1148 382 -1.000000000000000e+00
1148 899 -1.000000000000000e+00
1148 1148 7.149071186780930e+00
1149 61 -1.000000000000000e+00
1149 344 -1.000000000000000e+00
1149 961 -1.000000000000000e+00
1149 1149 1.115596257150173e+01
1150 67 -1.000000000000000e+00
1150 203 -1.000000000000000e+00
1150 443 -1.000000000000000e+00
1150 1150 4.000000000000000e+00
1151 341 -1.000000000000000e+00
1151 993 -1.000000000000000e+00
1151 1043 -1.000000000000000e+00
1151 1151 4.000000000000000e+00
1152 55 -1.000000000000000e+00
1152 98 -1.000000000000000e+00
1152 732 -1.000000000000000e+00
1152 1152 6.105409257113934e+00
1153 50 -1.000000000000000e+00
1153 79 -1.000000000000000e+00
1153 194 -1.000000000000000e+00
1153 1153 4.000000000000000e+00
1154 44 -1.000000000000000e+00
1154 370 -1.000000000000000e+00
1154 569 -1.000000000000000e+00
1154 1154 4.088388346135616e+00
1155 17 -1.000000000000000e+00
1155 420 -1.000000000000000e+00
1155 455 -1.000000000000000e+00
1155 1155 6.349566318094730e+00
1156 627 -1.000000000000000e+00
1156 1053 -1.000000000000000e+00
1156 1088 -1.000000000000000e+00
1156 1156 6.000000000000000e+00
1157 5 -1.000000000000000e+00
1157 522 -1.000000000000000e+00
1157 707 -1.000000000000000e+00
1157 1157 7.507867813110352e+00
1158 383 -1.000000000000000e+00
1158 952 -1.000000000000000e+00
1158 1027 -1.000000000000000e+00
1158 1158 3.000000000000000e+00
1159 69 -1.000000000000000e+00
1159 507 -1.000000000000000e+00
1159 624 -1.000000000000000e+00
1159 1159 6.218217879533768e+00
1160 6 -1.000000000000000e+00
1160 450 -1.000000000000000e+00
1160 798 -1.000000000000000e+00
1160 1160 1.000000000000000e+01
1161 216 -1.740776449441910e-01
1161 616 -1.000000000000000e+00
1161 1060 -1.000000000000000e+00
1161 1160 -1.000000000000000e+00
1161 1161 6.310160398483276e+00
1162 48 -1.000000000000000e+00
1162 629 -1.000000000000000e+00
1162 1001 -1.000000000000000e+00
1162 1162 4.000000000000000e+00
1163 689 -1.000000000000000e+00
1163 870 -1.000000000000000e+00
1163 910 -1.000000000000000e+00
1163 1163 5.160128161311150e+00
1164 16 -1.000000000000000e+00
1164 23 -1.000000000000000e+00
1164 57 -1.000000000000000e+00
1164 1164 4.149071201682091e+00
1165 5 -1.000000000000000e+00
1165 34 -1.000000000000000e+00
1165 733 -1.000000000000000e+00
1165 1165 9.000000000000000e+00
1166 19 -1.000000000000000e+00
1166 341 -1.000000000000000e+00
1166 590 -1.000000000000000e+00
1166 1166 3.000000000000000e+00
1167 106 -1.000000000000000e+00
1167 370 -1.000000000000000e+00
1167 444 -1.000000000000000e+00
1167 1167 1.300000000000000e+01
1168 10 -1.000000000000000e+00
1168 347 -1.000000000000000e+00
1168 1019 -1.054092571139336e-01
1168 1134 -1.000000000000000e+00
1168 1168 6.262544102966785e+00
1169 101 -1.000000000000000e+00
1169 214 -1.000000000000000e+00
1169 659 -1.161164596676826e+00
1169 1169 4.161164596676826e+00
1170 666 -1.000000000000000e+00
1170 776 -1.000000000000000e+00
1170 1167 -1.000000000000000e+00
1170 1170 5.095346257090569e+00
1171 77 -1.000000000000000e+00
1171 255 -1.000000000000000e+00
1171 935 -1.000000000000000e+00
1171 1171 7.287746235728264e+00
1172 2 -1.000000000000000e+00
1172 66 -1.000000000000000e+00
1172 1044 -1.000000000000000e+00
1172 1172 4.088388346135616e+00
1173 139 -1.000000000000000e+00
1173 858 -1.000000000000000e+00
1173 888 -1.000000000000000e+00
1173 1173 1.200000000000000e+01
1174 5 -1.000000000000000e+00
1174 87 -1.000000000000000e+00
1174 416 -1.000000000000000e+00
1174 1174 8.218610338866711e+00
1175 173 -1.000000000000000e+00
1175 219 -1.000000000000000e+00
1175 1174 -1.000000000000000e+00
1175 1175 4.106600359082222e+00
1176 4 -1.000000000000000e+00
1176 23 -1.000000000000000e+00
1176 606 -1.000000000000000e+00
1176 1176 6.120385847985744e+00
1177 42 -1.000000000000000e+00
1177 82 -1.000000000000000e+00
1177 243 -1.000000000000000e+00
1177 1177 3.298142373561859e+00
1178 26 -1.000000000000000e+00
1178 95 -1.000000000000000e+00
1178 154 -1.000000000000000e+00
1178 1178 4.150755673646927e+00
1179 100 -1.000000000000000e+00
1179 112 -1.000000000000000e+00
1179 114 -1.000000000000000e+00
1179 1179 4.316227763891220e+00
1180 9 -1.000000000000000e+00
1180 52 -2.236067950725555e-01
1180 345 -1.000000000000000e+00
1180 897 -1.000000000000000e+00
1180 1180 3.462652489542961e+00
1181 116 -1.000000000000000e+00
1181 354 -1.290994435548782e-01
1181 428 -2.357022464275360e-01
1181 511 -1.123091489076614e+00
1181 572 -1.000000000000000e+00
1181 852 -1.490711867809296e-01
1181 1181 6.841088503599167e+00
1182 74 -1.000000000000000e+00
1182 229 -1.000000000000000e+00
1182 889 -1.000000000000000e+00
1182 1182 5.670141041278839e+00
1183 9 -1.000000000000000e+00
1183 171 -1.000000000000000e+00
1183 346 -1.000000000000000e+00
1183 682 -1.443375647068024e-01
1183 1183 4.144337564706802e+00
1184 76 -1.000000000000000e+00
1184 812 -1.000000000000000e+00
1184 958 -1.000000000000000e+00
1184 1184 4.108465231955051e+00
1185 27 -1.000000000000000e+00
1185 323 -1.000000000000000e+00
1185 898 -1.000000000000000e+00
1185 927 -3.162277638912201e-01
1185 1185 6.498801946640015e+00
1186 128 -1.000000000000000e+00
1186 133 -1.000000000000000e+00
1186 428 -1.443375647068024e-01
1186 964 -1.000000000000000e+00
1186 1181 -2.041241377592087e-01
1186 1186 3.348461702466011e+00
1187 4 -1.000000000000000e+00
1187 10 -1.000000000000000e+00
1187 221 -1.000000000000000e+00
1187 1187 3.338061720132828e+00
1188 61 -1.150755673646927e+00
1188 71 -1.000000000000000e+00
1188 814 -1.000000000000000e+00
1188 1188 3.363956391811371e+00
1189 2 -1.000000000000000e+00
1189 132 -1.000000000000000e+00
1189 312 -1.000000000000000e+00
1189 1189 9.133630618453026e+00
1190 9 -1.000000000000000e+00
1190 16 -1.000000000000000e+00
1190 611 -1.000000000000000e+00
1190 1190 6.000000000000000e+00
1191 82 -1.000000000000000e+00
1191 953 -1.000000000000000e+00
1191 1119 -1.000000000000000e+00
1191 1191 5.000000000000000e+00
1192 168 -1.000000000000000e+00
1192 580 -1.000000000000000e+00
1192 1178 -1.150755673646927e+00
1192 1192 7.150755673646927e+00
1193 13 -1.000000000000000e+00
1193 16 -1.000000000000000e+00
1193 663 -1.714985966682434e-01
1193 951 -1.000000000000000e+00
1193 1193 5.960173785686493e+00
1194 100 -1.000000000000000e+00
1194 201 -1.000000000000000e+00
1194 316 -1.000000000000000e+00
1194 1194 7.144337564706802e+00
1195 125 -1.000000000000000e+00
1195 494 -1.000000000000000e+00
1195 1001 -1.000000000000000e+00
1195 1195 3.296499729156494e+00
1196 143 -1.000000000000000e+00
1196 144 -1.000000000000000e+00
1196 431 -1.000000000000000e+00
1196 1196 8.000000000000000e+00
1197 22 -1.000000000000000e+00
1197 412 -1.000000000000000e+00
1197 505 -1.000000000000000e+00
1197 1197 9.140028014779091e+00
1198 305 -1.000000000000000e+00
1198 526 -1.000000000000000e+00
1198 1114 -1.000000000000000e+00
1198 1198 4.136082753539085e+00
1199 185 -1.000000000000000e+00
1199 334 -1.000000000000000e+00
1199 1197 -1.000000000000000e+00
1199 1199 1.186692142486572e+01
1200 139 -1.000000000000000e+00
1200 879 -1.000000000000000e+00
1200 928 -1.000000000000000e+00
1200 1200 4.000000000000000e+00
1201 39 -1.000000000000000e+00
1201 52 -1.000000000000000e+00
1201 73 -1.000000000000000e+00
1201 787 -1.118033975362778e-01
1201 1201 1.011180339753628e+01
1202 15 -1.000000000000000e+00
1202 95 -1.000000000000000e+00
1202 157 -1.000000000000000e+00
1202 1202 5.200778812170029e+00
1203 78 -1.144337564706802e+00
1203 98 -1.000000000000000e+00
1203 483 -2.000000029802322e-01
1203 604 -1.000000000000000e+00
1203 1203 5.752851977944374e+00
1204 7 -1.000000000000000e+00
1204 44 -7.453560084104538e-02
1204 294 -1.000000000000000e+00
1204 861 -1.000000000000000e+00
1204 1204 4.074535600841045e+00
1205 210 -1.000000000000000e+00
1205 215 -1.000000000000000e+00
1205 1025 -1.000000000000000e+00
1205 1205 4.000000000000000e+00
1206 100 -1.000000000000000e+00
1206 205 -1.000000000000000e+00
1206 484 -1.000000000000000e+00
1206 596 -1.348399668931961e-01
1206 1206 4.134839966893196e+00
1207 21 -1.000000000000000e+00
1207 154 -1.000000000000000e+00
1207 300 -1.141421362757683e+00
1207 1207 4.141421362757683e+00
1208 117 -1.000000000000000e+00
1208 162 -1.000000000000000e+00
1208 952 -1.000000000000000e+00
1208 1208 6.085125647485256e+00
1209 161 -1.000000000000000e+00
1209 531 -1.036951765418053e-01
1209 808 -1.000000000000000e+00
1209 1000 -1.000000000000000e+00
1209 1209 4.103695176541805e+00
1210 85 -1.000000000000000e+00
1210 197 -1.271381407976151e+00
1210 483 -1.000000000000000e+00
1210 1210 5.501039013266563e+00
1211 35 -1.000000000000000e+00
1211 194 -1.000000000000000e+00
1211 275 -1.336306184530258e-01
1211 320 -1.000000000000000e+00
1211 1211 9.133630618453026e+00
1212 9 -1.000000000000000e+00
1212 27 -1.000000000000000e+00
1212 346 -1.000000000000000e+00
1212 1212 3.000000000000000e+00
1213 115 -1.000000000000000e+00
1213 342 -1.000000000000000e+00
1213 759 -1.000000000000000e+00
1213 1213 1.146037244796753e+01
1214 182 -1.000000000000000e+00
1214 823 -1.336306184530258e-01
1214 824 -1.000000000000000e+00
1214 988 -1.000000000000000e+00
1214 1214 3.133630618453026e+00
1215 117 -1.000000000000000e+00
1215 833 -1.000000000000000e+00
1215 1067 -1.000000000000000e+00
1215 1215 4.450648978352547e+00
1216 40 -1.000000000000000e+00
1216 946 -1.000000000000000e+00
1216 1161 -1.000000000000000e+00
1216 1216 5.373354166746140e+00
1217 902 -1.218217909336090e+00
1217 1160 -1.000000000000000e+00
1217 1199 -1.472866237163544e+00
1217 1217 5.127519965171814e+00
1218 284 -1.000000000000000e+00
1218 415 -1.000000000000000e+00
1218 710 -1.000000000000000e+00
1218 1218 9.000000000000000e+00
1219 261 -1.000000000000000e+00
1219 699 -1.000000000000000e+00
1219 832 -1.000000000000000e+00
1219 1219 4.000000000000000e+00
1220 17 -1.000000000000000e+00
1220 407 -1.000000000000000e+00
1220 538 -1.000000000000000e+00
1220 1220 8.196116134524345e+00
1221 35 -1.000000000000000e+00
1221 78 -1.000000000000000e+00
1221 317 -1.000000000000000e+00
1221 1221 8.000000000000000e+00
1222 330 -1.000000000000000e+00
1222 679 -1.000000000000000e+00
1222 1087 -1.000000000000000e+00
1222 1222 4.000000000000000e+00
1223 9 -2.041241526603699e-01
1223 82 -1.000000000000000e+00
1223 157 -1.000000000000000e+00
1223 369 -1.714985966682434e-01
1223 530 -1.000000000000000e+00
1223 759 -1.443375647068024e-01
1223 774 -1.889822483062744e-01
1223 1223 8.991334587335587e+00
1224 34 -1.000000000000000e+00
1224 77 -1.000000000000000e+00
1224 814 -1.000000000000000e+00
1224 1224 6.597708478569984e+00
1225 100 -1.000000000000000e+00
1225 497 -1.000000000000000e+00
1225 1160 -1.000000000000000e+00
1225 1225 4.353553384542465e+00
1226 8 -1.000000000000000e+00
1226 34 -1.000000000000000e+00
1226 77 -1.000000000000000e+00
1226 1226 5.668153077363968e+00
1227 76 -1.000000000000000e+00
1227 100 -1.000000000000000e+00
1227 345 -1.000000000000000e+00
1227 1227 5.000000000000000e+00
1228 275 -1.000000000000000e+00
1228 344 -1.000000000000000e+00
1228 578 -1.000000000000000e+00
1228 1228 4.333333343267441e+00
1229 104 -1.000000000000000e+00
1229 502 -1.000000000000000e+00
1229 749 -1.000000000000000e+00
1229 1229 9.124034732580185e+00
1230 17 -1.000000000000000e+00
1230 239 -1.000000000000000e+00
1230 798 -1.000000000000000e+00
1230 1154 -8.838834613561630e-02
1230 1230 8.088388346135616e+00
1231 26 -1.000000000000000e+00
1231 103 -1.000000000000000e+00
1231 1055 -1.000000000000000e+00
1231 1231 3.000000000000000e+00
1232 11 -1.000000000000000e+00
1232 22 -1.000000000000000e+00
1232 805 -1.126491114497185e+00
1232 1232 7.326491117477417e+00
1233 24 -1.000000000000000e+00
1233 298 -1.000000000000000e+00
1233 361 -1.000000000000000e+00
1233 1233 5.000000000000000e+00
1234 86 -1.000000000000000e+00
1234 535 -1.000000000000000e+00
1234 1081 -1.000000000000000e+00
1234 1234 5.091669857501984e+00
1235 5 -1.000000000000000e+00
1235 82 -1.000000000000000e+00
1235 695 -1.000000000000000e+00
1235 1177 -2.981423735618591e-01
1235 1235 5.745355963706970e+00
1236 1 -1.000000000000000e+00
1236 488 -1.000000000000000e+00
1236 976 -1.000000000000000e+00
1236 1236 4.000000000000000e+00
1237 39 -1.000000000000000e+00
1237 319 -1.000000000000000e+00
1237 350 -1.000000000000000e+00
1237 1237 6.000000000000000e+00
1238 116 -1.000000000000000e+00
1238 138 -1.000000000000000e+00
1238 878 -1.000000000000000e+00
1238 1238 4.257247895002365e+00
1239 100 -1.000000000000000e+00
1239 212 -1.000000000000000e+00
1239 736 -1.000000000000000e+00
1239 738 -2.672612369060516e-01
1239 1239 9.267261236906052e+00
1240 78 -1.000000000000000e+00
1240 136 -1.000000000000000e+00
1240 382 -1.000000000000000e+00
1240 1240 5.301511347293854e+00
1241 4 -1.000000000000000e+00
1241 111 -1.201007574796677e+00
1241 451 -1.000000000000000e+00
1241 1241 5.201007574796677e+00
1242 70 -1.000000000000000e+00
1242 209 -1.000000000000000e+00
1242 231 -1.000000000000000e+00
1242 1242 5.096225045621395e+00
1243 18 -1.000000000000000e+00
1243 62 -1.000000000000000e+00
1243 248 -1.000000000000000e+00
1243 495 -1.400280147790909e-01
1243 1243 6.280056029558182e+00
1244 82 -1.000000000000000e+00
1244 444 -1.000000000000000e+00
1244 804 -1.000000000000000e+00
1244 1244 5.363424941897392e+00
1245 375 -7.453559339046478e-02
1245 445 -1.000000000000000e+00
1245 814 -1.000000000000000e+00
1245 933 -1.000000000000000e+00
1245 1245 5.074535593390465e+00
1246 7 -1.000000000000000e+00
1246 184 -1.000000000000000e+00
1246 737 -1.000000000000000e+00
1246 1246 5.000000000000000e+00
1247 471 -1.000000000000000e+00
1247 957 -1.000000000000000e+00
1247 1000 -1.438529014587402e+00
1247 1247 4.438529014587402e+00
1248 26 -1.000000000000000e+00
1248 329 -1.000000000000000e+00
1248 1159 -1.000000000000000e+00
1248 1248 1.014433756470680e+01
1249 61 -1.000000000000000e+00
1249 121 -1.000000000000000e+00
1249 337 -1.000000000000000e+00
1249 1249 5.000000000000000e+00
1250 8 -1.000000000000000e+00
1250 163 -1.000000000000000e+00
1250 839 -1.000000000000000e+00
1250 1250 5.000000000000000e+00
1251 4 -1.000000000000000e+00
1251 13 -1.000000000000000e+00
1251 156 -1.000000000000000e+00
1251 1251 1.100000000000000e+01
1252 29 -1.000000000000000e+00
1252 335 -1.000000000000000e+00
1252 338 -1.767766922712326e-01
1252 470 -9.449112415313721e-02
1252 1016 -1.000000000000000e+00
1252 1252 4.771267816424370e+00
1253 57 -1.000000000000000e+00
1253 85 -1.000000000000000e+00
1253 243 -1.000000000000000e+00
1253 1253 4.000000000000000e+00
1254 6 -1.000000000000000e+00
1254 961 -1.000000000000000e+00
1254 970 -1.000000000000000e+00
1254 1254 7.000000000000000e+00
1255 6 -1.000000000000000e+00
1255 227 -1.000000000000000e+00
1255 681 -1.083333343267441e+00
1255 1255 5.179558388888836e+00
1256 71 -1.000000000000000e+00
1256 78 -1.000000000000000e+00
1256 200 -1.000000000000000e+00
1256 1256 9.000000000000000e+00
1257 34 -1.000000000000000e+00
1257 330 -1.000000000000000e+00
1257 1126 -1.000000000000000e+00
1257 1257 6.426992870867252e+00
1258 231 -1.074535593390465e+00
1258 357 -1.000000000000000e+00
1258 511 -1.000000000000000e+00
1258 1242 -9.622504562139511e-02
1258 1258 3.170760639011860e+00
1259 109 -1.000000000000000e+00
1259 461 -1.000000000000000e+00
1259 1027 -1.000000000000000e+00
1259 1259 3.000000000000000e+00
1260 143 -1.414213627576828e-01
1260 370 -1.000000000000000e+00
1260 1004 -1.000000000000000e+00
1260 1196 -1.000000000000000e+00
1260 1260 4.310452222824097e+00
1261 20 -1.000000000000000e+00
1261 70 -1.000000000000000e+00
1261 182 -1.000000000000000e+00
1261 210 -1.240347325801849e-01
1261 1261 8.124034732580185e+00
1262 1 -1.000000000000000e+00
1262 7 -1.000000000000000e+00
1262 1232 -1.200000002980232e+00
1262 1262 4.200000002980232e+00
1263 197 -1.000000000000000e+00
1263 239 -1.000000000000000e+00
1263 1105 -1.000000000000000e+00
1263 1263 7.000000000000000e+00
1264 20 -1.000000000000000e+00
1264 57 -1.000000000000000e+00
1264 118 -1.000000000000000e+00
1264 1264 4.000000000000000e+00
1265 651 -1.000000000000000e+00
1265 860 -1.000000000000000e+00
1265 976 -1.000000000000000e+00
1265 1265 4.000000000000000e+00
1266 38 -1.000000000000000e+00
1266 158 -1.000000000000000e+00
1266 168 -1.000000000000000e+00
1266 1266 4.000000000000000e+00
1267 13 -1.000000000000000e+00
1267 79 -1.000000000000000e+00
1267 495 -1.000000000000000e+00
1267 1059 -1.825741827487946e-01
1267 1267 7.260424077510834e+00
1268 34 -1.000000000000000e+00
1268 243 -1.000000000000000e+00
1268 777 -1.000000000000000e+00
1268 1268 3.000000000000000e+00
1269 218 -1.000000000000000e+00
1269 231 -1.000000000000000e+00
1269 452 -1.000000000000000e+00
1269 795 -4.522669911384583e-01
1269 1235 -4.472135901451111e-01
1269 1269 7.188155710697174e+00
1270 11 -1.000000000000000e+00
1270 31 -1.000000000000000e+00
1270 1059 -1.000000000000000e+00
1270 1270 4.000000000000000e+00
1271 69 -1.000000000000000e+00
1271 787 -1.000000000000000e+00
1271 1224 -1.000000000000000e+00
1271 1271 9.000000000000000e+00
1272 119 -1.000000000000000e+00
1272 315 -1.000000000000000e+00
1272 501 -2.886751592159271e-01
1272 990 -1.000000000000000e+00
1272 1272 5.288675159215927e+00
1273 7 -1.000000000000000e+00
1273 350 -1.000000000000000e+00
1273 698 -1.000000000000000e+00
1273 1273 7.000000000000000e+00
1274 23 -1.000000000000000e+00
1274 35 -1.000000000000000e+00
1274 74 -1.000000000000000e+00
1274 1274 4.250000000000000e+00
1275 20 -1.000000000000000e+00
1275 66 -1.000000000000000e+00
1275 337 -1.000000000000000e+00
1275 1275 6.000000000000000e+00
1276 491 -1.000000000000000e+00
1276 500 -1.000000000000000e+00
1276 526 -1.000000000000000e+00
1276 1276 4.000000000000000e+00
1277 15 -1.000000000000000e+00
1277 208 -1.000000000000000e+00
1277 1004 -1.000000000000000e+00
1277 1277 3.257247895002365e+00
1278 13 -1.000000000000000e+00
1278 20 -1.000000000000000e+00
1278 1174 -1.000000000000000e+00
1278 1278 4.129099443554878e+00
1279 758 -1.000000000000000e+00
1279 1100 -1.000000000000000e+00
1279 1251 -1.000000000000000e+00
1279 1279 5.000000000000000e+00
1280 85 -1.000000000000000e+00
1280 118 -1.000000000000000e+00
1280 978 -1.000000000000000e+00
1280 1280 5.344447493553162e+00
1281 6 -1.000000000000000e+00
1281 310 -1.000000000000000e+00
1281 576 -1.000000000000000e+00
1281 1281 3.000000000000000e+00
1282 6 -1.000000000000000e+00
1282 24 -1.000000000000000e+00
1282 342 -1.000000000000000e+00
1282 528 -1.956984251737595e-01
1282 1282 5.979722023010254e+00
1283 6 -1.000000000000000e+00
1283 440 -1.000000000000000e+00
1283 600 -1.000000000000000e+00
1283 1283 3.000000000000000e+00
1284 31 -1.000000000000000e+00
1284 71 -1.000000000000000e+00
1284 1131 -1.000000000000000e+00
1284 1284 3.000000000000000e+00
1285 9 -1.000000000000000e+00
1285 57 -1.000000000000000e+00
1285 404 -1.000000000000000e+00
1285 1285 4.178174152970314e+00
1286 10 -1.000000000000000e+00
1286 75 -1.000000000000000e+00
1286 695 -1.000000000000000e+00
1286 1286 7.288675129413605e+00
1287 248 -1.000000000000000e+00
1287 308 -1.000000000000000e+00
1287 364 -1.000000000000000e+00
1287 1287 5.000000000000000e+00
1288 46 -1.000000000000000e+00
1288 66 -1.333333343267441e+00
1288 104 -1.000000000000000e+00
1288 1288 5.333333343267441e+00
1289 39 -1.000000000000000e+00
1289 54 -1.000000000000000e+00
1289 82 -1.000000000000000e+00
1289 208 -4.008918404579163e-01
1289 1289 1.479950975626707e+01
1290 128 -1.000000000000000e+00
1290 207 -1.000000000000000e+00
1290 305 -1.000000000000000e+00
1290 1290 7.482880651950836e+00
1291 5 -1.000000000000000e+00
1291 255 -1.000000000000000e+00
1291 450 -1.000000000000000e+00
1291 1291 4.942808985710144e+00
1292 17 -1.000000000000000e+00
1292 121 -1.000000000000000e+00
1292 627 -1.000000000000000e+00
1292 1292 4.130930721759796e+00
1293 14 -1.000000000000000e+00
1293 277 -1.000000000000000e+00
1293 507 -1.047565151005983e+00
1293 1293 4.135270949453115e+00
1294 321 -1.000000000000000e+00
1294 483 -1.000000000000000e+00
1294 773 -1.000000000000000e+00
1294 1294 5.000000000000000e+00
1295 11 -1.223606795072556e+00
1295 64 -1.936491727828979e-01
1295 418 -1.000000000000000e+00
1295 1013 -1.000000000000000e+00
1295 1295 8.839833125472069e+00
1296 102 -1.000000000000000e+00
1296 198 -1.000000000000000e+00
1296 506 -1.000000000000000e+00
1296 1296 4.316227763891220e+00
1297 677 -1.125000000000000e+00
1297 811 -1.000000000000000e+00
1297 1058 -1.000000000000000e+00
1297 1297 5.329124137759209e+00
1298 29 -1.000000000000000e+00
1298 253 -1.000000000000000e+00
1298 270 -1.000000000000000e+00
1298 1298 5.160375088453293e+00
1299 24 -1.000000000000000e+00
1299 85 -1.000000000000000e+00
1299 445 -1.000000000000000e+00
1299 1299 9.000000000000000e+00
1300 209 -1.000000000000000e+00
1300 338 -1.000000000000000e+00
1300 1090 -1.000000000000000e+00
1300 1300 9.111111119389534e+00
1301 12 -1.000000000000000e+00
1301 563 -1.000000000000000e+00
1301 1004 -1.000000000000000e+00
1301 1301 1.000000000000000e+01
1302 26 -1.000000000000000e+00
1302 36 -1.000000000000000e+00
1302 104 -1.000000000000000e+00
1302 1302 3.000000000000000e+00
1303 203 -1.000000000000000e+00
1303 301 -1.000000000000000e+00
1303 476 -1.000000000000000e+00
1303 1303 6.099258340895176e+00
1304 5 -1.000000000000000e+00
1304 950 -1.000000000000000e+00
1304 1201 -1.000000000000000e+00
1304 1304 6.000000000000000e+00
1305 5 -1.000000000000000e+00
1305 7 -1.000000000000000e+00
1305 104 -1.000000000000000e+00
1305 1305 4.316227763891220e+00
1306 6 -1.000000000000000e+00
1306 517 -1.000000000000000e+00
1306 922 -1.000000000000000e+00
1306 1306 1.023904572427273e+01
1307 870 -1.000000000000000e+00
1307 996 -1.000000000000000e+00
1307 1011 -1.000000000000000e+00
1307 1307 6.462910071015358e+00
1308 145 -1.000000000000000e+00
1308 257 -1.000000000000000e+00
1308 423 -1.000000000000000e+00
1308 1308 3.000000000000000e+00
1309 37 -1.000000000000000e+00
1309 229 -1.000000000000000e+00
1309 557 -1.000000000000000e+00
1309 1309 8.000000000000000e+00
1310 5 -1.000000000000000e+00
1310 85 -1.000000000000000e+00
1310 675 -1.000000000000000e+00
1310 1310 3.000000000000000e+00
1311 5 -1.000000000000000e+00
1311 34 -1.000000000000000e+00
1311 371 -1.091089397668839e-01
1311 975 -1.000000000000000e+00
1311 1311 3.476992532610893e+00
1312 63 -1.000000000000000e+00
1312 210 -1.000000000000000e+00
1312 1261 -1.000000000000000e+00
1312 1312 6.000000000000000e+00
1313 713 -1.000000000000000e+00
1313 749 -1.192450091242790e+00
1313 952 -1.000000000000000e+00
1313 1313 5.192450091242790e+00
1314 567 -1.000000000000000e+00
1314 960 -1.000000000000000e+00
1314 1226 -1.000000000000000e+00
1314 1314 7.000000000000000e+00
1315 17 -1.000000000000000e+00
1315 512 -1.000000000000000e+00
1315 629 -1.000000000000000e+00
1315 1315 6.119522847235203e+00
1316 5 -1.000000000000000e+00
1316 119 -1.000000000000000e+00
1316 796 -1.000000000000000e+00
1316 1316 9.000000000000000e+00
1317 5 -1.000000000000000e+00
1317 100 -1.000000000000000e+00
1317 403 -1.000000000000000e+00
1317 1317 4.000000000000000e+00
1318 6 -1.000000000000000e+00
1318 27 -1.000000000000000e+00
1318 1123 -1.000000000000000e+00
1318 1318 6.210818499326706e+00
1319 9 -1.000000000000000e+00
1319 114 -1.000000000000000e+00
1319 190 -1.000000000000000e+00
1319 1319 5.000000000000000e+00
1320 75 -1.000000000000000e+00
1320 228 -1.000000000000000e+00
1320 597 -1.000000000000000e+00
1320 1320 7.981736063957214e+00
1321 23 -1.000000000000000e+00
1321 47 -1.000000000000000e+00
1321 229 -1.000000000000000e+00
1321 1321 6.311286419630051e+00
1322 243 -1.000000000000000e+00
1322 282 -1.000000000000000e+00
1322 1165 -1.000000000000000e+00
1322 1322 6.000000000000000e+00
1323 119 -1.000000000000000e+00
1323 540 -1.000000000000000e+00
1323 960 -1.000000000000000e+00
1323 1323 4.000000000000000e+00
1324 153 -1.000000000000000e+00
1324 440 -1.000000000000000e+00
1324 1139 -1.000000000000000e+00
1324 1324 7.144337564706802e+00
1325 14 -1.000000000000000e+00
1325 82 -1.000000000000000e+00
1325 334 -1.000000000000000e+00
1325 902 -1.740776598453522e-01
1325 1325 3.174077659845352e+00
1326 17 -1.000000000000000e+00
1326 105 -1.000000000000000e+00
1326 322 -1.000000000000000e+00
1326 1326 5.125988155603409e+00
1327 189 -1.000000000000000e+00
1327 280 -1.000000000000000e+00
1327 1068 -1.000000000000000e+00
1327 1327 6.200000002980232e+00
1328 135 -1.000000000000000e+00
1328 152 -1.125988155603409e+00
1328 254 -3.872983157634735e-01
1328 1055 -1.000000000000000e+00
1328 1328 4.513286471366882e+00
1329 8 -1.000000000000000e+00
1329 140 -1.000000000000000e+00
1329 187 -1.000000000000000e+00
1329 1329 4.000000000000000e+00
1330 302 -1.000000000000000e+00
1330 432 -1.000000000000000e+00
1330 617 -1.000000000000000e+00
1330 1330 5.223606795072556e+00
1331 146 -3.794733285903931e-01
1331 168 -1.000000000000000e+00
1331 468 -1.000000000000000e+00
1331 735 -1.000000000000000e+00
1331 1331 4.695701092481613e+00
1332 74 -1.000000000000000e+00
1332 229 -1.000000000000000e+00
1332 1055 -1.000000000000000e+00
1332 1321 -3.112864196300507e-01
1332 1332 8.560315549373627e+00
1333 14 -1.000000000000000e+00
1333 420 -1.000000000000000e+00
1333 424 -1.000000000000000e+00
1333 1333 5.293065592646599e+00
1334 365 -1.000000000000000e+00
1334 636 -1.000000000000000e+00
1334 1167 -1.000000000000000e+00
1334 1334 3.000000000000000e+00
1335 8 -1.208514407277107e+00
1335 118 -1.000000000000000e+00
1335 167 -1.000000000000000e+00
1335 1226 -2.672612369060516e-01
1335 1335 5.475775644183159e+00
1336 7 -1.000000000000000e+00
1336 940 -1.000000000000000e+00
1336 1106 -1.000000000000000e+00
1336 1336 4.353553384542465e+00
1337 7 -1.000000000000000e+00
1337 13 -1.000000000000000e+00
1337 122 -1.000000000000000e+00
1337 1337 5.174077659845352e+00
1338 9 -1.000000000000000e+00
1338 297 -1.000000000000000e+00
1338 827 -1.000000000000000e+00
1338 1338 4.000000000000000e+00
1339 451 -1.000000000000000e+00
1339 597 -1.000000000000000e+00
1339 1173 -1.000000000000000e+00
1339 1339 8.141421362757683e+00
1340 128 -1.000000000000000e+00
1340 206 -1.000000000000000e+00
1340 354 -1.414213627576828e-01
1340 974 -1.000000000000000e+00
1340 1340 6.141421362757683e+00
1341 322 -1.000000000000000e+00
1341 342 -1.000000000000000e+00
1341 489 -1.000000000000000e+00
1341 1341 8.125988155603409e+00
1342 9 -1.000000000000000e+00
1342 61 -1.000000000000000e+00
1342 70 -1.000000000000000e+00
1342 1342 5.070710681378841e+00
1343 5 -1.000000000000000e+00
1343 43 -1.000000000000000e+00
1343 461 -1.212678179144859e-01
1343 928 -1.000000000000000e+00
1343 1343 8.514374203979969e+00
1344 23 -1.000000000000000e+00
1344 71 -1.000000000000000e+00
1344 1123 -1.000000000000000e+00
1344 1344 5.166666679084301e+00
1345 531 -1.000000000000000e+00
1345 1170 -1.000000000000000e+00
1345 1303 -1.000000000000000e+00
1345 1345 1.007715167850256e+01
1346 198 -1.000000000000000e+00
1346 435 -1.000000000000000e+00
1346 561 -1.000000000000000e+00
1346 591 -1.000000000000000e+00
1346 1346 8.000000000000000e+00
1347 54 -1.138675048947334e+00
1347 297 -1.000000000000000e+00
1347 442 -1.000000000000000e+00
1347 1347 4.388675078749657e+00
1348 131 -1.000000000000000e+00
1348 634 -1.000000000000000e+00
1348 1101 -1.000000000000000e+00
1348 1348 6.000000000000000e+00
1349 169 -1.000000000000000e+00
1349 194 -1.000000000000000e+00
1349 1087 -1.000000000000000e+00
1349 1349 3.000000000000000e+00
1350 4 -1.000000000000000e+00
1350 15 -1.000000000000000e+00
1350 1137 -1.000000000000000e+00
1350 1350 3.000000000000000e+00
1351 264 -1.000000000000000e+00
1351 989 -1.000000000000000e+00
1351 1345 -1.000000000000000e+00
1351 1351 5.133630618453026e+00
1352 75 -1.000000000000000e+00
1352 274 -1.000000000000000e+00
1352 533 -1.250000000000000e-01
1352 1128 -1.000000000000000e+00
1352 1352 4.125000000000000e+00
1353 5 -1.000000000000000e+00
1353 233 -1.000000000000000e+00
1353 550 -1.000000000000000e+00
1353 1353 7.084515422582626e+00
1354 4 -1.000000000000000e+00
1354 170 -9.128709137439728e-02
1354 864 -1.000000000000000e+00
1354 1131 -1.000000000000000e+00
1354 1354 4.314893886446953e+00
1355 9 -1.000000000000000e+00
1355 118 -1.000000000000000e+00
1355 223 -1.000000000000000e+00
1355 1355 4.109108954668045e+00
1356 8 -1.000000000000000e+00
1356 1113 -1.000000000000000e+00
1356 1256 -1.000000000000000e+00
1356 1356 3.000000000000000e+00
1357 19 -1.000000000000000e+00
1357 33 -1.000000000000000e+00
1357 102 -1.000000000000000e+00
1357 1357 5.204124152660370e+00
1358 273 -1.000000000000000e+00
1358 488 -1.000000000000000e+00
1358 885 -1.000000000000000e+00
1358 1358 4.158113881945610e+00
1359 179 -1.000000000000000e+00
1359 350 -1.000000000000000e+00
1359 1108 -1.000000000000000e+00
1359 1359 3.000000000000000e+00
1360 129 -1.000000000000000e+00
1360 1160 -1.000000000000000e+00
1360 1239 -1.000000000000000e+00
1360 1360 3.000000000000000e+00
1361 87 -1.000000000000000e+00
1361 157 -1.000000000000000e+00
1361 456 -1.000000000000000e+00
1361 1361 5.411106795072556e+00
1362 9 -1.000000000000000e+00
1362 92 -1.000000000000000e+00
1362 1290 -1.000000000000000e+00
1362 1362 6.000000000000000e+00
1363 5 -1.000000000000000e+00
1363 8 -1.000000000000000e+00
1363 39 -1.000000000000000e+00
1363 1047 -2.817180752754211e-01
1363 1363 5.565746724605560e+00
1364 480 -1.000000000000000e+00
1364 787 -1.000000000000000e+00
1364 1265 -1.000000000000000e+00
1364 1364 6.785010278224945e+00
1365 5 -1.000000000000000e+00
1365 593 -1.000000000000000e+00
1365 936 -1.740776598453522e-01
1365 1125 -1.000000000000000e+00
1365 1365 5.324833333492279e+00
1366 2 -1.000000000000000e+00
1366 168 -1.000000000000000e+00
1366 526 -1.000000000000000e+00
1366 1366 4.074535593390465e+00
1367 239 -1.000000000000000e+00
1367 586 -1.000000000000000e+00
1367 936 -1.000000000000000e+00
1367 1367 4.593918204307556e+00
1368 69 -1.000000000000000e+00
1368 82 -1.000000000000000e+00
1368 89 -1.082478612661362e+00
1368 536 -4.879500344395638e-02
1368 1368 3.131273616105318e+00
1369 34 -1.000000000000000e+00
1369 135 -1.000000000000000e+00
1369 259 -1.000000000000000e+00
1369 1369 3.000000000000000e+00
1370 98 -1.000000000000000e+00
1370 409 -1.000000000000000e+00
1370 1221 -1.000000000000000e+00
1370 1370 5.205414123833179e+00
1371 526 -1.000000000000000e+00
1371 540 -1.000000000000000e+00
1371 809 -1.000000000000000e+00
1371 1366 -7.453559339046478e-02
1371 1371 5.248613238334656e+00
1372 170 -1.000000000000000e+00
1372 210 -1.000000000000000e+00
1372 1029 -1.000000000000000e+00
1372 1372 5.258198887109756e+00
1373 243 -1.000000000000000e+00
1373 767 -1.000000000000000e+00
1373 1049 -1.000000000000000e+00
1373 1373 3.372677981853485e+00
1374 378 -1.000000000000000e+00
1374 548 -1.000000000000000e+00
1374 1148 -1.149071186780930e+00
1374 1374 3.149071186780930e+00
1375 6 -1.000000000000000e+00
1375 520 -1.000000000000000e+00
1375 961 -1.000000000000000e+00
1375 1375 8.179944843053818e+00
1376 280 -1.000000000000000e+00
1376 984 -1.000000000000000e+00
1376 1313 -1.000000000000000e+00
1376 1376 3.000000000000000e+00
1377 391 -1.000000000000000e+00
1377 540 -1.000000000000000e+00
1377 1375 -1.000000000000000e+00
1377 1377 4.000000000000000e+00
1378 174 -1.000000000000000e+00
1378 274 -1.000000000000000e+00
1378 1064 -1.136082768440247e+00
1378 1378 3.304441541433334e+00
1379 5 -1.000000000000000e+00
1379 67 -1.000000000000000e+00
1379 78 -2.041241526603699e-01
1379 874 -1.000000000000000e+00
1379 1379 5.204124152660370e+00
1380 9 -1.000000000000000e+00
1380 57 -1.000000000000000e+00
1380 163 -1.000000000000000e+00
1380 1311 -3.678835928440094e-01
1380 1380 5.692326426506042e+00
1381 121 -1.000000000000000e+00
1381 547 -1.000000000000000e+00
1381 639 -1.000000000000000e+00
1381 1381 7.136082753539085e+00
1382 192 -1.000000000000000e+00
1382 439 -1.000000000000000e+00
1382 680 -1.000000000000000e+00
1382 1382 3.000000000000000e+00
1383 156 -1.000000000000000e+00
1383 662 -1.000000000000000e+00
1383 731 -1.000000000000000e+00
1383 1383 3.000000000000000e+00
1384 97 -1.000000000000000e+00
1384 293 -7.001400738954544e-02
1384 972 -1.000000000000000e+00
1384 1064 -1.000000000000000e+00
1384 1384 6.070014007389545e+00
1385 256 -1.000000000000000e+00
1385 484 -1.000000000000000e+00
1385 649 -1.144337564706802e+00
1385 1385 8.509485930204391e+00
1386 8 -1.000000000000000e+00
1386 9 -1.000000000000000e+00
1386 983 -1.000000000000000e+00
1386 1386 3.154303357005119e+00
1387 2 -1.000000000000000e+00
1387 305 -1.000000000000000e+00
1387 955 -1.264906466007233e+00
1387 1387 7.470102131366730e+00
1388 78 -1.000000000000000e+00
1388 634 -1.000000000000000e+00
1388 847 -1.000000000000000e+00
1388 1388 4.129099443554878e+00
1389 5 -1.000000000000000e+00
1389 107 -1.000000000000000e+00
1389 176 -1.000000000000000e+00
1389 1389 4.000000000000000e+00
1390 24 -1.000000000000000e+00
1390 36 -1.000000000000000e+00
1390 104 -1.000000000000000e+00
1390 601 -1.290994435548782e-01
1390 1390 3.428559355437756e+00
1391 5 -1.000000000000000e+00
1391 24 -1.000000000000000e+00
1391 37 -1.000000000000000e+00
1391 1390 -2.357022464275360e-01
1391 1391 3.235702246427536e+00
1392 142 -1.000000000000000e+00
1392 522 -1.000000000000000e+00
1392 909 -1.000000000000000e+00
1392 1392 8.071066901087761e+00
1393 447 -1.000000000000000e+00
1393 488 -1.000000000000000e+00
1393 887 -1.000000000000000e+00
1393 1393 3.000000000000000e+00
1394 63 -1.000000000000000e+00
1394 166 -1.000000000000000e+00
1394 333 -1.000000000000000e+00
1394 1394 3.000000000000000e+00
1395 128 -1.000000000000000e+00
1395 306 -1.000000000000000e+00
1395 390 -1.000000000000000e+00
1395 1395 4.000000000000000e+00
1396 5 -1.000000000000000e+00
1396 98 -1.000000000000000e+00
1396 850 -1.000000000000000e+00
1396 1396 3.000000000000000e+00
1397 54 -1.000000000000000e+00
1397 279 -1.000000000000000e+00
1397 657 -1.000000000000000e+00
1397 1397 9.000000000000000e+00
1398 282 -1.000000000000000e+00
1398 376 -1.322329193353653e+00
1398 884 -1.000000000000000e+00
1398 1398 4.322329193353653e+00
1399 50 -1.000000000000000e+00
1399 1167 -1.000000000000000e+00
1399 1196 -1.000000000000000e+00
1399 1399 6.613545358181000e+00
1400 48 -1.000000000000000e+00
1400 479 -1.000000000000000e+00
1400 613 -1.000000000000000e+00
1400 1400 7.280056029558182e+00
1401 382 -1.000000000000000e+00
1401 482 -1.000000000000000e+00
1401 841 -1.000000000000000e+00
1401 1401 3.000000000000000e+00
1402 82 -1.000000000000000e+00
1402 351 -1.000000000000000e+00
1402 398 -1.000000000000000e+00
1402 1402 5.111111119389534e+00
1403 7 -1.000000000000000e+00
1403 8 -1.000000000000000e+00
1403 292 -1.000000000000000e+00
1403 1403 1.200000000000000e+01
1404 109 -1.000000000000000e+00
1404 315 -1.000000000000000e+00
1404 872 -1.000000000000000e+00
1404 1404 4.000000000000000e+00
1405 35 -1.000000000000000e+00
1405 118 -1.000000000000000e+00
1405 1358 -1.000000000000000e+00
1405 1405 6.412709996104240e+00
1406 107 -1.000000000000000e+00
1406 135 -1.000000000000000e+00
1406 653 -1.000000000000000e+00
1406 1406 3.000000000000000e+00
1407 7 -1.000000000000000e+00
1407 648 -1.000000000000000e+00
1407 845 -1.000000000000000e+00
1407 1407 5.341144114732742e+00
1408 237 -1.000000000000000e+00
1408 920 -1.000000000000000e+00
1408 1223 -1.000000000000000e+00
1408 1408 4.000000000000000e+00
1409 4 -1.000000000000000e+00
1409 39 -1.000000000000000e+00
1409 576 -1.000000000000000e+00
1409 1409 3.000000000000000e+00
1410 6 -1.000000000000000e+00
1410 87 -1.000000000000000e+00
1410 348 -1.000000000000000e+00
1410 1410 4.000000000000000e+00
1411 6 -1.000000000000000e+00
1411 66 -1.000000000000000e+00
1411 704 -1.000000000000000e+00
1411 1411 3.000000000000000e+00
1412 16 -1.000000000000000e+00
1412 1057 -1.000000000000000e+00
1412 1200 -1.000000000000000e+00
1412 1412 6.250000029802322e+00
1413 93 -1.000000000000000e+00
1413 1134 -1.000000000000000e+00
1413 1149 -1.155962571501732e+00
1413 1171 -1.162476390600204e-01
1413 1413 3.272210210561752e+00
1414 15 -1.000000000000000e+00
1414 602 -1.000000000000000e+00
1414 630 -1.000000000000000e+00
1414 1414 9.349224984645844e+00
1415 280 -1.000000000000000e+00
1415 749 -1.000000000000000e+00
1415 1028 -1.000000000000000e+00
1415 1415 8.155502110719681e+00
1416 66 -1.000000000000000e+00
1416 488 -1.000000000000000e+00
1416 619 -1.000000000000000e+00
1416 1416 5.192450091242790e+00
1417 2 -1.000000000000000e+00
1417 118 -1.000000000000000e+00
1417 436 -1.000000000000000e+00
1417 1417 6.000000000000000e+00
1418 12 -1.000000000000000e+00
1418 58 -1.000000000000000e+00
1418 710 -1.000000000000000e+00
1418 1418 8.329124137759209e+00
1419 206 -1.000000000000000e+00
1419 289 -1.000000000000000e+00
1419 781 -1.169841557741165e+00
1419 1419 3.283069267868996e+00
1420 6 -1.000000000000000e+00
1420 246 -1.000000000000000e+00
1420 468 -1.000000000000000e+00
1420 1420 3.223606795072556e+00
1421 208 -1.000000000000000e+00
1421 253 -1.000000000000000e+00
1421 926 -1.000000000000000e+00
1421 1421 4.000000000000000e+00
1422 88 -1.000000000000000e+00
1422 243 -1.000000000000000e+00
1422 1181 -1.000000000000000e+00
1422 1422 5.437478244304657e+00
1423 432 -1.000000000000000e+00
1423 454 -1.000000000000000e+00
1423 1189 -1.000000000000000e+00
1423 1423 5.323995545506477e+00
1424 15 -1.000000000000000e+00
1424 280 -1.000000000000000e+00
1424 650 -1.000000000000000e+00
1424 1424 1.011322769522667e+01
1425 407 -1.000000000000000e+00
1425 522 -1.000000000000000e+00
1425 1121 -1.000000000000000e+00
1425 1425 1.311547004431486e+01
1426 279 -3.779644966125488e-01
1426 311 -1.000000000000000e+00
1426 496 -1.000000000000000e+00
1426 772 -1.000000000000000e+00
1426 1426 7.377964496612549e+00
1427 139 -1.000000000000000e+00
1427 265 -1.000000000000000e+00
1427 652 -1.000000000000000e+00
1427 1427 8.000000000000000e+00
1428 4 -1.000000000000000e+00
1428 1076 -1.000000000000000e+00
1428 1344 -1.055555559694767e+00
1428 1428 4.055555559694767e+00
1429 7 -1.000000000000000e+00
1429 152 -1.000000000000000e+00
1429 374 -1.000000000000000e+00
1429 1407 -3.411441147327423e-01
1429 1429 4.619687139987946e+00
1430 71 -1.000000000000000e+00
1430 398 -1.000000000000000e+00
1430 1171 -1.000000000000000e+00
1430 1430 7.413789018988609e+00
1431 5 -1.000000000000000e+00
1431 268 -1.000000000000000e+00
1431 1315 -1.000000000000000e+00
1431 1431 3.000000000000000e+00
1432 27 -1.000000000000000e+00
1432 65 -1.000000000000000e+00
1432 306 -1.000000000000000e+00
1432 1432 7.182475492358208e+00
1433 227 -1.000000000000000e+00
1433 800 -1.000000000000000e+00
1433 1058 -1.000000000000000e+00
1433 1433 8.138675048947334e+00
1434 8 -1.000000000000000e+00
1434 613 -1.000000000000000e+00
1434 628 -1.000000000000000e+00
1434 1434 5.000000000000000e+00
1435 727 -1.000000000000000e+00
1435 1289 -1.000000000000000e+00
1435 1339 -1.000000000000000e+00
1435 1435 6.000000000000000e+00
1436 252 -1.000000000000000e+00
1436 508 -1.000000000000000e+00
1436 931 -1.000000000000000e+00
1436 1436 4.219970673322678e+00
1437 235 -1.490712016820908e-01
1437 578 -1.000000000000000e+00
1437 1012 -1.000000000000000e+00
1437 1045 -1.000000000000000e+00
1437 1228 -3.333333432674408e-01
1437 1437 4.482404544949532e+00
1438 39 -1.000000000000000e+00
1438 125 -1.000000000000000e+00
1438 317 -1.000000000000000e+00
1438 403 -5.423261597752571e-02
1438 1438 7.218216646462679e+00
1439 722 -1.000000000000000e+00
1439 1204 -1.000000000000000e+00
1439 1273 -1.000000000000000e+00
1439 1439 6.288675129413605e+00
1440 79 -1.000000000000000e+00
1440 256 -1.000000000000000e+00
1440 621 -1.000000000000000e+00
1440 1440 4.254044301807880e+00
1441 13 -1.000000000000000e+00
1441 141 -1.000000000000000e+00
1441 416 -1.000000000000000e+00
1441 1441 4.000000000000000e+00
1442 129 -1.000000000000000e+00
1442 327 -1.000000000000000e+00
1442 942 -1.000000000000000e+00
1442 1442 4.269679963588715e+00
1443 132 -1.000000000000000e+00
1443 170 -1.000000000000000e+00
1443 201 -1.000000000000000e+00
1443 1443 3.000000000000000e+00
1444 84 -1.000000000000000e+00
1444 1300 -1.000000000000000e+00
1444 1430 -1.000000000000000e+00
1444 1444 3.000000000000000e+00
1445 256 -1.000000000000000e+00
1445 321 -1.000000000000000e+00
1445 1304 -1.000000000000000e+00
1445 1445 3.000000000000000e+00
1446 98 -1.000000000000000e+00
1446 219 -1.000000000000000e+00
1446 1010 -1.062994077801704e+00
1446 1446 3.062994077801704e+00
1447 406 -1.000000000000000e+00
1447 749 -1.152943819761276e+00
1447 961 -1.000000000000000e+00
1447 1447 3.152943819761276e+00
1448 15 -1.000000000000000e+00
1448 313 -1.000000000000000e+00
1448 798 -1.000000000000000e+00
1448 1326 -1.259881556034088e-01
1448 1448 4.125988155603409e+00
1449 6 -1.000000000000000e+00
1449 14 -1.000000000000000e+00
1449 582 -1.000000000000000e+00
1449 752 -2.500000298023224e-01
1449 1449 5.250000029802322e+00
1450 120 -1.000000000000000e+00
1450 348 -1.000000000000000e+00
1450 450 -1.000000000000000e+00
1450 1046 -1.581138819456100e-01
1450 1450 6.393816158175468e+00
1451 31 -1.000000000000000e+00
1451 217 -1.000000000000000e+00
1451 1192 -1.000000000000000e+00
1451 1451 6.000000000000000e+00
1452 46 -1.000000000000000e+00
1452 249 -1.000000000000000e+00
1452 407 -1.000000000000000e+00
1452 704 -1.547131836414337e-01
1452 1452 4.154713183641434e+00
1453 186 -1.000000000000000e+00
1453 241 -1.000000000000000e+00
1453 1063 -1.000000000000000e+00
1453 1453 3.000000000000000e+00
1454 5 -1.000000000000000e+00
1454 9 -1.000000000000000e+00
1454 894 -1.000000000000000e+00
1454 1454 6.000000000000000e+00
1455 37 -1.000000000000000e+00
1455 681 -1.000000000000000e+00
1455 1189 -1.133630618453026e+00
1455 1455 7.133630618453026e+00
1456 139 -1.000000000000000e+00
1456 1149 -1.000000000000000e+00
1456 1171 -1.714985966682434e-01
1456 1430 -1.250489711761475e+00
1456 1456 5.421988308429718e+00
1457 408 -1.000000000000000e+00
1457 412 -1.000000000000000e+00
1457 1135 -1.000000000000000e+00
1457 1457 4.081649653613567e+00
1458 8 -1.000000000000000e+00
1458 277 -1.000000000000000e+00
1458 279 -1.000000000000000e+00
1458 1458 4.057735022157431e+00
1459 451 -1.000000000000000e+00
1459 942 -1.000000000000000e+00
1459 1041 -1.000000000000000e+00
1459 1459 3.000000000000000e+00
1460 497 -1.000000000000000e+00
1460 1049 -1.000000000000000e+00
1460 1329 -1.000000000000000e+00
1460 1460 6.083333335816860e+00
1461 6 -1.000000000000000e+00
1461 48 -1.000000000000000e+00
1461 548 -2.845904529094696e-01
1461 1295 -1.000000000000000e+00
1461 1461 1.258610180020332e+01
1462 259 -1.000000000000000e+00
1462 396 -1.000000000000000e+00
1462 494 -1.000000000000000e+00
1462 1462 5.000000000000000e+00
1463 109 -1.000000000000000e+00
1463 1084 -1.000000000000000e+00
1463 1100 -1.000000000000000e+00
1463 1463 5.000000000000000e+00
1464 138 -1.000000000000000e+00
1464 414 -1.000000000000000e+00
1464 652 -1.000000000000000e+00
1464 1464 8.121267817914486e+00
1465 79 -1.000000000000000e+00
1465 282 -1.000000000000000e+00
1465 1301 -1.000000000000000e+00
1465 1465 5.071066908538342e+00
1466 5 -1.000000000000000e+00
1466 340 -1.825741827487946e-01
1466 831 -1.000000000000000e+00
1466 926 -1.000000000000000e+00
1466 1466 5.182574182748795e+00
1467 505 -1.000000000000000e+00
1467 591 -1.000000000000000e+00
1467 769 -1.116444505751133e+00
1467 1467 4.327263019979000e+00
1468 5 -1.000000000000000e+00
1468 166 -1.000000000000000e+00
1468 199 -1.443375647068024e-01
1468 370 -1.000000000000000e+00
1468 1468 4.144337564706802e+00
1469 391 -1.000000000000000e+00
1469 824 -1.000000000000000e+00
1469 1213 -1.000000000000000e+00
1469 1469 3.000000000000000e+00
1470 37 -1.889822334051132e-01
1470 233 -1.000000000000000e+00
1470 247 -1.000000000000000e+00
1470 576 -1.336306184530258e-01
1470 739 -1.000000000000000e+00
1470 1470 4.590406142175198e+00
1471 197 -1.000000000000000e+00
1471 302 -1.000000000000000e+00
1471 335 -1.000000000000000e+00
1471 1471 4.171498596668243e+00
1472 15 -1.000000000000000e+00
1472 1115 -1.000000000000000e+00
1472 1326 -1.000000000000000e+00
1472 1472 8.000000000000000e+00
1473 17 -1.000000000000000e+00
1473 36 -1.000000000000000e+00
1473 66 -1.000000000000000e+00
1473 1473 4.000000000000000e+00
1474 162 -1.000000000000000e+00
1474 313 -1.000000000000000e+00
1474 853 -1.000000000000000e+00
1474 1474 7.000000000000000e+00
1475 6 -1.000000000000000e+00
1475 1105 -1.000000000000000e+00
1475 1387 -1.000000000000000e+00
1475 1475 5.000000000000000e+00
1476 26 -1.000000000000000e+00
1476 256 -1.000000000000000e+00
1476 1435 -1.000000000000000e+00
1476 1476 7.407693773508072e+00
1477 27 -1.000000000000000e+00
1477 119 -1.000000000000000e+00
1477 263 -1.000000000000000e+00
1477 1477 9.240192234516144e+00
1478 7 -1.000000000000000e+00
1478 8 -1.000000000000000e+00
1478 55 -2.828427255153656e-01
1478 244 -1.000000000000000e+00
1478 1478 4.549509406089783e+00
1479 35 -1.000000000000000e+00
1479 330 -1.000000000000000e+00
1479 547 -1.000000000000000e+00
1479 1479 3.000000000000000e+00
1480 282 -1.000000000000000e+00
1480 749 -1.987616121768951e-01
1480 1009 -1.000000000000000e+00
1480 1271 -1.000000000000000e+00
1480 1480 5.284827910363674e+00
1481 27 -1.000000000000000e+00
1481 156 -1.000000000000000e+00
1481 1087 -1.000000000000000e+00
1481 1481 4.105409257113934e+00
1482 8 -1.000000000000000e+00
1482 282 -1.000000000000000e+00
1482 664 -1.000000000000000e+00
1482 1482 6.000000000000000e+00
1483 330 -1.000000000000000e+00
1483 488 -1.000000000000000e+00
1483 827 -5.234239250421524e-02
1483 1027 -8.276059478521347e-02
1483 1338 -1.000000000000000e+00
1483 1483 3.135102987289429e+00
1484 42 -1.000000000000000e+00
1484 82 -1.000000000000000e+00
1484 1299 -1.000000000000000e+00
1484 1484 5.160128146409988e+00
1485 78 -1.000000000000000e+00
1485 250 -1.000000000000000e+00
1485 450 -1.000000000000000e+00
1485 1485 3.545544713735580e+00
1486 5 -1.000000000000000e+00
1486 78 -1.000000000000000e+00
1486 1059 -1.000000000000000e+00
1486 1267 -7.784989476203918e-02
1486 1486 6.077849894762039e+00
1487 139 -1.000000000000000e+00
1487 267 -1.000000000000000e+00
1487 448 -1.000000000000000e+00
1487 1487 3.000000000000000e+00
1488 56 -1.000000000000000e+00
1488 568 -1.000000000000000e+00
1488 618 -1.000000000000000e+00
1488 1488 6.173421978950500e+00
1489 738 -1.000000000000000e+00
1489 754 -1.000000000000000e+00
1489 1405 -1.000000000000000e+00
1489 1489 3.214285716414452e+00
1490 23 -1.000000000000000e+00
1490 58 -1.000000000000000e+00
1490 1298 -1.160375088453293e+00
1490 1490 5.160375088453293e+00
1491 4 -1.000000000000000e+00
1491 26 -1.000000000000000e+00
1491 476 -1.000000000000000e+00
1491 1491 3.000000000000000e+00
1492 53 -1.000000000000000e+00
1492 114 -1.000000000000000e+00
1492 116 -1.000000000000000e+00
1492 1492 5.136082768440247e+00
1493 2 -1.000000000000000e+00
1493 234 -2.797514498233795e-01
1493 616 -1.000000000000000e+00
1493 755 -1.000000000000000e+00
1493 1493 6.189617529511452e+00
1494 10 -1.000000000000000e+00
1494 547 -1.000000000000000e+00
1494 1126 -1.395145356655121e+00
1494 1257 -3.074700236320496e-01
1494 1494 5.702615380287170e+00
1495 57 -1.000000000000000e+00
1495 599 -1.000000000000000e+00
1495 1174 -1.000000000000000e+00
1495 1495 3.190745458006859e+00
1496 23 -1.000000000000000e+00
1496 111 -1.000000000000000e+00
1496 1425 -1.000000000000000e+00
1496 1496 8.442237332463264e+00
1497 11 -1.000000000000000e+00
1497 1025 -1.235702246427536e+00
1497 1400 -1.280056029558182e+00
1497 1497 3.773957163095474e+00
1498 117 -1.000000000000000e+00
1498 153 -1.000000000000000e+00
1498 775 -1.000000000000000e+00
1498 1498 5.721946924924850e+00
1499 47 -1.000000000000000e+00
1499 118 -1.000000000000000e+00
1499 190 -1.000000000000000e+00
1499 1499 7.406200200319290e+00
1500 303 -1.581138819456100e-01
1500 574 -1.000000000000000e+00
1500 758 -1.000000000000000e+00
1500 891 -1.000000000000000e+00
1500 1500 8.158113881945610e+00
1501 135 -1.000000000000000e+00
1501 221 -1.924500912427902e-01
1501 710 -1.000000000000000e+00
1501 819 -1.000000000000000e+00
1501 1501 6.192450091242790e+00
1502 46 -1.000000000000000e+00
1502 95 -1.000000000000000e+00
1502 1416 -1.000000000000000e+00
1502 1502 1.132410186529160e+01
1503 63 -1.000000000000000e+00
1503 672 -1.000000000000000e+00
1503 876 -1.000000000000000e+00
1503 1503 3.000000000000000e+00
1504 9 -1.000000000000000e+00
1504 34 -1.000000000000000e+00
1504 73 -1.000000000000000e+00
1504 1504 6.064549721777439e+00
1505 200 -1.000000000000000e+00
1505 786 -1.000000000000000e+00
1505 1146 -1.114332392811775e+00
1505 1505 7.213347151875496e+00
1506 7 -1.000000000000000e+00
1506 146 -1.000000000000000e+00
1506 1108 -1.000000000000000e+00
1506 1506 6.377964496612549e+00
1507 59 -1.000000000000000e+00
1507 233 -1.000000000000000e+00
1507 522 -1.000000000000000e+00
1507 1507 3.000000000000000e+00
1508 203 -1.000000000000000e+00
1508 982 -1.000000000000000e+00
1508 1463 -1.000000000000000e+00
1508 1508 3.097590006887913e+00
1509 5 -1.000000000000000e+00
1509 45 -1.000000000000000e+00
1509 823 -1.000000000000000e+00
1509 1509 5.125988155603409e+00
1510 270 -1.000000000000000e+00
1510 498 -1.000000000000000e+00
1510 765 -1.000000000000000e+00
1510 1510 3.000000000000000e+00
1511 78 -1.000000000000000e+00
1511 200 -1.000000000000000e+00
1511 1289 -1.000000000000000e+00
1511 1511 8.262188687920570e+00
1512 247 -1.000000000000000e+00
1512 503 -1.000000000000000e+00
1512 920 -1.000000000000000e+00
1512 1512 3.000000000000000e+00
1513 610 -1.000000000000000e+00
1513 613 -1.000000000000000e+00
1513 777 -1.000000000000000e+00
1513 1513 4.077151678502560e+00
1514 732 -1.000000000000000e+00
1514 842 -1.000000000000000e+00
1514 908 -1.000000000000000e+00
1514 1514 4.000000000000000e+00
1515 715 -1.208514407277107e+00
1515 806 -1.000000000000000e+00
1515 1018 -1.000000000000000e+00
1515 1515 7.208514407277107e+00
1516 31 -1.000000000000000e+00
1516 325 -1.000000000000000e+00
1516 1288 -1.000000000000000e+00
1516 1516 3.000000000000000e+00
1517 5 -1.000000000000000e+00
1517 14 -1.000000000000000e+00
1517 150 -1.000000000000000e+00
1517 1367 -2.747211158275604e-01
1517 1517 6.377249300479889e+00
1518 5 -1.000000000000000e+00
1518 157 -1.000000000000000e+00
1518 1370 -1.000000000000000e+00
1518 1517 -3.779644966125488e-01
1518 1518 7.566946744918823e+00
1519 733 -1.000000000000000e+00
1519 818 -1.000000000000000e+00
1519 1450 -1.000000000000000e+00
1519 1519 6.125000014901161e+00
1520 137 -1.150755673646927e+00
1520 151 -1.000000000000000e+00
1520 415 -1.000000000000000e+00
1520 549 -9.805806726217270e-02
1520 1520 6.248813740909100e+00
1521 33 -1.000000000000000e+00
1521 550 -1.000000000000000e+00
1521 939 -1.000000000000000e+00
1521 1521 6.000000000000000e+00
1522 82 -1.000000000000000e+00
1522 85 -1.000000000000000e+00
1522 1058 -1.000000000000000e+00
1522 1522 5.213504210114479e+00
1523 29 -1.000000000000000e+00
1523 224 -1.000000000000000e+00
1523 867 -1.000000000000000e+00
1523 1523 4.000000000000000e+00
1524 8 -1.000000000000000e+00
1524 486 -1.000000000000000e+00
1524 764 -1.000000000000000e+00
1524 1524 6.313559904694557e+00
1525 8 -1.000000000000000e+00
1525 16 -1.000000000000000e+00
1525 859 -1.000000000000000e+00
1525 1525 4.000000000000000e+00
1526 575 -1.000000000000000e+00
1526 750 -1.000000000000000e+00
1526 878 -1.000000000000000e+00
1526 1526 8.000000000000000e+00
1527 256 -1.169030860066414e+00
1527 436 -1.000000000000000e+00
1527 1340 -1.000000000000000e+00
1527 1527 5.169030860066414e+00
1528 8 -1.000000000000000e+00
1528 239 -1.000000000000000e+00
1528 814 -1.000000000000000e+00
1528 1528 1.012126781791449e+01
1529 1105 -1.000000000000000e+00
1529 1175 -1.000000000000000e+00
1529 1176 -1.000000000000000e+00
1529 1529 3.000000000000000e+00
1530 16 -1.000000000000000e+00
1530 1050 -1.000000000000000e+00
1530 1307 -1.000000000000000e+00
1530 1530 6.000000000000000e+00
1531 17 -1.000000000000000e+00
1531 548 -1.067419990897179e+00
1531 1461 -1.301511347293854e+00
1531 1531 4.507606387138367e+00
1532 40 -1.000000000000000e+00
1532 883 -1.000000000000000e+00
1532 1022 -1.000000000000000e+00
1532 1532 3.000000000000000e+00
1533 9 -1.000000000000000e+00
1533 52 -1.000000000000000e+00
1533 57 -2.041241526603699e-01
1533 153 -1.000000000000000e+00
1533 1533 5.204124152660370e+00
1534 4 -1.000000000000000e+00
1534 530 -1.000000000000000e+00
1534 621 -1.000000000000000e+00
1534 1534 4.102062076330185e+00
1535 3 -1.000000000000000e+00
1535 6 -1.000000000000000e+00
1535 571 -1.000000000000000e+00
1535 1535 3.348155319690704e+00
1536 114 -1.000000000000000e+00
1536 488 -1.000000000000000e+00
1536 1064 -1.000000000000000e+00
1536 1536 6.113227710127831e+00
1537 101 -1.000000000000000e+00
1537 122 -1.000000000000000e+00
1537 839 -1.000000000000000e+00
1537 1537 3.000000000000000e+00
1538 128 -1.000000000000000e+00
1538 364 -1.000000000000000e+00
1538 547 -1.000000000000000e+00
1538 1538 4.000000000000000e+00
1539 1248 -1.000000000000000e+00
1539 1339 -1.000000000000000e+00
1539 1424 -1.000000000000000e+00
1539 1539 4.000000000000000e+00
1540 102 -1.000000000000000e+00
1540 814 -1.000000000000000e+00
1540 926 -1.000000000000000e+00
1540 1289 -2.773500978946686e-01
1540 1540 4.416025146842003e+00
1541 939 -1.000000000000000e+00
1541 984 -1.000000000000000e+00
1541 1342 -1.000000000000000e+00
1541 1541 6.186771854758263e+00
1542 55 -1.000000000000000e+00
1542 518 -1.000000000000000e+00
1542 1105 -1.000000000000000e+00
1542 1542 4.000000000000000e+00
1543 5 -1.000000000000000e+00
1543 616 -1.000000000000000e+00
1543 627 -1.000000000000000e+00
1543 1543 3.000000000000000e+00
1544 23 -1.000000000000000e+00
1544 63 -1.000000000000000e+00
1544 580 -1.000000000000000e+00
1544 1544 3.000000000000000e+00
1545 34 -1.000000000000000e+00
1545 312 -1.000000000000000e+00
1545 1381 -1.000000000000000e+00
1545 1545 4.000000000000000e+00
1546 10 -1.000000000000000e+00
1546 219 -1.000000000000000e+00
1546 875 -5.832118913531303e-02
1546 1028 -1.000000000000000e+00
1546 1546 9.184309344738722e+00
1547 136 -1.000000000000000e+00
1547 407 -1.000000000000000e+00
1547 652 -1.000000000000000e+00
1547 1547 3.333333343267441e+00
1548 57 -1.000000000000000e+00
1548 117 -1.000000000000000e+00
1548 134 -1.000000000000000e+00
1548 1548 3.000000000000000e+00
1549 135 -1.000000000000000e+00
1549 157 -1.000000000000000e+00
1549 233 -1.000000000000000e+00
1549 1549 6.136082753539085e+00
1550 8 -1.000000000000000e+00
1550 23 -1.000000000000000e+00
1550 1199 -1.000000000000000e+00
1550 1550 8.144337564706802e+00
1551 5 -1.000000000000000e+00
1551 24 -1.000000000000000e+00
1551 775 -1.000000000000000e+00
1551 1551 5.000000000000000e+00
1552 7 -1.000000000000000e+00
1552 81 -1.000000000000000e+00
1552 332 -1.000000000000000e+00
1552 1552 7.258198887109756e+00
1553 79 -1.000000000000000e+00
1553 279 -1.000000000000000e+00
1553 442 -1.000000000000000e+00
1553 1553 3.000000000000000e+00
1554 237 -1.259881556034088e-01
1554 246 -1.080064080655575e+00
1554 378 -1.000000000000000e+00
1554 1424 -1.000000000000000e+00
1554 1554 5.206052236258984e+00
1555 5 -1.000000000000000e+00
1555 1147 -1.000000000000000e+00
1555 1400 -1.000000000000000e+00
1555 1555 5.000000000000000e+00
1556 8 -1.000000000000000e+00
1556 74 -1.000000000000000e+00
1556 775 -1.000000000000000e+00
1556 1556 5.075592890381813e+00
1557 5 -1.000000000000000e+00
1557 80 -1.000000000000000e+00
1557 103 -1.000000000000000e+00
1557 1557 7.301511347293854e+00
1558 118 -1.171498596668243e+00
1558 611 -1.000000000000000e+00
1558 1432 -1.500000059604645e+00
1558 1558 5.470221728086472e+00
1559 412 -1.000000000000000e+00
1559 554 -1.000000000000000e+00
1559 1122 -1.000000000000000e+00
1559 1559 4.000000000000000e+00
1560 111 -1.000000000000000e+00
1560 271 -2.236067950725555e-01
1560 441 -1.000000000000000e+00
1560 810 -1.000000000000000e+00
1560 1560 5.680042237043381e+00
1561 101 -1.000000000000000e+00
1561 350 -1.000000000000000e+00
1561 1500 -1.000000000000000e+00
1561 1561 5.578274846076965e+00
1562 7 -1.000000000000000e+00
1562 906 -1.000000000000000e+00
1562 1316 -1.000000000000000e+00
1562 1562 3.522591665387154e+00
1563 8 -1.000000000000000e+00
1563 38 -1.000000000000000e+00
1563 162 -1.140028014779091e+00
1563 1563 3.566804707050323e+00
1564 5 -1.000000000000000e+00
1564 42 -1.000000000000000e+00
1564 305 -1.000000000000000e+00
1564 1564 5.507867813110352e+00
1565 188 -2.279211580753326e-01
1565 208 -1.000000000000000e+00
1565 249 -1.000000000000000e+00
1565 482 -1.000000000000000e+00
1565 1565 4.227921158075333e+00
1566 50 -1.000000000000000e+00
1566 280 -1.000000000000000e+00
1566 702 -1.000000000000000e+00
1566 1566 6.000000000000000e+00
1567 13 -1.000000000000000e+00
1567 408 -1.000000000000000e+00
1567 497 -1.000000000000000e+00
1567 1203 -2.085144072771072e-01
1567 1567 5.417028814554214e+00
1568 140 -1.000000000000000e+00
1568 276 -1.000000000000000e+00
1568 883 -2.651650607585907e-01
1568 1271 -1.000000000000000e+00
1568 1568 7.673413366079330e+00
1569 111 -1.000000000000000e+00
1569 313 -1.000000000000000e+00
1569 575 -1.000000000000000e+00
1569 1569 3.000000000000000e+00
1570 444 -1.000000000000000e+00
1570 857 -1.000000000000000e+00
1570 987 -1.000000000000000e+00
1570 1570 5.182574182748795e+00
1571 5 -1.000000000000000e+00
1571 118 -1.000000000000000e+00
1571 206 -1.000000000000000e+00
1571 1571 6.347675181925297e+00
1572 13 -1.000000000000000e+00
1572 381 -1.150755658745766e+00
1572 469 -1.000000000000000e+00
1572 1572 4.231337949633598e+00
1573 6 -1.000000000000000e+00
1573 269 -1.000000000000000e+00
1573 1197 -1.000000000000000e+00
1573 1573 8.000000000000000e+00
1574 257 -1.000000000000000e+00
1574 736 -1.000000000000000e+00
1574 1021 -1.000000000000000e+00
1574 1574 6.389095261693001e+00
1575 23 -1.000000000000000e+00
1575 314 -1.000000000000000e+00
1575 671 -6.454972177743912e-02
1575 939 -1.060858059674501e+00
1575 1575 3.125407781451941e+00
1576 431 -1.000000000000000e+00
1576 1096 -1.000000000000000e+00
1576 1250 -1.000000000000000e+00
1576 1576 1.521407618373632e+01
1577 6 -1.000000000000000e+00
1577 20 -1.000000000000000e+00
1577 68 -2.041241526603699e-01
1577 1309 -1.000000000000000e+00
1577 1577 9.557677537202835e+00
1578 62 -1.000000000000000e+00
1578 312 -1.000000000000000e+00
1578 1155 -1.097590006887913e+00
1578 1578 1.109759000688791e+01
1579 17 -1.000000000000000e+00
1579 365 -1.000000000000000e+00
1579 372 -1.000000000000000e+00
1579 1579 3.000000000000000e+00
1580 26 -1.000000000000000e+00
1580 92 -1.000000000000000e+00
1580 282 -1.000000000000000e+00
1580 1580 4.000000000000000e+00
1581 498 -1.000000000000000e+00
1581 928 -1.000000000000000e+00
1581 1557 -1.000000000000000e+00
1581 1581 4.000000000000000e+00
1582 5 -1.000000000000000e+00
1582 82 -1.000000000000000e+00
1582 109 -2.041241377592087e-01
1582 620 -1.622214168310165e-01
1582 1040 -1.000000000000000e+00
1582 1582 8.366345554590225e+00
1583 360 -1.000000000000000e+00
1583 540 -1.000000000000000e+00
1583 1336 -1.000000000000000e+00
1583 1583 6.188982248306274e+00
1584 21 -1.000000000000000e+00
1584 24 -1.000000000000000e+00
1584 985 -1.000000000000000e+00
1584 1584 8.097590006887913e+00
1585 48 -1.000000000000000e+00
1585 129 -1.000000000000000e+00
1585 176 -1.000000000000000e+00
1585 1585 5.092450030148029e+00
1586 2 -1.000000000000000e+00
1586 37 -1.000000000000000e+00
1586 578 -1.000000000000000e+00
1586 1586 6.500000000000000e+00
1587 615 -1.000000000000000e+00
1587 1546 -1.000000000000000e+00
1587 1578 -1.000000000000000e+00
1587 1587 3.000000000000000e+00
1588 27 -1.000000000000000e+00
1588 208 -1.000000000000000e+00
1588 858 -2.182179093360901e-01
1588 927 -1.377964496612549e+00
1588 1588 5.938064128160477e+00
1589 114 -1.000000000000000e+00
1589 682 -1.000000000000000e+00
1589 1185 -1.000000000000000e+00
1589 1589 4.000000000000000e+00
1590 19 -1.000000000000000e+00
1590 1054 -1.000000000000000e+00
1590 1319 -1.000000000000000e+00
1590 1590 8.000000000000000e+00
1591 41 -1.000000000000000e+00
1591 409 -1.000000000000000e+00
1591 1528 -1.000000000000000e+00
1591 1591 4.108465231955051e+00
1592 35 -1.000000000000000e+00
1592 293 -1.443375647068024e-01
1592 432 -1.000000000000000e+00
1592 1384 -1.000000000000000e+00
1592 1592 4.144337564706802e+00
1593 404 -1.000000000000000e+00
1593 455 -1.000000000000000e+00
1593 1357 -1.000000000000000e+00
1593 1593 9.250000029802322e+00
1594 134 -1.000000000000000e+00
1594 879 -1.000000000000000e+00
1594 1346 -1.000000000000000e+00
1594 1594 3.258198887109756e+00
1595 661 -1.000000000000000e+00
1595 763 -1.000000000000000e+00
1595 907 -1.000000000000000e+00
1595 1595 7.000000000000000e+00
1596 46 -1.000000000000000e+00
1596 78 -1.000000000000000e+00
1596 233 -1.000000000000000e+00
1596 1596 4.000000000000000e+00
1597 522 -1.000000000000000e+00
1597 950 -1.000000000000000e+00
1597 1037 -1.000000000000000e+00
1597 1597 4.125738918781281e+00
1598 118 -1.000000000000000e+00
1598 645 -1.000000000000000e+00
1598 1257 -1.000000000000000e+00
1598 1598 1.108451543003321e+01
1599 1216 -1.000000000000000e+00
1599 1227 -1.000000000000000e+00
1599 1568 -1.000000000000000e+00
1599 1599 3.000000000000000e+00
1600 239 -1.000000000000000e+00
1600 593 -1.000000000000000e+00
1600 1224 -1.000000000000000e+00
1600 1600 4.000000000000000e+00
1601 9 -1.000000000000000e+00
1601 322 -1.000000000000000e+00
1601 700 -1.182574182748795e+00
1601 1601 5.386698320508003e+00
1602 52 -1.000000000000000e+00
1602 186 -1.000000000000000e+00
1602 1105 -1.000000000000000e+00
1602 1602 5.000000000000000e+00
1603 8 -1.000000000000000e+00
1603 101 -1.000000000000000e+00
1603 1129 -1.000000000000000e+00
1603 1603 3.000000000000000e+00
1604 1 -1.000000000000000e+00
1604 127 -1.000000000000000e+00
1604 556 -2.357022613286972e-01
1604 672 -1.000000000000000e+00
1604 1604 4.235702261328697e+00
1605 522 -1.000000000000000e+00
1605 835 -1.000000000000000e+00
1605 1539 -1.000000000000000e+00
1605 1605 3.000000000000000e+00
1606 568 -1.000000000000000e+00
1606 934 -1.000000000000000e+00
1606 1249 -1.000000000000000e+00
1606 1606 5.124034732580185e+00
1607 6 -1.000000000000000e+00
1607 72 -1.000000000000000e+00
1607 612 -1.000000000000000e+00
1607 1607 3.000000000000000e+00
1608 910 -1.000000000000000e+00
1608 1244 -1.173972234129906e+00
1608 1533 -1.000000000000000e+00
1608 1608 5.368433341383934e+00
1609 977 -1.000000000000000e+00
1609 1239 -1.000000000000000e+00
1609 1295 -1.000000000000000e+00
1609 1609 4.223606795072556e+00
1610 7 -1.000000000000000e+00
1610 193 -1.000000000000000e+00
1610 609 -1.000000000000000e+00
1610 1610 5.000000000000000e+00
1611 5 -1.000000000000000e+00
1611 9 -1.000000000000000e+00
1611 973 -1.000000000000000e+00
1611 1611 6.538675129413605e+00
1612 10 -1.000000000000000e+00
1612 152 -1.000000000000000e+00
1612 1499 -1.271360218524933e+00
1612 1612 3.653080895543098e+00
1613 52 -1.000000000000000e+00
1613 103 -1.000000000000000e+00
1613 1024 -1.000000000000000e+00
1613 1613 3.000000000000000e+00
1614 13 -1.000000000000000e+00
1614 387 -1.000000000000000e+00
1614 1348 -1.000000000000000e+00
1614 1614 5.000000000000000e+00
1615 28 -1.000000000000000e+00
1615 168 -1.000000000000000e+00
1615 1058 -1.000000000000000e+00
1615 1615 8.054554469883442e+00
1616 189 -1.000000000000000e+00
1616 333 -1.000000000000000e+00
1616 538 -1.000000000000000e+00
1616 1616 7.333333343267441e+00
1617 29 -1.000000000000000e+00
1617 553 -1.825741827487946e-01
1617 592 -1.000000000000000e+00
1617 1076 -1.000000000000000e+00
1617 1617 6.182574182748795e+00
1618 34 -1.235702276229858e+00
1618 153 -1.000000000000000e+00
1618 926 -1.166666671633720e+00
1618 1618 3.402368947863579e+00
1619 130 -1.000000000000000e+00
1619 1135 -1.000000000000000e+00
1619 1611 -1.000000000000000e+00
1619 1619 5.182574182748795e+00
1620 8 -1.000000000000000e+00
1620 77 -9.365858137607574e-02
1620 86 -1.000000000000000e+00
1620 1252 -1.000000000000000e+00
1620 1620 3.360919818282127e+00
1621 103 -1.000000000000000e+00
1621 371 -1.000000000000000e+00
1621 1380 -1.000000000000000e+00
1621 1621 4.000000000000000e+00
1622 2 -1.000000000000000e+00
1622 15 -1.000000000000000e+00
1622 46 -1.000000000000000e+00
1622 1622 5.000000000000000e+00
1623 136 -1.000000000000000e+00
1623 1185 -1.000000000000000e+00
1623 1514 -1.000000000000000e+00
1623 1623 7.166666656732559e+00
1624 522 -1.000000000000000e+00
1624 1322 -1.000000000000000e+00
1624 1601 -1.000000000000000e+00
1624 1624 4.000000000000000e+00
1625 43 -1.000000000000000e+00
1625 487 -1.000000000000000e+00
1625 1583 -1.188982248306274e+00
1625 1625 4.188982248306274e+00
1626 286 -1.000000000000000e+00
1626 354 -1.000000000000000e+00
1626 1061 -1.348155319690704e+00
1626 1626 4.348155319690704e+00
1627 882 -1.000000000000000e+00
1627 928 -1.000000000000000e+00
1627 1380 -1.000000000000000e+00
1627 1627 5.328041911125183e+00
1628 219 -1.000000000000000e+00
1628 681 -1.000000000000000e+00
1628 1076 -1.000000000000000e+00
1628 1628 8.227429404854774e+00
1629 23 -1.000000000000000e+00
1629 60 -1.000000000000000e+00
1629 411 -1.000000000000000e+00
1629 1629 5.000000000000000e+00
1630 7 -1.000000000000000e+00
1630 27 -1.000000000000000e+00
1630 1240 -1.000000000000000e+00
1630 1630 4.541041612625122e+00
1631 33 -1.000000000000000e+00
1631 106 -1.000000000000000e+00
1631 1402 -1.000000000000000e+00
1631 1631 9.125988155603409e+00
1632 44 -1.000000000000000e+00
1632 1499 -1.000000000000000e+00
1632 1515 -1.000000000000000e+00
1632 1632 5.000000000000000e+00
1633 385 -1.000000000000000e+00
1633 552 -1.000000000000000e+00
1633 576 -1.000000000000000e+00
1633 1633 4.000000000000000e+00
1634 118 -1.000000000000000e+00
1634 575 -1.000000000000000e+00
1634 946 -1.000000000000000e+00
1634 1634 4.000000000000000e+00
1635 78 -1.000000000000000e+00
1635 489 -1.000000000000000e+00
1635 1203 -2.000000029802322e-01
1635 1379 -1.000000000000000e+00
1635 1635 5.200000002980232e+00
1636 4 -1.000000000000000e+00
1636 965 -1.000000000000000e+00
1636 1248 -1.000000000000000e+00
1636 1636 3.144337564706802e+00
1637 661 -1.000000000000000e+00
1637 1315 -1.000000000000000e+00
1637 1316 -1.000000000000000e+00
1637 1637 6.645497202873230e+00
1638 784 -1.000000000000000e+00
1638 1143 -1.000000000000000e+00
1638 1461 -1.000000000000000e+00
1638 1531 -1.386750489473343e-01
1638 1638 5.138675048947334e+00
1639 5 -1.000000000000000e+00
1639 38 -1.000000000000000e+00
1639 294 -1.000000000000000e+00
1639 1639 7.000000000000000e+00
1640 5 -1.000000000000000e+00
1640 17 -1.000000000000000e+00
1640 400 -1.000000000000000e+00
1640 1640 6.000000000000000e+00
1641 51 -8.512564748525620e-02
1641 148 -1.000000000000000e+00
1641 158 -1.000000000000000e+00
1641 549 -1.000000000000000e+00
1641 1641 5.085125647485256e+00
1642 6 -1.000000000000000e+00
1642 12 -1.000000000000000e+00
1642 297 -1.270001232624054e-01
1642 500 -1.714985966682434e-01
1642 505 -1.825741827487946e-01
1642 716 -1.622214168310165e-01
1642 786 -1.000000000000000e+00
1642 945 -2.357022762298584e-01
1642 1642 6.295663312077522e+00
1643 82 -1.000000000000000e+00
1643 126 -1.117851138114929e+00
1643 403 -1.000000000000000e+00
1643 1643 5.117851138114929e+00
1644 219 -1.000000000000000e+00
1644 809 -1.000000000000000e+00
1644 1481 -1.000000000000000e+00
1644 1644 6.100000001490116e+00
1645 6 -1.000000000000000e+00
1645 378 -1.000000000000000e+00
1645 1239 -1.000000000000000e+00
1645 1645 6.114707864820957e+00
1646 283 -1.000000000000000e+00
1646 364 -1.000000000000000e+00
1646 616 -1.000000000000000e+00
1646 1646 3.000000000000000e+00
1647 652 -1.000000000000000e+00
1647 1065 -1.000000000000000e+00
1647 1536 -1.000000000000000e+00
1647 1647 5.000000000000000e+00
1648 38 -1.000000000000000e+00
1648 50 -1.000000000000000e+00
1648 96 -1.000000000000000e+00
1648 1648 4.000000000000000e+00
1649 380 -1.290994435548782e-01
1649 931 -1.169030860066414e+00
1649 1045 -1.000000000000000e+00
1649 1141 -1.000000000000000e+00
1649 1425 -1.154700443148613e-01
1649 1649 4.413600347936153e+00
1650 150 -1.000000000000000e+00
1650 857 -1.000000000000000e+00
1650 1511 -1.000000000000000e+00
1650 1650 8.113227695226669e+00
1651 6 -1.000000000000000e+00
1651 230 -1.000000000000000e+00
1651 558 -1.000000000000000e+00
1651 1651 6.117851138114929e+00
1652 619 -1.158113881945610e+00
1652 820 -1.000000000000000e+00
1652 1213 -1.000000000000000e+00
1652 1652 4.158113881945610e+00
1653 1496 -1.000000000000000e+00
1653 1610 -1.000000000000000e+00
1653 1651 -1.000000000000000e+00
1653 1653 5.222222223877907e+00
1654 48 -1.000000000000000e+00
1654 411 -1.000000000000000e+00
1654 425 -1.000000000000000e+00
1654 1654 7.000000000000000e+00
1655 31 -1.000000000000000e+00
1655 383 -1.000000000000000e+00
1655 1229 -1.000000000000000e+00
1655 1655 3.000000000000000e+00
1656 464 -1.734219789505005e-01
1656 478 -1.000000000000000e+00
1656 514 -1.000000000000000e+00
1656 845 -1.000000000000000e+00
1656 1656 4.173421978950500e+00
1657 114 -1.000000000000000e+00
1657 135 -1.000000000000000e+00
1657 329 -1.000000000000000e+00
1657 1657 7.000000000000000e+00
1658 5 -1.000000000000000e+00
1658 297 -1.000000000000000e+00
1658 1523 -1.000000000000000e+00
1658 1658 5.000000000000000e+00
1659 5 -1.000000000000000e+00
1659 6 -1.000000000000000e+00
1659 725 -1.000000000000000e+00
1659 1659 5.353553384542465e+00
1660 6 -1.000000000000000e+00
1660 176 -1.000000000000000e+00
1660 1598 -1.000000000000000e+00
1660 1660 3.000000000000000e+00
1661 208 -1.000000000000000e+00
1661 426 -1.000000000000000e+00
1661 897 -3.370999097824097e-01
1661 906 -1.000000000000000e+00
1661 1175 -1.066003590822220e-01
1661 1661 3.443700268864632e+00
1662 57 -1.000000000000000e+00
1662 379 -1.754115968942642e-01
1662 423 -1.000000000000000e+00
1662 884 -1.083045482635498e+00
1662 1662 3.258457079529762e+00
1663 84 -1.000000000000000e+00
1663 142 -1.000000000000000e+00
1663 1633 -1.000000000000000e+00
1663 1663 8.000000000000000e+00
1664 1108 -1.000000000000000e+00
1664 1343 -1.000000000000000e+00
1664 1567 -1.000000000000000e+00
1664 1664 5.000000000000000e+00
1665 97 -1.000000000000000e+00
1665 871 -1.000000000000000e+00
1665 981 -1.000000000000000e+00
1665 1665 4.235702246427536e+00
1666 452 -1.000000000000000e+00
1666 604 -1.000000000000000e+00
1666 1438 -1.000000000000000e+00
1666 1666 4.000000000000000e+00
1667 46 -1.000000000000000e+00
1667 662 -1.000000000000000e+00
1667 1425 -1.000000000000000e+00
1667 1667 6.000000000000000e+00
1668 372 -1.000000000000000e+00
1668 927 -3.015113472938538e-01
1668 1139 -1.000000000000000e+00
1668 1486 -1.000000000000000e+00
1668 1588 -3.418817222118378e-01
1668 1668 5.643393069505692e+00
1669 107 -1.000000000000000e+00
1669 247 -1.000000000000000e+00
1669 1105 -1.000000000000000e+00
1669 1669 4.000000000000000e+00
1670 49 -1.000000000000000e+00
1670 205 -1.000000000000000e+00
1670 586 -1.000000000000000e+00
1670 1670 6.000000000000000e+00
1671 234 -1.000000000000000e+00
1671 374 -1.000000000000000e+00
1671 650 -1.000000000000000e+00
1671 1671 3.000000000000000e+00
1672 407 -2.886751294136047e-01
1672 600 -1.000000000000000e+00
1672 805 -1.000000000000000e+00
1672 1452 -1.000000000000000e+00
1672 1672 6.400478526949883e+00
1673 4 -1.000000000000000e+00
1673 1300 -1.000000000000000e+00
1673 1536 -1.000000000000000e+00
1673 1673 8.453632354736328e+00
1674 85 -1.000000000000000e+00
1674 948 -1.000000000000000e+00
1674 1220 -1.000000000000000e+00
1674 1674 4.135768860578537e+00
1675 46 -1.000000000000000e+00
1675 112 -1.000000000000000e+00
1675 669 -1.000000000000000e+00
1675 1675 3.230940118432045e+00
1676 185 -1.000000000000000e+00
1676 313 -1.000000000000000e+00
1676 798 -1.000000000000000e+00
1676 1676 3.000000000000000e+00
1677 35 -1.000000000000000e+00
1677 407 -1.290994435548782e-01
1677 704 -1.000000000000000e+00
1677 1057 -1.000000000000000e+00
1677 1672 -1.118033975362778e-01
1677 1677 5.240902841091156e+00
1678 30 -1.000000000000000e+00
1678 280 -1.000000000000000e+00
1678 618 -1.000000000000000e+00
1678 1678 5.115470044314861e+00
1679 447 -1.000000000000000e+00
1679 920 -1.000000000000000e+00
1679 1027 -1.000000000000000e+00
1679 1035 -2.886751294136047e-01
1679 1679 5.288675129413605e+00
1680 14 -1.000000000000000e+00
1680 123 -1.000000000000000e+00
1680 1216 -1.951800137758255e-01
1680 1220 -1.000000000000000e+00
1680 1680 1.134425120055676e+01
1681 400 -1.000000000000000e+00
1681 529 -1.000000000000000e+00
1681 878 -1.129099443554878e+00
1681 1681 3.129099443554878e+00
1682 7 -1.000000000000000e+00
1682 117 -1.000000000000000e+00
1682 228 -1.000000000000000e+00
1682 1320 -5.345224738121033e-01
1682 1682 6.935414314270020e+00
1683 17 -1.000000000000000e+00
1683 90 -1.000000000000000e+00
1683 497 -1.000000000000000e+00
1683 1460 -8.333333581686020e-02
1683 1683 5.083333335816860e+00
1684 11 -1.000000000000000e+00
1684 82 -1.443375647068024e-01
1684 182 -1.000000000000000e+00
1684 579 -1.000000000000000e+00
1684 795 -3.481553196907043e-01
1684 913 -1.924500912427902e-01
1684 1269 -2.886751294136047e-01
1684 1684 5.490015879273415e+00
1685 43 -1.000000000000000e+00
1685 48 -1.000000000000000e+00
1685 287 -1.000000000000000e+00
1685 1685 5.182574182748795e+00
1686 15 -1.000000000000000e+00
1686 40 -1.000000000000000e+00
1686 168 -1.000000000000000e+00
1686 1686 9.348155319690704e+00
1687 68 -1.000000000000000e+00
1687 200 -1.000000000000000e+00
1687 423 -1.000000000000000e+00
1687 1687 4.597606420516968e+00
1688 103 -1.000000000000000e+00
1688 909 -1.000000000000000e+00
1688 1257 -1.000000000000000e+00
1688 1688 1.038046708703041e+01
1689 6 -1.000000000000000e+00
1689 101 -1.000000000000000e+00
1689 242 -1.000000000000000e+00
1689 1689 4.000000000000000e+00
1690 114 -1.000000000000000e+00
1690 691 -1.000000000000000e+00
1690 1527 -1.000000000000000e+00
1690 1690 8.000000000000000e+00
1691 8 -1.000000000000000e+00
1691 257 -1.000000000000000e+00
1691 625 -1.000000000000000e+00
1691 1691 4.316227763891220e+00
1692 9 -1.000000000000000e+00
1692 78 -1.000000000000000e+00
1692 1063 -1.000000000000000e+00
1692 1692 6.000000000000000e+00
1693 87 -1.000000000000000e+00
1693 128 -1.000000000000000e+00
1693 1235 -1.000000000000000e+00
1693 1693 3.144337564706802e+00
1694 1 -1.000000000000000e+00
1694 867 -1.000000000000000e+00
1694 1067 -1.000000000000000e+00
1694 1694 3.000000000000000e+00
1695 11 -1.000000000000000e+00
1695 13 -1.000000000000000e+00
1695 414 -1.142857149243355e+00
1695 1695 6.142857149243355e+00
1696 176 -1.000000000000000e+00
1696 1129 -1.000000000000000e+00
1696 1692 -1.000000000000000e+00
1696 1696 3.000000000000000e+00
1697 12 -1.000000000000000e+00
1697 181 -1.000000000000000e+00
1697 980 -1.000000000000000e+00
1697 1697 7.000000000000000e+00
1698 4 -1.000000000000000e+00
1698 293 -1.000000000000000e+00
1698 1375 -1.000000000000000e+00
1698 1698 5.000000000000000e+00
1699 44 -1.000000000000000e+00
1699 826 -1.000000000000000e+00
1699 1598 -1.000000000000000e+00
1699 1699 5.377964496612549e+00
1700 185 -1.000000000000000e+00
1700 772 -1.000000000000000e+00
1700 1045 -1.000000000000000e+00
1700 1700 3.000000000000000e+00
1701 29 -1.000000000000000e+00
1701 49 -1.000000000000000e+00
1701 1082 -1.000000000000000e+00
1701 1701 3.421564593911171e+00
1702 8 -1.000000000000000e+00
1702 430 -1.000000000000000e+00
1702 1460 -1.000000000000000e+00
1702 1702 3.000000000000000e+00
1703 374 -1.138675048947334e+00
1703 547 -1.000000000000000e+00
1703 1071 -1.000000000000000e+00
1703 1703 4.362281844019890e+00
1704 86 -1.000000000000000e+00
1704 239 -1.000000000000000e+00
1704 817 -1.000000000000000e+00
1704 1620 -2.672612369060516e-01
1704 1704 4.267261236906052e+00
1705 8 -1.000000000000000e+00
1705 806 -1.000000000000000e+00
1705 1022 -1.000000000000000e+00
1705 1705 1.100000000000000e+01
1706 50 -1.000000000000000e+00
1706 340 -1.000000000000000e+00
1706 1519 -1.000000000000000e+00
1706 1706 3.000000000000000e+00
1707 17 -1.000000000000000e+00
1707 78 -1.000000000000000e+00
1707 1567 -1.000000000000000e+00
1707 1707 5.000000000000000e+00
1708 37 -1.000000000000000e+00
1708 576 -1.000000000000000e+00
1708 1470 -1.078811042010784e+00
1708 1708 4.183068245649338e+00
1709 92 -1.000000000000000e+00
1709 118 -1.000000000000000e+00
1709 232 -1.000000000000000e+00
1709 1709 3.115470044314861e+00
1710 350 -1.000000000000000e+00
1710 577 -1.000000000000000e+00
1710 816 -2.672612369060516e-01
1710 942 -1.000000000000000e+00
1710 1710 3.267261236906052e+00
1711 392 -1.000000000000000e+00
1711 1130 -1.000000000000000e+00
1711 1403 -1.000000000000000e+00
1711 1711 9.000000000000000e+00
1712 390 -1.000000000000000e+00
1712 443 -1.000000000000000e+00
1712 606 -1.000000000000000e+00
1712 1712 4.000000000000000e+00
1713 5 -1.000000000000000e+00
1713 534 -1.000000000000000e+00
1713 1688 -1.000000000000000e+00
1713 1713 4.000000000000000e+00
1714 256 -1.000000000000000e+00
1714 305 -1.581138819456100e-01
1714 316 -1.000000000000000e+00
1714 442 -1.000000000000000e+00
1714 1060 -2.041241377592087e-01
1714 1714 1.236223801970482e+01
1715 152 -1.000000000000000e+00
1715 1263 -1.000000000000000e+00
1715 1502 -1.000000000000000e+00
1715 1715 4.100000001490116e+00
1716 203 -1.000000000000000e+00
1716 797 -1.000000000000000e+00
1716 1504 -1.064549721777439e+00
1716 1716 5.064549721777439e+00
1717 187 -1.000000000000000e+00
1717 246 -1.000000000000000e+00
1717 688 -1.000000000000000e+00
1717 1717 3.000000000000000e+00
1718 11 -1.000000000000000e+00
1718 682 -1.000000000000000e+00
1718 1167 -1.000000000000000e+00
1718 1718 4.520982950925827e+00
1719 207 -1.000000000000000e+00
1719 218 -1.000000000000000e+00
1719 286 -1.229415729641914e+00
1719 1498 -4.522669911384583e-01
1719 1719 3.905289515852928e+00
1720 7 -1.000000000000000e+00
1720 165 -1.000000000000000e+00
1720 782 -1.000000000000000e+00
1720 1465 -7.106690853834152e-02
1720 1720 5.237733595073223e+00
1721 48 -1.000000000000000e+00
1721 194 -1.000000000000000e+00
1721 1695 -1.000000000000000e+00
1721 1721 6.079056940972805e+00
1722 871 -1.000000000000000e+00
1722 1234 -1.091669857501984e+00
1722 1330 -1.000000000000000e+00
1722 1722 4.091669857501984e+00
1723 68 -1.000000000000000e+00
1723 838 -1.000000000000000e+00
1723 900 -1.000000000000000e+00
1723 1723 4.000000000000000e+00
1724 134 -1.000000000000000e+00
1724 253 -1.000000000000000e+00
1724 1568 -1.000000000000000e+00
1724 1724 3.000000000000000e+00
1725 214 -1.000000000000000e+00
1725 867 -1.000000000000000e+00
1725 1551 -1.000000000000000e+00
1725 1725 4.226133495569229e+00
1726 6 -1.000000000000000e+00
1726 256 -1.000000000000000e+00
1726 1173 -1.000000000000000e+00
1726 1726 3.471404492855072e+00
1727 270 -1.000000000000000e+00
1727 608 -1.000000000000000e+00
1727 613 -1.000000000000000e+00
1727 1727 4.087038822472095e+00
1728 759 -1.000000000000000e+00
1728 985 -1.000000000000000e+00
1728 1085 -1.961161345243454e-01
1728 1194 -1.000000000000000e+00
1728 1728 1.019611613452435e+01
1729 311 -1.000000000000000e+00
1729 370 -1.000000000000000e+00
1729 1314 -1.000000000000000e+00
1729 1729 4.353250980377197e+00
1730 17 -1.000000000000000e+00
1730 983 -1.000000000000000e+00
1730 1267 -1.000000000000000e+00
1730 1730 5.264197975397110e+00
1731 116 -1.000000000000000e+00
1731 270 -1.000000000000000e+00
1731 1333 -1.000000000000000e+00
1731 1731 6.000000000000000e+00
1732 176 -1.000000000000000e+00
1732 284 -1.000000000000000e+00
1732 483 -1.000000000000000e+00
1732 1732 5.297044247388840e+00
1733 150 -1.000000000000000e+00
1733 227 -1.000000000000000e+00
1733 324 -1.000000000000000e+00
1733 1733 3.000000000000000e+00
1734 425 -1.000000000000000e+00
1734 722 -1.000000000000000e+00
1734 1474 -1.000000000000000e+00
1734 1734 5.392232269048691e+00
1735 209 -1.000000000000000e+00
1735 212 -1.000000000000000e+00
1735 1502 -1.324101865291595e+00
1735 1735 3.324101865291595e+00
1736 54 -1.000000000000000e+00
1736 343 -6.428243219852448e-02
1736 1388 -1.000000000000000e+00
1736 1728 -1.000000000000000e+00
1736 1736 4.199122399091721e+00
1737 19 -1.000000000000000e+00
1737 1584 -1.000000000000000e+00
1737 1592 -1.000000000000000e+00
1737 1737 3.162221416831017e+00
1738 5 -1.000000000000000e+00
1738 28 -1.000000000000000e+00
1738 584 -1.000000000000000e+00
1738 1738 3.000000000000000e+00
1739 1 -1.000000000000000e+00
1739 715 -1.000000000000000e+00
1739 765 -1.000000000000000e+00
1739 1739 3.000000000000000e+00
1740 507 -1.000000000000000e+00
1740 618 -1.117851138114929e+00
1740 1477 -1.000000000000000e+00
1740 1740 5.471404552459717e+00
1741 409 -1.000000000000000e+00
1741 1002 -1.000000000000000e+00
1741 1075 -1.000000000000000e+00
1741 1741 3.000000000000000e+00
1742 387 -1.000000000000000e+00
1742 613 -1.000000000000000e+00
1742 798 -1.000000000000000e+00
1742 1742 4.000000000000000e+00
1743 369 -1.000000000000000e+00
1743 1029 -1.000000000000000e+00
1743 1272 -1.000000000000000e+00
1743 1743 3.000000000000000e+00
1744 92 -1.000000000000000e+00
1744 142 -1.000000000000000e+00
1744 1292 -1.309307217597961e-01
1744 1397 -1.000000000000000e+00
1744 1744 6.369976446032524e+00
1745 6 -1.000000000000000e+00
1745 32 -1.000000000000000e+00
1745 234 -2.085144072771072e-01
1745 997 -1.000000000000000e+00
1745 1745 3.708514407277107e+00
1746 13 -1.000000000000000e+00
1746 456 -1.176776692271233e+00
1746 571 -1.666666716337204e-01
1746 1680 -1.000000000000000e+00
1746 1746 3.343443363904953e+00
1747 59 -1.000000000000000e+00
1747 1087 -1.000000000000000e+00
1747 1407 -1.000000000000000e+00
1747 1747 7.000000000000000e+00
1748 74 -1.000000000000000e+00
1748 438 -1.000000000000000e+00
1748 1550 -1.000000000000000e+00
1748 1748 4.000000000000000e+00
1749 111 -1.000000000000000e+00
1749 233 -1.000000000000000e+00
1749 1139 -1.000000000000000e+00
1749 1749 5.000000000000000e+00
1750 16 -1.000000000000000e+00
1750 601 -1.098772957921028e+00
1750 983 -1.000000000000000e+00
1750 1390 -6.375766545534134e-02
1750 1750 4.162530623376369e+00
1751 175 -1.000000000000000e+00
1751 636 -1.169030845165253e+00
1751 1335 -1.000000000000000e+00
1751 1751 4.169030845165253e+00
1752 92 -1.000000000000000e+00
1752 327 -1.139605790376663e-01
1752 460 -1.290994435548782e-01
1752 485 -1.386750489473343e-01
1752 725 -1.000000000000000e+00
1752 1012 -1.000000000000000e+00
1752 1442 -1.348399817943573e-01
1752 1752 5.618637122213840e+00
1753 12 -1.000000000000000e+00
1753 120 -1.000000000000000e+00
1753 326 -9.622504562139511e-02
1753 568 -1.000000000000000e+00
1753 1753 4.096225045621395e+00
1754 7 -1.000000000000000e+00
1754 1063 -1.000000000000000e+00
1754 1286 -1.000000000000000e+00
1754 1754 3.000000000000000e+00
1755 112 -1.000000000000000e+00
1755 130 -1.000000000000000e+00
1755 814 -1.000000000000000e+00
1755 1179 -3.162277638912201e-01
1755 1755 3.574426651000977e+00
1756 285 -1.000000000000000e+00
1756 888 -1.000000000000000e+00
1756 1427 -1.000000000000000e+00
1756 1756 3.144337564706802e+00
1757 123 -1.000000000000000e+00
1757 425 -1.000000000000000e+00
1757 750 -1.000000000000000e+00
1757 1757 1.213608275353909e+01
1758 23 -1.000000000000000e+00
1758 985 -1.000000000000000e+00
1758 1560 -1.000000000000000e+00
1758 1758 3.000000000000000e+00
1759 478 -1.000000000000000e+00
1759 1032 -1.000000000000000e+00
1759 1037 -1.000000000000000e+00
1759 1300 -1.111111193895340e-01
1759 1759 3.265414476394653e+00
1760 216 -1.142133802175522e+00
1760 1001 -1.000000000000000e+00
1760 1161 -1.360827535390854e-01
1760 1216 -1.781741529703140e-01
1760 1608 -1.000000000000000e+00
1760 1760 8.513004556298256e+00
1761 690 -1.000000000000000e+00
1761 1031 -1.000000000000000e+00
1761 1414 -1.000000000000000e+00
1761 1761 4.000000000000000e+00
1762 5 -1.000000000000000e+00
1762 602 -1.000000000000000e+00
1762 612 -1.000000000000000e+00
1762 1762 3.000000000000000e+00
1763 29 -1.000000000000000e+00
1763 94 -1.443375647068024e-01
1763 331 -1.230914890766144e-01
1763 424 -1.000000000000000e+00
1763 967 -1.000000000000000e+00
1763 1763 5.267429053783417e+00
1764 1 -1.000000000000000e+00
1764 597 -1.000000000000000e+00
1764 1653 -1.222222223877907e+00
1764 1764 5.414672315120697e+00
1765 210 -1.000000000000000e+00
1765 304 -1.000000000000000e+00
1765 548 -1.000000000000000e+00
1765 1765 4.000000000000000e+00
1766 2 -1.000000000000000e+00
1766 14 -1.000000000000000e+00
1766 214 -1.000000000000000e+00
1766 1766 4.114707864820957e+00
1767 4 -1.000000000000000e+00
1767 690 -1.000000000000000e+00
1767 770 -1.000000000000000e+00
1767 1767 4.000000000000000e+00
1768 8 -1.000000000000000e+00
1768 52 -1.000000000000000e+00
1768 581 -1.000000000000000e+00
1768 665 -2.357022464275360e-01
1768 1337 -8.703882992267609e-02
1768 1768 4.322741076350212e+00
1769 100 -1.849000751972198e-01
1769 433 -1.000000000000000e+00
1769 593 -1.204124152660370e+00
1769 1647 -1.000000000000000e+00
1769 1769 3.389024227857590e+00
1770 13 -1.000000000000000e+00
1770 292 -1.000000000000000e+00
1770 632 -1.000000000000000e+00
1770 1770 5.190692514181137e+00
1771 24 -1.000000000000000e+00
1771 905 -1.000000000000000e+00
1771 1318 -1.210818499326706e+00
1771 1771 3.210818499326706e+00
1772 127 -1.000000000000000e+00
1772 210 -1.000000000000000e+00
1772 975 -1.000000000000000e+00
1772 1772 4.000000000000000e+00
1773 24 -1.000000000000000e+00
1773 29 -1.000000000000000e+00
1773 70 -1.000000000000000e+00
1773 1773 3.000000000000000e+00
1774 7 -1.000000000000000e+00
1774 423 -1.000000000000000e+00
1774 1041 -1.000000000000000e+00
1774 1774 7.362738132476807e+00
1775 121 -1.000000000000000e+00
1775 192 -1.000000000000000e+00
1775 857 -1.000000000000000e+00
1775 1775 5.270660445094109e+00
1776 371 -1.000000000000000e+00
1776 443 -1.000000000000000e+00
1776 1621 -1.000000000000000e+00
1776 1776 7.000000000000000e+00
1777 43 -1.000000000000000e+00
1777 68 -1.000000000000000e+00
1777 1403 -1.000000000000000e+00
1777 1777 4.252750515937805e+00
1778 20 -1.000000000000000e+00
1778 156 -1.000000000000000e+00
1778 1566 -1.000000000000000e+00
1778 1778 7.000000000000000e+00
1779 93 -1.000000000000000e+00
1779 461 -1.000000000000000e+00
1779 495 -1.000000000000000e+00
1779 633 -2.886751294136047e-01
1779 1779 3.288675129413605e+00
1780 85 -1.000000000000000e+00
1780 1414 -1.000000000000000e+00
1780 1640 -1.000000000000000e+00
1780 1780 4.471404492855072e+00
1781 54 -1.000000000000000e+00
1781 627 -1.000000000000000e+00
1781 997 -1.000000000000000e+00
1781 1781 4.000000000000000e+00
1782 129 -1.000000000000000e+00
1782 480 -1.000000000000000e+00
1782 513 -1.000000000000000e+00
1782 1782 3.000000000000000e+00
1783 5 -1.000000000000000e+00
1783 1230 -1.000000000000000e+00
1783 1598 -1.000000000000000e+00
1783 1783 4.000000000000000e+00
1784 97 -1.000000000000000e+00
1784 114 -1.000000000000000e+00
1784 469 -1.000000000000000e+00
1784 1784 5.304170913994312e+00
1785 393 -1.000000000000000e+00
1785 1125 -1.000000000000000e+00
1785 1644 -1.000000000000000e+00
1785 1785 4.000000000000000e+00
1786 500 -1.000000000000000e+00
1786 729 -2.182179093360901e-01
1786 907 -1.000000000000000e+00
1786 1511 -1.178511232137680e-01
1786 1705 -1.000000000000000e+00
1786 1786 5.962535247206688e+00
1787 461 -1.000000000000000e+00
1787 698 -1.000000000000000e+00
1787 1398 -1.000000000000000e+00
1787 1787 4.000000000000000e+00
1788 70 -1.000000000000000e+00
1788 939 -1.000000000000000e+00
1788 1632 -1.000000000000000e+00
1788 1788 5.408248305320740e+00
1789 191 -1.000000000000000e+00
1789 631 -1.000000000000000e+00
1789 1616 -1.000000000000000e+00
1789 1789 4.160643860697746e+00
1790 57 -1.000000000000000e+00
1790 1036 -1.000000000000000e+00
1790 1056 -1.057353932410479e+00
1790 1790 6.057353932410479e+00
1791 11 -1.000000000000000e+00
1791 46 -1.000000000000000e+00
1791 127 -1.360827535390854e-01
1791 556 -1.000000000000000e+00
1791 1791 4.265182197093964e+00
1792 5 -1.000000000000000e+00
1792 203 -1.000000000000000e+00
1792 547 -1.000000000000000e+00
1792 1792 4.963611364364624e+00
1793 135 -1.000000000000000e+00
1793 149 -1.000000000000000e+00
1793 266 -1.000000000000000e+00
1793 1793 5.000000000000000e+00
1794 301 -1.000000000000000e+00
1794 383 -1.000000000000000e+00
1794 1682 -1.000000000000000e+00
1794 1794 4.288195222616196e+00
1795 110 -1.000000000000000e+00
1795 681 -1.000000000000000e+00
1795 1641 -1.000000000000000e+00
1795 1795 6.000000000000000e+00
1796 31 -1.000000000000000e+00
1796 324 -1.000000000000000e+00
1796 1064 -1.000000000000000e+00
1796 1796 5.000000000000000e+00
1797 359 -1.000000000000000e+00
1797 1320 -1.000000000000000e+00
1797 1651 -1.000000000000000e+00
1797 1797 7.000000000000000e+00
1798 3 -1.000000000000000e+00
1798 1476 -1.183254182338715e+00
1798 1776 -1.000000000000000e+00
1798 1798 6.183254182338715e+00
1799 74 -1.141736686229706e+00
1799 1152 -1.000000000000000e+00
1799 1429 -1.000000000000000e+00
1799 1799 5.141736686229706e+00
1800 122 -1.000000000000000e+00
1800 350 -1.000000000000000e+00
1800 1450 -1.000000000000000e+00
1800 1800 7.084515422582626e+00
1801 250 -4.127504229545593e-01
1801 630 -1.000000000000000e+00
1801 1174 -1.000000000000000e+00
1801 1320 -1.000000000000000e+00
1801 1801 4.583138972520828e+00
1802 152 -1.000000000000000e+00
1802 204 -1.000000000000000e+00
1802 348 -1.000000000000000e+00
1802 1802 4.000000000000000e+00
1803 270 -1.000000000000000e+00
1803 1165 -1.000000000000000e+00
1803 1309 -1.000000000000000e+00
1803 1803 4.000000000000000e+00
1804 315 -1.000000000000000e+00
1804 369 -1.000000000000000e+00
1804 1306 -1.000000000000000e+00
1804 1804 5.563566774129868e+00
1805 232 -1.000000000000000e+00
1805 638 -1.000000000000000e+00
1805 777 -1.000000000000000e+00
1805 1805 3.113714702427387e+00
1806 960 -8.421519398689270e-02
1806 1119 -1.000000000000000e+00
1806 1488 -1.000000000000000e+00
1806 1637 -1.000000000000000e+00
1806 1806 7.871468693017960e+00
1807 18 -1.000000000000000e+00
1807 79 -1.000000000000000e+00
1807 707 -1.000000000000000e+00
1807 842 -7.001400738954544e-02
1807 1807 6.134834378957748e+00
1808 5 -1.000000000000000e+00
1808 13 -1.000000000000000e+00
1808 1430 -1.000000000000000e+00
1808 1808 6.333333343267441e+00
1809 23 -1.000000000000000e+00
1809 325 -1.000000000000000e+00
1809 454 -1.000000000000000e+00
1809 1809 3.000000000000000e+00
1810 46 -1.000000000000000e+00
1810 419 -1.000000000000000e+00
1810 564 -1.000000000000000e+00
1810 1810 3.000000000000000e+00
1811 8 -1.000000000000000e+00
1811 257 -1.000000000000000e+00
1811 866 -1.000000000000000e+00
1811 1811 6.000000000000000e+00
1812 130 -1.000000000000000e+00
1812 370 -1.000000000000000e+00
1812 426 -1.000000000000000e+00
1812 1812 5.000000000000000e+00
1813 5 -1.000000000000000e+00
1813 52 -1.000000000000000e+00
1813 157 -2.425356358289719e-01
1813 180 -5.773502588272095e-01
1813 696 -1.000000000000000e+00
1813 1518 -1.889822483062744e-01
1813 1813 6.135328933596611e+00
1814 717 -1.000000000000000e+00
1814 1160 -1.000000000000000e+00
1814 1467 -1.000000000000000e+00
1814 1814 4.084515430033207e+00
1815 143 -1.000000000000000e+00
1815 1545 -1.000000000000000e+00
1815 1674 -1.000000000000000e+00
1815 1815 9.000000000000000e+00
1816 194 -1.000000000000000e+00
1816 437 -1.000000000000000e+00
1816 439 -1.000000000000000e+00
1816 1816 3.149071201682091e+00
1817 123 -1.000000000000000e+00
1817 1511 -1.000000000000000e+00
1817 1526 -1.000000000000000e+00
1817 1817 3.000000000000000e+00
1818 23 -1.000000000000000e+00
1818 28 -1.000000000000000e+00
1818 1014 -1.000000000000000e+00
1818 1818 5.204124152660370e+00
1819 733 -1.000000000000000e+00
1819 1324 -1.000000000000000e+00
1819 1530 -1.000000000000000e+00
1819 1819 3.000000000000000e+00
1820 557 -1.000000000000000e+00
1820 696 -1.000000000000000e+00
1820 928 -1.000000000000000e+00
1820 1820 4.000000000000000e+00
1821 6 -1.000000000000000e+00
1821 153 -1.000000000000000e+00
1821 876 -1.000000000000000e+00
1821 1821 6.218217909336090e+00
1822 37 -1.000000000000000e+00
1822 416 -1.000000000000000e+00
1822 1306 -1.239045724272728e+00
1822 1822 4.239045724272728e+00
1823 277 -1.000000000000000e+00
1823 445 -1.000000000000000e+00
1823 1223 -1.000000000000000e+00
1823 1528 -1.212678179144859e-01
1823 1823 4.532458908855915e+00
1824 522 -1.000000000000000e+00
1824 589 -1.000000000000000e+00
1824 1097 -1.000000000000000e+00
1824 1824 4.000000000000000e+00
1825 59 -1.000000000000000e+00
1825 218 -1.000000000000000e+00
1825 1680 -1.000000000000000e+00
1825 1825 4.258198887109756e+00
1826 34 -1.000000000000000e+00
1826 442 -1.000000000000000e+00
1826 1066 -1.000000000000000e+00
1826 1826 8.140028014779091e+00
1827 15 -1.000000000000000e+00
1827 252 -1.000000000000000e+00
1827 1477 -1.000000000000000e+00
1827 1827 3.000000000000000e+00
1828 82 -1.000000000000000e+00
1828 400 -1.000000000000000e+00
1828 1291 -1.000000000000000e+00
1828 1828 4.000000000000000e+00
1829 178 -1.000000000000000e+00
1829 244 -1.000000000000000e+00
1829 1192 -1.000000000000000e+00
1829 1829 5.000000000000000e+00
1830 239 -1.000000000000000e+00
1830 609 -1.000000000000000e+00
1830 1016 -1.000000000000000e+00
1830 1830 5.000000000000000e+00
1831 17 -1.000000000000000e+00
1831 222 -1.000000000000000e+00
1831 1425 -1.000000000000000e+00
1831 1831 4.000000000000000e+00
1832 30 -1.000000000000000e+00
1832 921 -1.000000000000000e+00
1832 1680 -1.000000000000000e+00
1832 1832 6.000000000000000e+00
1833 540 -1.000000000000000e+00
1833 1426 -1.000000000000000e+00
1833 1795 -1.000000000000000e+00
1833 1833 5.117851138114929e+00
1834 78 -1.000000000000000e+00
1834 160 -1.000000000000000e+00
1834 482 -1.000000000000000e+00
1834 929 -1.304656118154526e-01
1834 1834 3.276330605149269e+00
1835 725 -1.000000000000000e+00
1835 1202 -1.091669857501984e+00
1835 1353 -1.000000000000000e+00
1835 1835 5.091669857501984e+00
1836 15 -1.000000000000000e+00
1836 554 -1.000000000000000e+00
1836 1797 -1.000000000000000e+00
1836 1836 5.516372457146645e+00
1837 535 -1.000000000000000e+00
1837 784 -1.000000000000000e+00
1837 1418 -1.000000000000000e+00
1837 1837 3.000000000000000e+00
1838 95 -1.000000000000000e+00
1838 148 -1.000000000000000e+00
1838 282 -1.000000000000000e+00
1838 1838 5.000000000000000e+00
1839 636 -1.000000000000000e+00
1839 1412 -1.250000029802322e+00
1839 1683 -1.000000000000000e+00
1839 1839 4.250000029802322e+00
1840 13 -1.000000000000000e+00
1840 94 -1.000000000000000e+00
1840 466 -1.000000000000000e+00
1840 1373 -3.726779818534851e-01
1840 1840 3.372677981853485e+00
1841 3 -1.000000000000000e+00
1841 132 -1.000000000000000e+00
1841 202 -2.886751294136047e-01
1841 1792 -1.000000000000000e+00
1841 1841 3.546874016523361e+00
1842 201 -1.000000000000000e+00
1842 433 -1.000000000000000e+00
1842 640 -1.000000000000000e+00
1842 1842 3.000000000000000e+00
1843 159 -1.147078722715378e-01
1843 653 -1.000000000000000e+00
1843 1094 -1.000000000000000e+00
1843 1832 -1.000000000000000e+00
1843 1843 5.327908590435982e+00
1844 85 -1.000000000000000e+00
1844 617 -1.000000000000000e+00
1844 672 -1.000000000000000e+00
1844 1844 7.000000000000000e+00
1845 45 -1.000000000000000e+00
1845 550 -1.000000000000000e+00
1845 1417 -1.000000000000000e+00
1845 1845 4.000000000000000e+00
1846 6 -1.000000000000000e+00
1846 7 -1.000000000000000e+00
1846 752 -1.104315221309662e-01
1846 1081 -1.561737656593323e-01
1846 1504 -1.000000000000000e+00
1846 1846 4.266605287790298e+00
1847 780 -1.000000000000000e+00
1847 1530 -1.000000000000000e+00
1847 1574 -2.357022613286972e-01
1847 1595 -1.000000000000000e+00
1847 1847 5.369035601615906e+00
1848 17 -1.000000000000000e+00
1848 952 -1.000000000000000e+00
1848 954 -1.000000000000000e+00
1848 1848 5.000000000000000e+00
1849 5 -1.000000000000000e+00
1849 621 -1.000000000000000e+00
1849 1659 -1.000000000000000e+00
1849 1849 4.000000000000000e+00
1850 126 -1.000000000000000e+00
1850 1245 -1.000000000000000e+00
1850 1573 -1.000000000000000e+00
1850 1850 3.000000000000000e+00
1851 16 -1.000000000000000e+00
1851 481 -1.000000000000000e+00
1851 716 -1.000000000000000e+00
1851 1851 5.000000000000000e+00
1852 8 -1.000000000000000e+00
1852 294 -1.000000000000000e+00
1852 1115 -1.000000000000000e+00
1852 1852 4.000000000000000e+00
1853 201 -1.000000000000000e+00
1853 1176 -1.000000000000000e+00
1853 1375 -1.054092496633530e-01
1853 1377 -1.000000000000000e+00
1853 1853 4.105409249663353e+00
1854 2 -1.000000000000000e+00
1854 323 -1.000000000000000e+00
1854 807 -1.000000000000000e+00
1854 1423 -1.825741827487946e-01
1854 1854 5.182574182748795e+00
1855 707 -1.195180013775826e+00
1855 1405 -1.000000000000000e+00
1855 1472 -1.000000000000000e+00
1855 1807 -6.482037156820297e-02
1855 1855 5.260000385344028e+00
1856 115 -1.218217909336090e+00
1856 378 -1.000000000000000e+00
1856 1573 -1.000000000000000e+00
1856 1856 4.503932207822800e+00
1857 1033 -1.000000000000000e+00
1857 1324 -1.144337564706802e+00
1857 1541 -1.000000000000000e+00
1857 1857 3.268852129578590e+00
1858 30 -1.085749298334122e+00
1858 931 -1.000000000000000e+00
1858 1053 -1.336306184530258e-01
1858 1256 -1.000000000000000e+00
1858 1858 4.988192766904831e+00
1859 1 -1.000000000000000e+00
1859 78 -1.000000000000000e+00
1859 568 -1.000000000000000e+00
1859 1841 -2.581988871097565e-01
1859 1859 8.258198887109756e+00
1860 24 -1.000000000000000e+00
1860 35 -1.000000000000000e+00
1860 75 -1.000000000000000e+00
1860 1860 4.406328544020653e+00
1861 80 -1.000000000000000e+00
1861 1048 -1.000000000000000e+00
1861 1474 -1.000000000000000e+00
1861 1861 3.000000000000000e+00
1862 8 -1.000000000000000e+00
1862 351 -3.162277638912201e-01
1862 605 -1.000000000000000e+00
1862 631 -1.000000000000000e+00
1862 1862 5.443227887153625e+00
1863 19 -1.000000000000000e+00
1863 341 -1.000000000000000e+00
1863 653 -1.000000000000000e+00
1863 1863 3.000000000000000e+00
1864 15 -1.000000000000000e+00
1864 30 -1.000000000000000e+00
1864 1466 -1.000000000000000e+00
1864 1858 -1.543033570051193e-01
1864 1864 6.154303357005119e+00
1865 123 -1.000000000000000e+00
1865 672 -1.000000000000000e+00
1865 681 -1.000000000000000e+00
1865 1725 -2.261334955692291e-01
1865 1865 5.226133495569229e+00
1866 257 -1.000000000000000e+00
1866 838 -1.000000000000000e+00
1866 1843 -1.000000000000000e+00
1866 1866 3.000000000000000e+00
1867 5 -1.000000000000000e+00
1867 211 -1.000000000000000e+00
1867 937 -1.000000000000000e+00
1867 1485 -3.273268342018127e-01
1867 1867 4.616001963615417e+00
1868 7 -1.000000000000000e+00
1868 86 -1.000000000000000e+00
1868 123 -1.000000000000000e+00
1868 1868 4.000000000000000e+00
1869 80 -1.000000000000000e+00
1869 600 -1.000000000000000e+00
1869 1570 -1.000000000000000e+00
1869 1619 -1.825741827487946e-01
1869 1869 8.182574182748795e+00
1870 17 -1.000000000000000e+00
1870 80 -1.000000000000000e+00
1870 738 -1.000000000000000e+00
1870 1870 3.529724687337875e+00
1871 4 -1.169030845165253e+00
1871 5 -1.000000000000000e+00
1871 1366 -1.000000000000000e+00
1871 1871 7.507092565298080e+00
1872 164 -1.000000000000000e+00
1872 414 -1.139605790376663e-01
1872 664 -1.000000000000000e+00
1872 728 -1.000000000000000e+00
1872 1872 6.113960579037666e+00
1873 557 -1.000000000000000e+00
1873 568 -1.000000000000000e+00
1873 629 -1.000000000000000e+00
1873 1873 6.117851138114929e+00
1874 87 -1.000000000000000e+00
1874 386 -1.000000000000000e+00
1874 418 -1.240347325801849e-01
1874 685 -1.000000000000000e+00
1874 1874 3.124034732580185e+00
1875 4 -1.000000000000000e+00
1875 94 -1.000000000000000e+00
1875 429 -1.000000000000000e+00
1875 1875 1.059503520280123e+01
1876 5 -1.000000000000000e+00
1876 169 -1.000000000000000e+00
1876 1815 -1.000000000000000e+00
1876 1876 6.000000000000000e+00
1877 1 -1.000000000000000e+00
1877 123 -1.000000000000000e+00
1877 194 -1.000000000000000e+00
1877 1877 4.077151678502560e+00
1878 7 -1.000000000000000e+00
1878 1320 -1.000000000000000e+00
1878 1482 -1.000000000000000e+00
1878 1878 4.532657012343407e+00
1879 109 -1.000000000000000e+00
1879 1017 -1.000000000000000e+00
1879 1698 -1.000000000000000e+00
1879 1879 3.000000000000000e+00
1880 59 -1.000000000000000e+00
1880 1101 -1.000000000000000e+00
1880 1572 -1.000000000000000e+00
1880 1880 6.088388346135616e+00
1881 23 -1.000000000000000e+00
1881 71 -1.000000000000000e+00
1881 179 -2.264553904533386e-01
1881 1399 -1.000000000000000e+00
1881 1881 6.226455390453339e+00
1882 5 -1.000000000000000e+00
1882 23 -1.000000000000000e+00
1882 96 -1.000000000000000e+00
1882 1882 3.882522642612457e+00
1883 35 -1.000000000000000e+00
1883 151 -1.000000000000000e+00
1883 1578 -1.000000000000000e+00
1883 1883 7.333333343267441e+00
1884 675 -1.000000000000000e+00
1884 1159 -1.000000000000000e+00
1884 1439 -1.000000000000000e+00
1884 1884 5.000000000000000e+00
1885 92 -1.000000000000000e+00
1885 749 -1.924500912427902e-01
1885 1313 -1.000000000000000e+00
1885 1480 -1.086066298186779e+00
1885 1885 3.278516389429569e+00
1886 353 -1.000000000000000e+00
1886 393 -1.063500061631203e+00
1886 1482 -1.000000000000000e+00
1886 1886 3.230166748166084e+00
1887 108 -1.000000000000000e+00
1887 332 -1.000000000000000e+00
1887 1016 -1.000000000000000e+00
1887 1887 5.129099443554878e+00
1888 289 -1.000000000000000e+00
1888 366 -1.825741827487946e-01
1888 865 -1.000000000000000e+00
1888 1196 -1.000000000000000e+00
1888 1888 8.182574182748795e+00
1889 18 -1.259881556034088e-01
1889 26 -1.000000000000000e+00
1889 35 -1.000000000000000e+00
1889 79 -1.611645966768265e-01
1889 393 -1.000000000000000e+00
1889 1440 -1.649572253227234e-01
1889 1889 7.606413334608078e+00
1890 127 -1.000000000000000e+00
1890 562 -1.000000000000000e+00
1890 1844 -1.000000000000000e+00
1890 1890 3.000000000000000e+00
1891 258 -1.000000000000000e+00
1891 892 -1.076923079788685e+00
1891 1590 -1.000000000000000e+00
1891 1891 3.076923079788685e+00
1892 7 -1.000000000000000e+00
1892 35 -1.000000000000000e+00
1892 236 -1.000000000000000e+00
1892 883 -3.557562232017517e-01
1892 1892 5.567888259887695e+00
1893 27 -1.000000000000000e+00
1893 721 -1.000000000000000e+00
1893 1501 -1.000000000000000e+00
1893 1893 3.000000000000000e+00
1894 450 -1.000000000000000e+00
1894 651 -1.000000000000000e+00
1894 739 -1.000000000000000e+00
1894 1894 4.000000000000000e+00
1895 14 -1.000000000000000e+00
1895 618 -1.000000000000000e+00
1895 940 -1.000000000000000e+00
1895 1895 3.152894169092178e+00
1896 101 -1.000000000000000e+00
1896 1161 -1.000000000000000e+00
1896 1365 -1.000000000000000e+00
1896 1896 3.000000000000000e+00
1897 382 -1.000000000000000e+00
1897 578 -1.000000000000000e+00
1897 1020 -1.000000000000000e+00
1897 1897 7.000000000000000e+00
1898 767 -1.000000000000000e+00
1898 1000 -1.000000000000000e+00
1898 1097 -1.000000000000000e+00
1898 1898 6.000000000000000e+00
1899 42 -1.000000000000000e+00
1899 109 -1.000000000000000e+00
1899 1234 -1.000000000000000e+00
1899 1899 3.000000000000000e+00
1900 86 -1.000000000000000e+00
1900 194 -1.000000000000000e+00
1900 1576 -1.000000000000000e+00
1900 1900 7.000000000000000e+00
1901 187 -1.000000000000000e+00
1901 276 -1.000000000000000e+00
1901 297 -1.000000000000000e+00
1901 1901 5.307793498039246e+00
1902 76 -1.000000000000000e+00
1902 151 -1.000000000000000e+00
1902 647 -1.000000000000000e+00
1902 1902 4.264906466007233e+00
1903 17 -1.000000000000000e+00
1903 47 -1.000000000000000e+00
1903 280 -1.000000000000000e+00
1903 1903 5.000000000000000e+00
1904 30 -1.000000000000000e+00
1904 149 -1.000000000000000e+00
1904 1295 -1.000000000000000e+00
1904 1904 4.000000000000000e+00
1905 17 -1.000000000000000e+00
1905 67 -1.000000000000000e+00
1905 82 -1.000000000000000e+00
1905 1905 5.319148182868958e+00
1906 92 -1.000000000000000e+00
1906 1173 -1.000000000000000e+00
1906 1415 -1.000000000000000e+00
1906 1906 4.000000000000000e+00
1907 19 -1.000000000000000e+00
1907 259 -1.000000000000000e+00
1907 1332 -1.000000000000000e+00
1907 1907 4.129099443554878e+00
1908 182 -1.000000000000000e+00
1908 628 -1.000000000000000e+00
1908 1424 -1.000000000000000e+00
1908 1908 5.106600359082222e+00
1909 99 -1.000000000000000e+00
1909 1091 -1.000000000000000e+00
1909 1554 -1.000000000000000e+00
1909 1909 5.389977410435677e+00
1910 18 -1.136082753539085e+00
1910 79 -1.174077644944191e+00
1910 1440 -8.908707648515701e-02
1910 1889 -1.154303357005119e+00
1910 1910 4.009975634515285e+00
1911 167 -1.000000000000000e+00
1911 168 -1.000000000000000e+00
1911 231 -1.000000000000000e+00
1911 1911 5.000000000000000e+00
1912 7 -1.000000000000000e+00
1912 266 -1.000000000000000e+00
1912 1723 -1.000000000000000e+00
1912 1912 3.408248305320740e+00
1913 22 -1.000000000000000e+00
1913 271 -3.244428336620331e-01
1913 511 -1.000000000000000e+00
1913 917 -1.000000000000000e+00
1913 1913 6.729996383190155e+00
1914 530 -1.000000000000000e+00
1914 987 -1.000000000000000e+00
1914 989 -1.000000000000000e+00
1914 1914 3.000000000000000e+00
1915 707 -1.000000000000000e+00
1915 878 -1.000000000000000e+00
1915 943 -1.092450030148029e+00
1915 1915 4.092450030148029e+00
1916 8 -1.000000000000000e+00
1916 10 -1.000000000000000e+00
1916 153 -1.000000000000000e+00
1916 1916 4.000000000000000e+00
1917 962 -1.000000000000000e+00
1917 1657 -1.000000000000000e+00
1917 1859 -1.000000000000000e+00
1917 1917 4.000000000000000e+00
1918 118 -1.000000000000000e+00
1918 372 -1.000000000000000e+00
1918 1280 -3.444474935531616e-01
1918 1576 -1.000000000000000e+00
1918 1918 3.574591144919395e+00
1919 162 -1.000000000000000e+00
1919 1776 -1.000000000000000e+00
1919 1778 -1.000000000000000e+00
1919 1919 3.000000000000000e+00
1920 58 -1.000000000000000e+00
1920 480 -1.000000000000000e+00
1920 973 -1.000000000000000e+00
1920 1920 3.253359876573086e+00
1921 640 -1.000000000000000e+00
1921 891 -1.000000000000000e+00
1921 1397 -1.000000000000000e+00
1921 1921 4.000000000000000e+00
1922 81 -1.000000000000000e+00
1922 167 -1.000000000000000e+00
1922 814 -1.000000000000000e+00
1922 1922 4.000000000000000e+00
1923 412 -1.000000000000000e+00
1923 1044 -1.000000000000000e+00
1923 1679 -1.000000000000000e+00
1923 1923 4.000000000000000e+00
1924 31 -1.000000000000000e+00
1924 399 -1.000000000000000e+00
1924 1728 -1.000000000000000e+00
1924 1924 4.000000000000000e+00
1925 461 -1.000000000000000e+00
1925 568 -1.000000000000000e+00
1925 757 -1.335672587156296e+00
1925 839 -4.195907339453697e-02
1925 1925 5.377631660550833e+00
1926 185 -1.000000000000000e+00
1926 1155 -1.000000000000000e+00
1926 1727 -1.087038822472095e+00
1926 1926 4.087038822472095e+00
1927 198 -1.000000000000000e+00
1927 619 -1.000000000000000e+00
1927 1564 -1.000000000000000e+00
1927 1813 -2.773500978946686e-01
1927 1927 3.277350097894669e+00
1928 85 -1.000000000000000e+00
1928 163 -1.000000000000000e+00
1928 248 -1.000000000000000e+00
1928 1928 4.117851138114929e+00
1929 23 -1.000000000000000e+00
1929 241 -1.000000000000000e+00
1929 773 -1.000000000000000e+00
1929 1929 8.223578162491322e+00
1930 95 -1.000000000000000e+00
1930 698 -1.000000000000000e+00
1930 799 -1.000000000000000e+00
1930 1930 5.000000000000000e+00
1931 1 -1.000000000000000e+00
1931 329 -1.000000000000000e+00
1931 1083 -1.000000000000000e+00
1931 1931 4.000000000000000e+00
1932 744 -1.000000000000000e+00
1932 995 -1.000000000000000e+00
1932 1218 -1.000000000000000e+00
1932 1932 5.000000000000000e+00
1933 1233 -1.000000000000000e+00
1933 1426 -1.000000000000000e+00
1933 1570 -1.825741827487946e-01
1933 1606 -1.000000000000000e+00
1933 1933 6.182574182748795e+00
1934 327 -1.000000000000000e+00
1934 452 -1.000000000000000e+00
1934 460 -1.000000000000000e+00
1934 1752 -1.020620688796043e-01
1934 1934 3.102062068879604e+00
1935 7 -1.000000000000000e+00
1935 17 -1.000000000000000e+00
1935 644 -1.000000000000000e+00
1935 1935 4.474341630935669e+00
1936 434 -1.000000000000000e+00
1936 1811 -1.000000000000000e+00
1936 1859 -1.000000000000000e+00
1936 1936 4.000000000000000e+00
1937 61 -1.000000000000000e+00
1937 222 -1.157134830951691e+00
1937 459 -1.000000000000000e+00
1937 1937 4.621501833200455e+00
1938 5 -1.000000000000000e+00
1938 239 -1.000000000000000e+00
1938 264 -1.000000000000000e+00
1938 394 -2.000000029802322e-01
1938 1938 5.200000002980232e+00
1939 35 -2.000000029802322e-01
1939 47 -1.000000000000000e+00
1939 198 -1.000000000000000e+00
1939 215 -2.070196717977524e-01
1939 1501 -1.000000000000000e+00
1939 1860 -1.978141367435455e-01
1939 1935 -4.743416309356689e-01
1939 1939 5.550851702690125e+00
1940 75 -1.000000000000000e+00
1940 150 -1.000000000000000e+00
1940 395 -1.000000000000000e+00
1940 1940 4.000000000000000e+00
1941 23 -1.000000000000000e+00
1941 287 -1.000000000000000e+00
1941 1434 -1.000000000000000e+00
1941 1941 6.000000000000000e+00
1942 182 -1.000000000000000e+00
1942 720 -1.000000000000000e+00
1942 1691 -1.000000000000000e+00
1942 1942 3.000000000000000e+00
1943 10 -1.000000000000000e+00
1943 203 -1.000000000000000e+00
1943 1068 -1.000000000000000e+00
1943 1943 3.000000000000000e+00
1944 114 -1.000000000000000e+00
1944 679 -1.000000000000000e+00
1944 848 -1.000000000000000e+00
1944 1944 4.227429404854774e+00
1945 779 -1.000000000000000e+00
1945 988 -1.000000000000000e+00
1945 1714 -1.000000000000000e+00
1945 1945 4.000000000000000e+00
1946 72 -1.000000000000000e+00
1946 327 -1.000000000000000e+00
1946 339 -1.000000000000000e+00
1946 1883 -3.333333432674408e-01
1946 1946 5.333333343267441e+00
1947 43 -1.000000000000000e+00
1947 99 -1.000000000000000e+00
1947 174 -2.886751592159271e-01
1947 469 -1.000000000000000e+00
1947 1947 5.288675159215927e+00
1948 48 -1.000000000000000e+00
1948 49 -1.000000000000000e+00
1948 1815 -1.000000000000000e+00
1948 1948 5.260490819811821e+00
1949 5 -1.000000000000000e+00
1949 1009 -1.000000000000000e+00
1949 1279 -1.000000000000000e+00
1949 1949 5.433012694120407e+00
1950 747 -1.000000000000000e+00
1950 1218 -1.000000000000000e+00
1950 1501 -1.000000000000000e+00
1950 1950 5.495667889714241e+00
1951 372 -1.000000000000000e+00
1951 1476 -1.000000000000000e+00
1951 1908 -1.000000000000000e+00
1951 1951 3.000000000000000e+00
1952 31 -1.000000000000000e+00
1952 592 -1.000000000000000e+00
1952 1635 -1.000000000000000e+00
1952 1952 4.000000000000000e+00
1953 135 -1.543033570051193e-01
1953 270 -1.000000000000000e+00
1953 507 -1.000000000000000e+00
1953 1250 -1.000000000000000e+00
1953 1953 4.154303357005119e+00
1954 63 -1.000000000000000e+00
1954 800 -1.000000000000000e+00
1954 1191 -1.000000000000000e+00
1954 1954 3.000000000000000e+00
1955 16 -1.000000000000000e+00
1955 636 -1.000000000000000e+00
1955 1461 -1.000000000000000e+00
1955 1955 8.171498596668243e+00
1956 1 -1.000000000000000e+00
1956 114 -1.348155319690704e+00
1956 230 -1.259881556034088e-01
1956 849 -1.000000000000000e+00
1956 1492 -1.360827684402466e-01
1956 1784 -1.072112545371056e-01
1956 1956 4.717437498271465e+00
1957 248 -1.000000000000000e+00
1957 531 -1.000000000000000e+00
1957 1477 -1.000000000000000e+00
1957 1957 6.000000000000000e+00
1958 844 -1.000000000000000e+00
1958 1002 -1.000000000000000e+00
1958 1210 -1.000000000000000e+00
1958 1958 5.000000000000000e+00
1959 114 -1.000000000000000e+00
1959 128 -3.481552898883820e-01
1959 511 -1.000000000000000e+00
1959 1129 -1.000000000000000e+00
1959 1959 4.634194076061249e+00
1960 1 -1.000000000000000e+00
1960 32 -1.000000000000000e+00
1960 832 -1.000000000000000e+00
1960 1960 3.575867950916290e+00
1961 115 -1.000000000000000e+00
1961 261 -1.000000000000000e+00
1961 1058 -1.000000000000000e+00
1961 1961 3.000000000000000e+00
1962 57 -1.000000000000000e+00
1962 730 -1.000000000000000e+00
1962 953 -2.651650607585907e-01
1962 1301 -1.000000000000000e+00
1962 1962 3.642127811908722e+00
1963 5 -1.000000000000000e+00
1963 26 -1.000000000000000e+00
1963 442 -1.000000000000000e+00
1963 1399 -3.287979662418365e-01
1963 1963 3.617473095655441e+00
1964 28 -1.000000000000000e+00
1964 117 -1.000000000000000e+00
1964 1306 -1.000000000000000e+00
1964 1964 5.000000000000000e+00
1965 112 -1.000000000000000e+00
1965 118 -1.000000000000000e+00
1965 803 -1.000000000000000e+00
1965 1965 5.174077659845352e+00
1966 23 -1.000000000000000e+00
1966 303 -1.000000000000000e+00
1966 1500 -1.000000000000000e+00
1966 1966 3.000000000000000e+00
1967 143 -1.000000000000000e+00
1967 453 -1.000000000000000e+00
1967 518 -1.000000000000000e+00
1967 1967 4.000000000000000e+00
1968 1081 -1.000000000000000e+00
1968 1197 -1.140028014779091e+00
1968 1534 -1.102062076330185e+00
1968 1968 4.242090091109276e+00
1969 1 -1.000000000000000e+00
1969 194 -1.666666716337204e-01
1969 376 -1.000000000000000e+00
1969 449 -1.000000000000000e+00
1969 1969 6.166666671633720e+00
1970 77 -1.000000000000000e+00
1970 382 -1.000000000000000e+00
1970 1767 -1.000000000000000e+00
1970 1970 4.000000000000000e+00
1971 35 -1.000000000000000e+00
1971 335 -1.000000000000000e+00
1971 611 -1.000000000000000e+00
1971 1971 3.000000000000000e+00
1972 419 -1.000000000000000e+00
1972 1156 -1.000000000000000e+00
1972 1711 -1.000000000000000e+00
1972 1972 7.168253846466541e+00
1973 280 -1.000000000000000e+00
1973 1414 -1.226133495569229e+00
1973 1898 -1.000000000000000e+00
1973 1973 7.328195564448833e+00
1974 26 -1.000000000000000e+00
1974 686 -1.000000000000000e+00
1974 1873 -1.000000000000000e+00
1974 1974 4.000000000000000e+00
1975 212 -1.000000000000000e+00
1975 1456 -1.000000000000000e+00
1975 1774 -1.000000000000000e+00
1975 1975 4.335410177707672e+00
1976 96 -1.000000000000000e+00
1976 190 -1.000000000000000e+00
1976 1131 -1.000000000000000e+00
1976 1976 5.182574182748795e+00
1977 57 -1.000000000000000e+00
1977 186 -1.000000000000000e+00
1977 794 -1.000000000000000e+00
1977 1977 5.000000000000000e+00
1978 280 -1.000000000000000e+00
1978 369 -1.000000000000000e+00
1978 1000 -1.000000000000000e+00
1978 1978 3.000000000000000e+00
1979 136 -1.000000000000000e+00
1979 291 -1.000000000000000e+00
1979 898 -1.336306184530258e-01
1979 1690 -1.000000000000000e+00
1979 1979 6.301335707306862e+00
1980 54 -1.000000000000000e+00
1980 1704 -1.000000000000000e+00
1980 1916 -1.000000000000000e+00
1980 1980 3.000000000000000e+00
1981 56 -1.000000000000000e+00
1981 516 -1.000000000000000e+00
1981 879 -1.000000000000000e+00
1981 1981 3.000000000000000e+00
1982 7 -1.000000000000000e+00
1982 139 -1.000000000000000e+00
1982 1464 -1.000000000000000e+00
1982 1982 4.000000000000000e+00
1983 30 -1.000000000000000e+00
1983 69 -1.000000000000000e+00
1983 511 -1.000000000000000e+00
1983 1858 -1.622214168310165e-01
1983 1983 5.264819249510765e+00
1984 5 -1.000000000000000e+00
1984 7 -1.000000000000000e+00
1984 161 -1.000000000000000e+00
1984 1984 3.501691251993179e+00
1985 8 -1.000000000000000e+00
1985 52 -1.000000000000000e+00
1985 1956 -1.000000000000000e+00
1985 1985 4.121267817914486e+00
1986 7 -1.000000000000000e+00
1986 30 -1.000000000000000e+00
1986 639 -1.000000000000000e+00
1986 1986 3.000000000000000e+00
1987 2 -1.000000000000000e+00
1987 129 -1.000000000000000e+00
1987 1351 -1.000000000000000e+00
1987 1987 3.109108954668045e+00
1988 854 -1.000000000000000e+00
1988 937 -1.000000000000000e+00
1988 1151 -1.000000000000000e+00
1988 1988 5.000000000000000e+00
1989 57 -1.000000000000000e+00
1989 1059 -1.000000000000000e+00
1989 1364 -1.000000000000000e+00
1989 1989 7.000000000000000e+00
1990 90 -1.000000000000000e+00
1990 905 -1.000000000000000e+00
1990 1182 -2.828427255153656e-01
1990 1332 -1.000000000000000e+00
1990 1990 4.282842725515366e+00
1991 9 -1.000000000000000e+00
1991 196 -1.000000000000000e+00
1991 402 -1.000000000000000e+00
1991 1991 4.000000000000000e+00
1992 198 -1.000000000000000e+00
1992 731 -1.000000000000000e+00
1992 1075 -1.000000000000000e+00
1992 1992 4.000000000000000e+00
1993 267 -1.000000000000000e+00
1993 499 -1.174077659845352e+00
1993 1287 -1.000000000000000e+00
1993 1993 3.174077659845352e+00
1994 528 -1.000000000000000e+00
1994 686 -1.000000000000000e+00
1994 1045 -1.000000000000000e+00
1994 1994 4.384900182485580e+00
1995 5 -1.000000000000000e+00
1995 242 -1.000000000000000e+00
1995 1955 -1.000000000000000e+00
1995 1995 3.000000000000000e+00
1996 683 -1.000000000000000e+00
1996 1054 -1.000000000000000e+00
1996 1213 -1.190692514181137e+00
1996 1721 -7.905694097280502e-02
1996 1996 4.269749455153942e+00
1997 95 -1.000000000000000e+00
1997 547 -1.000000000000000e+00
1997 678 -1.000000000000000e+00
1997 1997 7.204124152660370e+00
1998 260 -1.000000000000000e+00
1998 265 -1.000000000000000e+00
1998 1144 -1.290994435548782e-01
1998 1232 -1.000000000000000e+00
1998 1998 4.129099443554878e+00
1999 2 -1.000000000000000e+00
1999 418 -1.000000000000000e+00
1999 870 -1.961161345243454e-01
1999 1822 -1.000000000000000e+00
1999 1999 5.196116134524345e+00
2000 571 -1.000000000000000e+00
2000 1066 -1.000000000000000e+00
2000 1864 -1.000000000000000e+00
2000 2000 6.277350097894669e+00
2001 10 -1.000000000000000e+00
2001 317 -1.000000000000000e+00
2001 1330 -1.000000000000000e+00
2001 2001 4.149071201682091e+00
2002 55 -1.000000000000000e+00
2002 1504 -1.000000000000000e+00
2002 1992 -1.000000000000000e+00
2002 2002 5.000000000000000e+00
2003 337 -1.000000000000000e+00
2003 496 -1.000000000000000e+00
2003 695 -1.000000000000000e+00
2003 2003 4.000000000000000e+00
2004 819 -1.000000000000000e+00
2004 1123 -1.000000000000000e+00
2004 1747 -1.000000000000000e+00
2004 2004 3.000000000000000e+00
2005 21 -1.000000000000000e+00
2005 141 -9.805806726217270e-02
2005 451 -1.000000000000000e+00
2005 546 -1.000000000000000e+00
2005 2005 3.196116134524345e+00
2006 24 -1.000000000000000e+00
2006 598 -1.000000000000000e+00
2006 1824 -1.000000000000000e+00
2006 2006 3.000000000000000e+00
2007 284 -1.000000000000000e+00
2007 576 -1.000000000000000e+00
2007 1189 -1.000000000000000e+00
2007 2007 4.000000000000000e+00
2008 4 -1.000000000000000e+00
2008 90 -1.000000000000000e+00
2008 332 -1.000000000000000e+00
2008 2008 4.160128161311150e+00
2009 330 -1.000000000000000e+00
2009 757 -1.000000000000000e+00
2009 1224 -4.103913307189941e-01
2009 1600 -1.000000000000000e+00
2009 1950 -1.754115968942642e-01
2009 2009 3.585802927613258e+00
2010 15 -1.000000000000000e+00
2010 667 -1.000000000000000e+00
2010 1084 -1.000000000000000e+00
2010 2010 5.107211254537106e+00
2011 118 -1.000000000000000e+00
2011 1590 -1.000000000000000e+00
2011 1844 -1.000000000000000e+00
2011 2011 8.000000000000000e+00
2012 1301 -1.000000000000000e+00
2012 1499 -1.000000000000000e+00
2012 1883 -1.000000000000000e+00
2012 2012 4.000000000000000e+00
2013 8 -1.000000000000000e+00
2013 15 -1.000000000000000e+00
2013 57 -1.000000000000000e+00
2013 2013 3.000000000000000e+00
2014 34 -1.000000000000000e+00
2014 317 -1.000000000000000e+00
2014 434 -1.000000000000000e+00
2014 2014 5.453741475939751e+00
2015 1 -1.000000000000000e+00
2015 87 -1.216930463910103e+00
2015 253 -1.200000002980232e+00
2015 2015 4.311357647180557e+00
2016 167 -1.000000000000000e+00
2016 218 -1.000000000000000e+00
2016 1130 -1.000000000000000e+00
2016 2016 3.000000000000000e+00
2017 103 -1.000000000000000e+00
2017 974 -1.000000000000000e+00
2017 1653 -1.000000000000000e+00
2017 2017 6.000000000000000e+00
2018 51 -1.000000000000000e+00
2018 1468 -1.000000000000000e+00
2018 1778 -1.000000000000000e+00
2018 2018 5.115470044314861e+00
2019 6 -1.000000000000000e+00
2019 347 -1.000000000000000e+00
2019 1106 -1.000000000000000e+00
2019 1282 -2.108185142278671e-01
2019 1642 -1.666666865348816e-01
2019 2019 5.377485200762749e+00
2020 256 -1.000000000000000e+00
2020 868 -1.000000000000000e+00
2020 1528 -1.000000000000000e+00
2020 2020 4.000000000000000e+00
2021 1 -1.000000000000000e+00
2021 7 -1.000000000000000e+00
2021 1201 -1.000000000000000e+00
2021 2021 4.000000000000000e+00
2022 9 -1.000000000000000e+00
2022 24 -1.000000000000000e+00
2022 530 -1.000000000000000e+00
2022 2022 9.371116027235985e+00
2023 393 -1.000000000000000e+00
2023 777 -1.000000000000000e+00
2023 1035 -1.000000000000000e+00
2023 2023 4.000000000000000e+00
2024 139 -1.000000000000000e+00
2024 371 -1.000000000000000e+00
2024 688 -1.000000000000000e+00
2024 2024 6.175411596894264e+00
2025 111 -1.000000000000000e+00
2025 140 -1.000000000000000e+00
2025 1933 -1.000000000000000e+00
2025 2025 5.000000000000000e+00
2026 808 -1.000000000000000e+00
2026 1198 -1.000000000000000e+00
2026 1530 -1.000000000000000e+00
2026 2026 4.416732877492905e+00
2027 19 -1.000000000000000e+00
2027 61 -1.000000000000000e+00
2027 154 -2.113409936428070e-01
2027 1059 -1.000000000000000e+00
2027 1730 -2.641979753971100e-01
2027 2027 4.475538969039917e+00
2028 24 -1.000000000000000e+00
2028 363 -1.000000000000000e+00
2028 513 -1.000000000000000e+00
2028 2028 5.000000000000000e+00
2029 56 -1.000000000000000e+00
2029 730 -1.000000000000000e+00
2029 887 -1.000000000000000e+00
2029 2029 4.000000000000000e+00
2030 440 -1.000000000000000e+00
2030 755 -1.000000000000000e+00
2030 2003 -1.000000000000000e+00
2030 2030 3.000000000000000e+00
2031 5 -1.000000000000000e+00
2031 441 -1.192450091242790e+00
2031 1638 -1.000000000000000e+00
2031 1780 -4.714044928550720e-01
2031 2031 4.818157941102982e+00
2032 8 -1.000000000000000e+00
2032 172 -1.000000000000000e+00
2032 894 -1.000000000000000e+00
2032 2032 5.000000000000000e+00
2033 7 -1.000000000000000e+00
2033 26 -1.000000000000000e+00
2033 123 -1.000000000000000e+00
2033 1493 -2.390456944704056e-01
2033 2033 4.239045694470406e+00
2034 39 -1.138675048947334e+00
2034 513 -1.961161345243454e-01
2034 1243 -1.000000000000000e+00
2034 1482 -1.000000000000000e+00
2034 2034 3.480656176805496e+00
2035 5 -1.000000000000000e+00
2035 13 -1.000000000000000e+00
2035 180 -4.364358186721802e-01
2035 1385 -1.000000000000000e+00
2035 2035 3.814400315284729e+00
2036 401 -1.000000000000000e+00
2036 510 -1.000000000000000e+00
2036 576 -1.000000000000000e+00
2036 2036 5.093658573925495e+00
2037 1 -1.000000000000000e+00
2037 522 -1.000000000000000e+00
2037 1692 -1.000000000000000e+00
2037 2037 5.000000000000000e+00
2038 178 -1.000000000000000e+00
2038 879 -1.000000000000000e+00
2038 1697 -1.000000000000000e+00
2038 2038 3.000000000000000e+00
2039 176 -1.110096372663975e+00
2039 250 -1.118033975362778e-01
2039 1801 -1.000000000000000e+00
2039 1972 -1.000000000000000e+00
2039 2039 4.621899776160717e+00
2040 408 -1.000000000000000e+00
2040 946 -1.000000000000000e+00
2040 1475 -1.000000000000000e+00
2040 2040 5.074535593390465e+00
2041 1289 -1.000000000000000e+00
2041 1362 -1.000000000000000e+00
2041 1869 -1.000000000000000e+00
2041 2041 4.000000000000000e+00
2042 424 -1.000000000000000e+00
2042 618 -1.000000000000000e+00
2042 1509 -1.000000000000000e+00
2042 2042 5.000000000000000e+00
2043 81 -1.000000000000000e+00
2043 785 -1.055048186331987e+00
2043 884 -1.000000000000000e+00
2043 1123 -2.513123452663422e-01
2043 2043 3.306360531598330e+00
2044 8 -1.000000000000000e+00
2044 209 -1.825741827487946e-01
2044 305 -1.000000000000000e+00
2044 1063 -1.000000000000000e+00
2044 2044 3.182574182748795e+00
2045 266 -1.000000000000000e+00
2045 557 -9.128709137439728e-02
2045 1309 -1.000000000000000e+00
2045 1432 -1.000000000000000e+00
2045 2045 5.091287091374397e+00
2046 123 -1.000000000000000e+00
2046 179 -1.000000000000000e+00
2046 250 -1.000000000000000e+00
2046 2046 3.000000000000000e+00
2047 27 -1.000000000000000e+00
2047 491 -1.000000000000000e+00
2047 555 -1.000000000000000e+00
2047 2047 6.000000000000000e+00
2048 8 -1.000000000000000e+00
2048 171 -1.000000000000000e+00
2048 525 -1.000000000000000e+00
2048 2048 3.000000000000000e+00
2049 38 -1.000000000000000e+00
2049 90 -1.000000000000000e+00
2049 273 -1.000000000000000e+00
2049 2049 6.000000000000000e+00
2050 98 -1.000000000000000e+00
2050 888 -1.000000000000000e+00
2050 1800 -1.084515422582626e+00
2050 2050 3.084515422582626e+00
2051 1341 -1.000000000000000e+00
2051 1439 -1.000000000000000e+00
2051 1707 -1.000000000000000e+00
2051 2051 3.000000000000000e+00
2052 702 -1.129099443554878e+00
2052 1615 -1.000000000000000e+00
2052 1778 -1.000000000000000e+00
2052 2052 6.129099443554878e+00
2053 25 -1.000000000000000e+00
2053 606 -1.000000000000000e+00
2053 616 -1.000000000000000e+00
2053 1813 -2.581988871097565e-01
2053 2053 4.556341290473938e+00
2054 28 -1.000000000000000e+00
2054 197 -1.000000000000000e+00
2054 1658 -1.000000000000000e+00
2054 2054 4.000000000000000e+00
2055 39 -1.000000000000000e+00
2055 573 -1.000000000000000e+00
2055 590 -3.380617201328278e-01
2055 634 -3.779644966125488e-01
2055 1794 -1.000000000000000e+00
2055 2055 4.716026216745377e+00
2056 6 -1.000000000000000e+00
2056 24 -1.000000000000000e+00
2056 1345 -1.000000000000000e+00
2056 2056 4.000000000000000e+00
2057 169 -1.000000000000000e+00
2057 989 -1.000000000000000e+00
2057 1748 -1.000000000000000e+00
2057 2057 3.383424177765846e+00
2058 1139 -1.000000000000000e+00
2058 1243 -1.000000000000000e+00
2058 1527 -1.000000000000000e+00
2058 2034 -1.458649933338165e-01
2058 2058 4.384061515331268e+00
2059 8 -1.000000000000000e+00
2059 264 -1.000000000000000e+00
2059 993 -2.530855238437653e-01
2059 1011 -1.210818499326706e+00
2059 2059 6.722102910280228e+00
2060 729 -1.000000000000000e+00
2060 1448 -1.000000000000000e+00
2060 1688 -1.239045724272728e+00
2060 2060 3.577107444405556e+00
2061 11 -1.000000000000000e+00
2061 35 -1.000000000000000e+00
2061 330 -1.000000000000000e+00
2061 2061 3.000000000000000e+00
2062 216 -1.000000000000000e+00
2062 593 -1.000000000000000e+00
2062 833 -1.000000000000000e+00
2062 1429 -2.785430252552032e-01
2062 2062 4.528543055057526e+00
2063 6 -1.000000000000000e+00
2063 158 -1.000000000000000e+00
2063 1422 -1.277350097894669e+00
2063 2063 4.421687662601471e+00
2064 5 -1.000000000000000e+00
2064 634 -1.000000000000000e+00
2064 1455 -1.000000000000000e+00
2064 2064 5.522591665387154e+00
2065 148 -1.000000000000000e+00
2065 159 -1.000000000000000e+00
2065 367 -1.000000000000000e+00
2065 2065 5.341550394892693e+00
2066 317 -1.000000000000000e+00
2066 1440 -1.000000000000000e+00
2066 1797 -1.000000000000000e+00
2066 2066 8.182574182748795e+00
2067 492 -1.000000000000000e+00
2067 1560 -1.000000000000000e+00
2067 1711 -1.000000000000000e+00
2067 2067 5.000000000000000e+00
2068 814 -1.000000000000000e+00
2068 1528 -1.000000000000000e+00
2068 1823 -2.711630761623383e-01
2068 2049 -1.000000000000000e+00
2068 2068 3.440193936228752e+00
2069 100 -1.000000000000000e+00
2069 1137 -1.000000000000000e+00
2069 1869 -1.000000000000000e+00
2069 2069 3.000000000000000e+00
2070 312 -1.000000000000000e+00
2070 412 -1.000000000000000e+00
2070 1747 -1.000000000000000e+00
2070 2070 4.000000000000000e+00
2071 167 -1.000000000000000e+00
2071 1256 -1.000000000000000e+00
2071 1845 -1.000000000000000e+00
2071 2071 4.087705798447132e+00
2072 118 -1.000000000000000e+00
2072 1167 -1.000000000000000e+00
2072 1432 -1.162476390600204e-01
2072 1558 -2.324952781200409e-01
2072 1820 -1.000000000000000e+00
2072 2072 6.348742917180061e+00
2073 459 -1.000000000000000e+00
2073 496 -1.000000000000000e+00
2073 1505 -1.000000000000000e+00
2073 2073 4.370790824294090e+00
2074 680 -1.000000000000000e+00
2074 925 -1.000000000000000e+00
2074 1100 -1.000000000000000e+00
2074 2074 5.000000000000000e+00
2075 435 -1.000000000000000e+00
2075 1461 -1.000000000000000e+00
2075 1799 -1.000000000000000e+00
2075 2075 3.000000000000000e+00
2076 12 -1.000000000000000e+00
2076 13 -1.000000000000000e+00
2076 1213 -1.000000000000000e+00
2076 2076 3.489138975739479e+00
2077 146 -1.000000000000000e+00
2077 864 -1.000000000000000e+00
2077 890 -1.000000000000000e+00
2077 2077 3.000000000000000e+00
2078 324 -1.000000000000000e+00
2078 451 -1.000000000000000e+00
2078 1129 -1.000000000000000e+00
2078 2078 3.000000000000000e+00
2079 30 -1.000000000000000e+00
2079 215 -1.000000000000000e+00
2079 415 -3.354101777076721e-01
2079 1179 -1.000000000000000e+00
2079 2079 3.971205592155457e+00
2080 36 -1.000000000000000e+00
2080 871 -1.086710989475250e+00
2080 1541 -1.000000000000000e+00
2080 2080 5.203353367745876e+00
2081 82 -1.000000000000000e+00
2081 92 -1.000000000000000e+00
2081 1493 -1.000000000000000e+00
2081 1675 -2.309401184320450e-01
2081 2081 5.230940118432045e+00
2082 522 -1.000000000000000e+00
2082 697 -1.000000000000000e+00
2082 1506 -1.000000000000000e+00
2082 2082 3.176776692271233e+00
2083 107 -1.000000000000000e+00
2083 736 -1.000000000000000e+00
2083 1225 -1.000000000000000e+00
2083 2083 3.000000000000000e+00
2084 2 -1.000000000000000e+00
2084 5 -1.000000000000000e+00
2084 98 -1.000000000000000e+00
2084 1517 -2.773500978946686e-01
2084 2084 4.554700195789337e+00
2085 48 -1.000000000000000e+00
2085 780 -1.000000000000000e+00
2085 1054 -1.336306184530258e-01
2085 1630 -1.000000000000000e+00
2085 2085 5.133630618453026e+00
2086 29 -1.000000000000000e+00
2086 118 -1.000000000000000e+00
2086 372 -1.000000000000000e+00
2086 2086 5.000000000000000e+00
2087 21 -1.000000000000000e+00
2087 219 -1.000000000000000e+00
2087 609 -1.000000000000000e+00
2087 2087 3.144337564706802e+00
2088 5 -1.000000000000000e+00
2088 590 -1.000000000000000e+00
2088 863 -1.000000000000000e+00
2088 2088 4.000000000000000e+00
2089 757 -1.000000000000000e+00
2089 1016 -1.000000000000000e+00
2089 1515 -1.000000000000000e+00
2089 2089 4.000000000000000e+00
2090 613 -1.000000000000000e+00
2090 867 -1.000000000000000e+00
2090 1316 -1.000000000000000e+00
2090 2090 6.096225045621395e+00
2091 13 -1.000000000000000e+00
2091 198 -1.000000000000000e+00
2091 278 -2.541642785072327e-01
2091 1564 -1.000000000000000e+00
2091 2091 5.779947713017464e+00
2092 17 -1.000000000000000e+00
2092 20 -1.000000000000000e+00
2092 67 -1.000000000000000e+00
2092 617 -4.472135901451111e-01
2092 2092 3.670820385217667e+00
2093 77 -1.000000000000000e+00
2093 381 -1.053376052528620e+00
2093 727 -1.000000000000000e+00
2093 2093 4.096172098070383e+00
2094 39 -1.000000000000000e+00
2094 207 -1.000000000000000e+00
2094 1593 -1.250000029802322e+00
2094 2094 4.408113911747932e+00
2095 219 -1.000000000000000e+00
2095 302 -1.000000000000000e+00
2095 703 -1.000000000000000e+00
2095 2095 3.000000000000000e+00
2096 254 -1.000000000000000e+00
2096 1095 -1.000000000000000e+00
2096 1561 -1.344725161790848e+00
2096 2096 4.344725161790848e+00
2097 330 -1.000000000000000e+00
2097 597 -1.000000000000000e+00
2097 962 -1.666666865348816e-01
2097 1557 -1.150755673646927e+00
2097 2097 3.317422360181808e+00
2098 214 -1.000000000000000e+00
2098 890 -1.000000000000000e+00
2098 898 -7.273930311203003e-02
2098 1979 -1.000000000000000e+00
2098 2098 5.151306718587875e+00
2099 13 -1.000000000000000e+00
2099 313 -1.000000000000000e+00
2099 1321 -1.000000000000000e+00
2099 2099 3.000000000000000e+00
2100 6 -1.000000000000000e+00
2100 332 -1.000000000000000e+00
2100 412 -1.000000000000000e+00
2100 2100 6.134231194853783e+00
2101 7 -1.000000000000000e+00
2101 23 -1.000000000000000e+00
2101 1757 -1.000000000000000e+00
2101 2101 5.476731285452843e+00
2102 10 -1.000000000000000e+00
2102 485 -1.000000000000000e+00
2102 1999 -1.000000000000000e+00
2102 2102 7.325278416275978e+00
2103 169 -1.000000000000000e+00
2103 1045 -1.000000000000000e+00
2103 1577 -1.000000000000000e+00
2103 2103 3.000000000000000e+00
2104 26 -1.000000000000000e+00
2104 156 -1.000000000000000e+00
2104 370 -1.000000000000000e+00
2104 2104 9.249430388212204e+00
2105 82 -1.000000000000000e+00
2105 683 -1.313064396381378e-01
2105 730 -1.000000000000000e+00
2105 1063 -1.443375647068024e-01
2105 1189 -1.000000000000000e+00
2105 2105 7.275644004344940e+00
2106 163 -1.000000000000000e+00
2106 1786 -1.000000000000000e+00
2106 2045 -1.000000000000000e+00
2106 2106 7.000000000000000e+00
2107 5 -1.000000000000000e+00
2107 1648 -1.000000000000000e+00
2107 1734 -1.000000000000000e+00
2107 2107 7.000000000000000e+00
2108 151 -1.000000000000000e+00
2108 961 -1.000000000000000e+00
2108 1267 -1.000000000000000e+00
2108 2108 4.000000000000000e+00
2109 13 -1.000000000000000e+00
2109 15 -1.000000000000000e+00
2109 1435 -1.000000000000000e+00
2109 2109 3.000000000000000e+00
2110 8 -1.000000000000000e+00
2110 875 -1.000000000000000e+00
2110 1546 -1.000000000000000e+00
2110 2110 3.000000000000000e+00
2111 149 -1.338061720132828e+00
2111 398 -1.000000000000000e+00
2111 1375 -1.000000000000000e+00
2111 2111 3.558626100420952e+00
2112 96 -1.000000000000000e+00
2112 606 -1.000000000000000e+00
2112 1091 -1.000000000000000e+00
2112 2112 5.000000000000000e+00
2113 141 -1.000000000000000e+00
2113 1832 -1.000000000000000e+00
2113 2001 -1.000000000000000e+00
2113 2113 4.000000000000000e+00
2114 993 -2.100420147180557e-01
2114 1076 -1.000000000000000e+00
2114 1220 -1.000000000000000e+00
2114 2059 -1.258198887109756e+00
2114 2114 3.468240901827812e+00
2115 411 -1.000000000000000e+00
2115 439 -1.000000000000000e+00
2115 1574 -1.000000000000000e+00
2115 2115 3.000000000000000e+00
2116 96 -1.000000000000000e+00
2116 171 -1.000000000000000e+00
2116 249 -1.000000000000000e+00
2116 2116 4.084215193986893e+00
2117 7 -1.000000000000000e+00
2117 82 -1.000000000000000e+00
2117 1080 -1.000000000000000e+00
2117 2117 3.387298315763474e+00
2118 31 -1.000000000000000e+00
2118 364 -1.000000000000000e+00
2118 921 -1.000000000000000e+00
2118 2118 4.000000000000000e+00
2119 5 -1.000000000000000e+00
2119 301 -1.000000000000000e+00
2119 1972 -1.000000000000000e+00
2119 2119 3.077849894762039e+00
2120 138 -1.192450091242790e+00
2120 297 -1.000000000000000e+00
2120 613 -1.666666716337204e-01
2120 1500 -1.000000000000000e+00
2120 2120 3.482208251953125e+00
2121 165 -1.000000000000000e+00
2121 534 -1.000000000000000e+00
2121 720 -1.000000000000000e+00
2121 2121 4.000000000000000e+00
2122 16 -1.000000000000000e+00
2122 82 -1.000000000000000e+00
2122 1148 -1.000000000000000e+00
2122 2122 3.000000000000000e+00
2123 100 -1.000000000000000e+00
2123 1909 -1.000000000000000e+00
2123 2084 -1.000000000000000e+00
2123 2123 6.071066908538342e+00
2124 100 -1.000000000000000e+00
2124 350 -1.000000000000000e+00
2124 548 -1.000000000000000e+00
2124 2124 3.000000000000000e+00
2125 156 -1.000000000000000e+00
2125 544 -1.000000000000000e+00
2125 940 -1.000000000000000e+00
2125 2125 5.000000000000000e+00
2126 280 -1.000000000000000e+00
2126 305 -1.000000000000000e+00
2126 393 -1.042333375662565e+00
2126 1886 -1.666666865348816e-01
2126 2126 3.209000062197447e+00
2127 168 -1.000000000000000e+00
2127 488 -1.000000000000000e+00
2127 1499 -1.348399817943573e-01
2127 1612 -2.236067950725555e-01
2127 2012 -1.000000000000000e+00
2127 2127 8.358446776866913e+00
2128 230 -1.000000000000000e+00
2128 665 -1.000000000000000e+00
2128 1435 -1.000000000000000e+00
2128 2128 4.119522862136364e+00
2129 199 -1.000000000000000e+00
2129 657 -1.000000000000000e+00
2129 940 -1.000000000000000e+00
2129 2129 4.000000000000000e+00
2130 26 -1.000000000000000e+00
2130 476 -1.000000000000000e+00
2130 1873 -1.000000000000000e+00
2130 2130 4.000000000000000e+00
2131 139 -1.000000000000000e+00
2131 248 -1.000000000000000e+00
2131 1576 -1.000000000000000e+00
2131 2131 4.000000000000000e+00
2132 148 -1.000000000000000e+00
2132 895 -1.000000000000000e+00
2132 1160 -1.000000000000000e+00
2132 2132 3.182574182748795e+00
2133 33 -1.000000000000000e+00
2133 273 -1.174077659845352e+00
2133 424 -1.000000000000000e+00
2133 1405 -2.075143307447433e-01
2133 2133 7.381591990590096e+00
2134 879 -1.000000000000000e+00
2134 944 -1.000000000000000e+00
2134 1625 -1.000000000000000e+00
2134 2134 3.000000000000000e+00
2135 2 -1.000000000000000e+00
2135 1793 -1.000000000000000e+00
2135 2105 -1.000000000000000e+00
2135 2135 8.000000000000000e+00
2136 376 -1.000000000000000e+00
2136 453 -1.000000000000000e+00
2136 958 -1.000000000000000e+00
2136 1875 -1.336306184530258e-01
2136 2136 3.133630618453026e+00
2137 1211 -1.000000000000000e+00
2137 1686 -1.000000000000000e+00
2137 1705 -1.000000000000000e+00
2137 2137 5.000000000000000e+00
2138 47 -1.000000000000000e+00
2138 126 -1.204124152660370e+00
2138 1206 -1.000000000000000e+00
2138 2138 5.204124152660370e+00
2139 5 -1.000000000000000e+00
2139 94 -1.000000000000000e+00
2139 641 -1.000000000000000e+00
2139 1361 -1.875000000000000e-01
2139 2139 8.844904631376266e+00
2140 429 -1.000000000000000e+00
2140 1024 -1.000000000000000e+00
2140 1505 -1.000000000000000e+00
2140 2140 6.171498596668243e+00
2141 11 -1.000000000000000e+00
2141 310 -1.000000000000000e+00
2141 499 -1.000000000000000e+00
2141 2141 3.000000000000000e+00
2142 152 -1.000000000000000e+00
2142 667 -1.000000000000000e+00
2142 2023 -1.000000000000000e+00
2142 2142 3.000000000000000e+00
2143 76 -1.000000000000000e+00
2143 789 -1.000000000000000e+00
2143 826 -4.364358186721802e-01
2143 1699 -1.000000000000000e+00
2143 2143 4.436435818672180e+00
2144 41 -1.000000000000000e+00
2144 484 -1.000000000000000e+00
2144 1898 -1.000000000000000e+00
2144 2144 4.000000000000000e+00
2145 157 -1.000000000000000e+00
2145 307 -1.000000000000000e+00
2145 1232 -1.000000000000000e+00
2145 2145 6.188982248306274e+00
2146 26 -1.000000000000000e+00
2146 234 -1.000000000000000e+00
2146 1290 -1.000000000000000e+00
2146 2146 3.158113881945610e+00
2147 17 -1.000000000000000e+00
2147 574 -1.000000000000000e+00
2147 2024 -1.000000000000000e+00
2147 2147 4.634003549814224e+00
2148 560 -1.000000000000000e+00
2148 582 -1.000000000000000e+00
2148 1425 -1.000000000000000e+00
2148 2148 5.000000000000000e+00
2149 78 -1.000000000000000e+00
2149 1432 -1.000000000000000e+00
2149 2052 -1.000000000000000e+00
2149 2149 3.000000000000000e+00
2150 1022 -1.000000000000000e+00
2150 1322 -1.000000000000000e+00
2150 1502 -1.000000000000000e+00
2150 2150 3.000000000000000e+00
2151 76 -1.000000000000000e+00
2151 389 -1.000000000000000e+00
2151 678 -1.000000000000000e+00
2151 2151 4.166666671633720e+00
2152 1 -1.000000000000000e+00
2152 266 -1.291042745113373e+00
2152 1828 -1.000000000000000e+00
2152 2152 5.454342052340508e+00
2153 448 -1.000000000000000e+00
2153 1595 -1.000000000000000e+00
2153 1815 -1.000000000000000e+00
2153 2153 7.000000000000000e+00
2154 122 -1.000000000000000e+00
2154 701 -1.000000000000000e+00
2154 1442 -1.000000000000000e+00
2154 2154 5.000000000000000e+00
2155 20 -1.000000000000000e+00
2155 330 -1.000000000000000e+00
2155 779 -1.000000000000000e+00
2155 2155 3.000000000000000e+00
2156 8 -1.000000000000000e+00
2156 27 -1.000000000000000e+00
2156 1905 -1.000000000000000e+00
2156 2156 5.000000000000000e+00
2157 148 -1.072168782353401e+00
2157 744 -1.000000000000000e+00
2157 1273 -1.000000000000000e+00
2157 2157 5.072168782353401e+00
2158 26 -1.000000000000000e+00
2158 185 -1.000000000000000e+00
2158 1791 -1.000000000000000e+00
2158 2158 4.000000000000000e+00
2159 571 -1.201007559895515e+00
2159 707 -1.000000000000000e+00
2159 744 -1.000000000000000e+00
2159 2159 7.608574777841568e+00
2160 987 -1.000000000000000e+00
2160 1160 -1.000000000000000e+00
2160 1806 -1.000000000000000e+00
2160 2160 4.447213560342789e+00
2161 34 -1.000000000000000e+00
2161 298 -1.000000000000000e+00
2161 802 -1.000000000000000e+00
2161 926 -1.091089397668839e-01
2161 2161 5.109108939766884e+00
2162 50 -1.000000000000000e+00
2162 68 -1.000000000000000e+00
2162 96 -1.000000000000000e+00
2162 2162 5.000000000000000e+00
2163 1043 -1.000000000000000e+00
2163 1392 -1.000000000000000e+00
2163 1941 -1.000000000000000e+00
2163 2163 4.000000000000000e+00
2164 114 -1.000000000000000e+00
2164 275 -1.000000000000000e+00
2164 280 -1.000000000000000e+00
2164 2164 3.000000000000000e+00
2165 239 -1.000000000000000e+00
2165 575 -1.000000000000000e+00
2165 1455 -1.000000000000000e+00
2165 2165 3.000000000000000e+00
2166 9 -1.000000000000000e+00
2166 34 -1.000000000000000e+00
2166 809 -1.000000000000000e+00
2166 1371 -1.740776449441910e-01
2166 2166 3.174077644944191e+00
2167 571 -1.000000000000000e+00
2167 1254 -1.000000000000000e+00
2167 1458 -5.773502215743065e-02
2167 1949 -1.000000000000000e+00
2167 2167 4.057735022157431e+00
2168 62 -1.000000000000000e+00
2168 112 -1.000000000000000e+00
2168 679 -1.000000000000000e+00
2168 2168 6.102062076330185e+00
2169 836 -1.000000000000000e+00
2169 914 -1.000000000000000e+00
2169 1449 -1.000000000000000e+00
2169 2169 4.117851123213768e+00
2170 43 -1.000000000000000e+00
2170 1341 -1.125988155603409e+00
2170 2036 -1.000000000000000e+00
2170 2170 3.125988155603409e+00
2171 1 -1.000000000000000e+00
2171 432 -1.000000000000000e+00
2171 556 -2.683281600475311e-01
2171 950 -1.000000000000000e+00
2171 1791 -1.290994435548782e-01
2171 2171 4.397427603602409e+00
2172 292 -1.000000000000000e+00
2172 964 -1.082478612661362e+00
2172 1872 -1.000000000000000e+00
2172 2172 3.082478612661362e+00
2173 648 -1.000000000000000e+00
2173 829 -1.000000000000000e+00
2173 1403 -1.000000000000000e+00
2173 2173 4.000000000000000e+00
2174 11 -1.000000000000000e+00
2174 92 -1.000000000000000e+00
2174 1372 -1.000000000000000e+00
2174 2174 5.000000000000000e+00
2175 234 -1.000000000000000e+00
2175 707 -1.000000000000000e+00
2175 1712 -1.000000000000000e+00
2175 2175 5.000000000000000e+00
2176 7 -1.000000000000000e+00
2176 9 -1.000000000000000e+00
2176 818 -1.000000000000000e+00
2176 2176 3.268728725612164e+00
2177 287 -1.000000000000000e+00
2177 339 -1.000000000000000e+00
2177 619 -1.000000000000000e+00
2177 2177 3.000000000000000e+00
2178 378 -1.000000000000000e+00
2178 1076 -1.000000000000000e+00
2178 1797 -1.000000000000000e+00
2178 2178 6.127000123262405e+00
2179 171 -1.336306184530258e-01
2179 243 -1.000000000000000e+00
2179 431 -3.872983157634735e-01
2179 547 -1.000000000000000e+00
2179 1047 -1.000000000000000e+00
2179 2179 6.520928934216499e+00
2180 798 -1.000000000000000e+00
2180 1425 -1.000000000000000e+00
2180 1472 -1.000000000000000e+00
2180 2180 3.000000000000000e+00
2181 420 -1.000000000000000e+00
2181 443 -1.000000000000000e+00
2181 688 -1.690308600664139e-01
2181 1878 -1.000000000000000e+00
2181 2181 3.169030860066414e+00
2182 200 -1.000000000000000e+00
2182 1143 -1.000000000000000e+00
2182 1271 -1.000000000000000e+00
2182 2182 4.000000000000000e+00
2183 346 -1.000000000000000e+00
2183 753 -1.000000000000000e+00
2183 1168 -1.000000000000000e+00
2183 2183 4.000000000000000e+00
2184 329 -1.000000000000000e+00
2184 445 -1.000000000000000e+00
2184 1230 -1.000000000000000e+00
2184 2184 4.000000000000000e+00
2185 363 -1.000000000000000e+00
2185 568 -1.000000000000000e+00
2185 1484 -1.160128146409988e+00
2185 2185 4.160128146409988e+00
2186 72 -1.000000000000000e+00
2186 221 -1.873171478509903e-01
2186 1590 -1.000000000000000e+00
2186 1785 -1.000000000000000e+00
2186 2186 5.187317147850990e+00
2187 282 -1.000000000000000e+00
2187 432 -1.000000000000000e+00
2187 1871 -1.000000000000000e+00
2187 2187 4.000000000000000e+00
2188 153 -1.000000000000000e+00
2188 675 -1.000000000000000e+00
2188 847 -1.000000000000000e+00
2188 2188 4.000000000000000e+00
2189 8 -1.000000000000000e+00
2189 23 -1.000000000000000e+00
2189 174 -1.000000000000000e+00
2189 2189 4.000000000000000e+00
2190 26 -1.000000000000000e+00
2190 343 -1.000000000000000e+00
2190 2106 -1.000000000000000e+00
2190 2190 4.176776692271233e+00
2191 435 -1.000000000000000e+00
2191 1028 -1.000000000000000e+00
2191 1415 -8.333332836627960e-02
2191 1795 -1.000000000000000e+00
2191 2191 4.227670893073082e+00
2192 19 -1.000000000000000e+00
2192 870 -1.000000000000000e+00
2192 1525 -1.000000000000000e+00
2192 2192 3.000000000000000e+00
2193 229 -1.000000000000000e+00
2193 942 -1.000000000000000e+00
2193 1968 -1.000000000000000e+00
2193 2193 4.000000000000000e+00
2194 318 -1.000000000000000e+00
2194 392 -1.507556736469269e-01
2194 506 -1.000000000000000e+00
2194 544 -1.000000000000000e+00
2194 862 -2.357022762298584e-01
2194 2194 5.386457949876785e+00
2195 84 -1.000000000000000e+00
2195 1364 -1.000000000000000e+00
2195 1593 -1.000000000000000e+00
2195 2195 4.000000000000000e+00
2196 12 -1.000000000000000e+00
2196 1126 -1.000000000000000e+00
2196 1134 -1.000000000000000e+00
2196 2196 3.000000000000000e+00
2197 200 -1.000000000000000e+00
2197 946 -1.000000000000000e+00
2197 1213 -1.000000000000000e+00
2197 2197 6.000000000000000e+00
2198 369 -1.000000000000000e+00
2198 751 -1.000000000000000e+00
2198 1496 -1.336306184530258e-01
2198 1528 -1.000000000000000e+00
2198 2198 3.133630618453026e+00
2199 335 -1.000000000000000e+00
2199 418 -1.000000000000000e+00
2199 1576 -1.000000000000000e+00
2199 2199 5.000000000000000e+00
2200 7 -1.000000000000000e+00
2200 24 -1.000000000000000e+00
2200 295 -1.000000000000000e+00
2200 2200 5.000000000000000e+00
2201 75 -1.000000000000000e+00
2201 669 -1.000000000000000e+00
2201 2085 -1.000000000000000e+00
2201 2201 4.000000000000000e+00
2202 732 -1.000000000000000e+00
2202 1657 -1.000000000000000e+00
2202 1688 -1.000000000000000e+00
2202 2202 4.000000000000000e+00
2203 7 -1.000000000000000e+00
2203 185 -1.000000000000000e+00
2203 634 -1.000000000000000e+00
2203 2203 4.639977410435677e+00
2204 310 -1.000000000000000e+00
2204 634 -1.000000000000000e+00
2204 1515 -1.000000000000000e+00
2204 2204 4.258198887109756e+00
2205 5 -1.000000000000000e+00
2205 43 -1.000000000000000e+00
2205 1804 -2.931977510452271e-01
2205 1813 -3.162277638912201e-01
2205 1880 -1.000000000000000e+00
2205 2205 3.925653278827667e+00
2206 100 -1.000000000000000e+00
2206 424 -1.000000000000000e+00
2206 1578 -1.000000000000000e+00
2206 2206 4.223606795072556e+00
2207 51 -1.000000000000000e+00
2207 104 -1.000000000000000e+00
2207 1176 -1.203858479857445e-01
2207 1375 -1.074535593390465e+00
2207 2207 4.194921441376209e+00
2208 383 -1.000000000000000e+00
2208 1131 -1.000000000000000e+00
2208 1815 -1.000000000000000e+00
2208 2208 7.000000000000000e+00
2209 17 -1.000000000000000e+00
2209 390 -1.000000000000000e+00
2209 1777 -1.163663432002068e+00
2209 2209 5.367787584662437e+00
2210 946 -1.000000000000000e+00
2210 1297 -1.000000000000000e+00
2210 1345 -1.000000000000000e+00
2210 2210 3.069006547331810e+00
2211 124 -1.000000000000000e+00
2211 379 -1.000000000000000e+00
2211 531 -1.000000000000000e+00
2211 2211 5.000000000000000e+00
2212 19 -1.000000000000000e+00
2212 621 -1.000000000000000e+00
2212 1119 -1.000000000000000e+00
2212 2212 6.000000000000000e+00
2213 44 -1.000000000000000e+00
2213 740 -1.000000000000000e+00
2213 2091 -1.000000000000000e+00
2213 2213 4.000000000000000e+00
2214 441 -1.000000000000000e+00
2214 611 -1.000000000000000e+00
2214 1131 -1.000000000000000e+00
2214 2214 3.182574182748795e+00
2215 459 -1.000000000000000e+00
2215 535 -1.000000000000000e+00
2215 557 -1.000000000000000e+00
2215 907 -1.825741827487946e-01
2215 999 -2.073903381824493e-01
2215 2215 3.389964520931244e+00
2216 184 -1.000000000000000e+00
2216 487 -1.000000000000000e+00
2216 562 -1.000000000000000e+00
2216 2216 3.000000000000000e+00
2217 1203 -1.000000000000000e+00
2217 1341 -1.000000000000000e+00
2217 1688 -1.000000000000000e+00
2217 2217 6.000000000000000e+00
2218 23 -1.000000000000000e+00
2218 85 -1.000000000000000e+00
2218 814 -1.000000000000000e+00
2218 2218 3.000000000000000e+00
2219 677 -1.000000000000000e+00
2219 1109 -1.000000000000000e+00
2219 1171 -1.000000000000000e+00
2219 2219 5.000000000000000e+00
2220 30 -1.000000000000000e+00
2220 1108 -1.000000000000000e+00
2220 1913 -4.055535495281219e-01
2220 2123 -1.000000000000000e+00
2220 2220 6.222050160169601e+00
2221 1042 -1.000000000000000e+00
2221 1970 -1.000000000000000e+00
2221 2011 -1.000000000000000e+00
2221 2221 3.000000000000000e+00
2222 23 -1.000000000000000e+00
2222 255 -1.000000000000000e+00
2222 1673 -1.000000000000000e+00
2222 2222 4.000000000000000e+00
2223 487 -1.000000000000000e+00
2223 1565 -1.000000000000000e+00
2223 1638 -1.000000000000000e+00
2223 1955 -1.714985966682434e-01
2223 2223 4.171498596668243e+00
2224 112 -1.000000000000000e+00
2224 317 -1.000000000000000e+00
2224 370 -1.000000000000000e+00
2224 1729 -1.571348458528519e-01
2224 2224 4.249584876000881e+00
2225 57 -1.000000000000000e+00
2225 990 -7.453560084104538e-02
2225 1926 -1.000000000000000e+00
2225 2152 -1.000000000000000e+00
2225 2225 4.074535600841045e+00
2226 302 -1.000000000000000e+00
2226 350 -1.000000000000000e+00
2226 1425 -1.000000000000000e+00
2226 2226 6.129099443554878e+00
2227 119 -1.000000000000000e+00
2227 674 -1.000000000000000e+00
2227 1251 -1.000000000000000e+00
2227 1628 -2.274294048547745e-01
2227 2227 3.320277072489262e+00
2228 5 -1.000000000000000e+00
2228 246 -1.000000000000000e+00
2228 1472 -1.000000000000000e+00
2228 2228 3.000000000000000e+00
2229 45 -1.000000000000000e+00
2229 1526 -1.000000000000000e+00
2229 2011 -1.000000000000000e+00
2229 2203 -2.132007181644440e-01
2229 2229 4.363956391811371e+00
2230 93 -1.000000000000000e+00
2230 727 -1.000000000000000e+00
2230 1061 -1.000000000000000e+00
2230 2230 3.138675048947334e+00
2231 138 -1.000000000000000e+00
2231 408 -1.000000000000000e+00
2231 1173 -1.000000000000000e+00
2231 2231 3.000000000000000e+00
2232 9 -1.000000000000000e+00
2232 294 -1.000000000000000e+00
2232 1090 -1.000000000000000e+00
2232 2232 3.000000000000000e+00
2233 784 -1.000000000000000e+00
2233 835 -1.000000000000000e+00
2233 2116 -1.000000000000000e+00
2233 2233 3.000000000000000e+00
2234 458 -1.000000000000000e+00
2234 1157 -1.000000000000000e+00
2234 1263 -1.000000000000000e+00
2234 2234 3.000000000000000e+00
2235 30 -1.000000000000000e+00
2235 152 -1.000000000000000e+00
2235 807 -1.000000000000000e+00
2235 1887 -1.290994435548782e-01
2235 2235 4.129099443554878e+00
2236 72 -1.000000000000000e+00
2236 289 -1.000000000000000e+00
2236 1415 -1.000000000000000e+00
2236 2236 6.596085280179977e+00
2237 319 -1.000000000000000e+00
2237 581 -1.000000000000000e+00
2237 869 -2.981423735618591e-01
2237 1269 -1.000000000000000e+00
2237 2237 4.572003632783890e+00
2238 176 -1.100963726639748e-01
2238 186 -1.000000000000000e+00
2238 250 -1.000000000000000e+00
2238 809 -1.000000000000000e+00
2238 1801 -1.703885495662689e-01
2238 2039 -4.000000059604645e-01
2238 2238 3.680484928190708e+00
2239 194 -1.000000000000000e+00
2239 476 -1.000000000000000e+00
2239 494 -1.000000000000000e+00
2239 2239 3.000000000000000e+00
2240 149 -1.864109188318253e-01
2240 1425 -1.000000000000000e+00
2240 1602 -1.000000000000000e+00
2240 1904 -1.000000000000000e+00
2240 2111 -2.205643802881241e-01
2240 2240 3.406975299119949e+00
2241 207 -1.000000000000000e+00
2241 455 -1.000000000000000e+00
2241 1062 -1.000000000000000e+00
2241 2241 4.362926796078682e+00
2242 5 -1.000000000000000e+00
2242 9 -1.000000000000000e+00
2242 215 -1.000000000000000e+00
2242 2242 5.000000000000000e+00
2243 7 -1.000000000000000e+00
2243 1242 -1.000000000000000e+00
2243 1615 -1.000000000000000e+00
2243 2243 6.000000000000000e+00
2244 31 -1.000000000000000e+00
2244 1009 -1.290994435548782e-01
2244 1245 -1.000000000000000e+00
2244 1949 -1.000000000000000e+00
2244 2244 5.129099443554878e+00
2245 7 -1.000000000000000e+00
2245 686 -1.000000000000000e+00
2245 888 -1.000000000000000e+00
2245 2245 3.000000000000000e+00
2246 121 -1.000000000000000e+00
2246 215 -3.423683941364288e-01
2246 1892 -1.000000000000000e+00
2246 1939 -2.480694651603699e-01
2246 1946 -1.000000000000000e+00
2246 2246 3.590437859296799e+00
2247 124 -2.541642785072327e-01
2247 451 -1.000000000000000e+00
2247 1965 -1.000000000000000e+00
2247 2178 -1.000000000000000e+00
2247 2247 6.007639408111572e+00
2248 8 -1.000000000000000e+00
2248 49 -2.236067950725555e-01
2248 220 -1.000000000000000e+00
2248 598 -1.000000000000000e+00
2248 1082 -1.507556736469269e-01
2248 2248 5.528665825724602e+00
2249 26 -1.000000000000000e+00
2249 315 -1.000000000000000e+00
2249 744 -1.000000000000000e+00
2249 2249 3.000000000000000e+00
2250 1 -1.000000000000000e+00
2250 236 -1.000000000000000e+00
2250 1502 -1.000000000000000e+00
2250 2250 3.000000000000000e+00
2251 7 -1.000000000000000e+00
2251 8 -1.000000000000000e+00
2251 1052 -1.000000000000000e+00
2251 2251 5.000000000000000e+00
2252 114 -1.000000000000000e+00
2252 482 -1.000000000000000e+00
2252 1988 -1.000000000000000e+00
2252 2252 3.000000000000000e+00
2253 112 -1.000000000000000e+00
2253 440 -1.000000000000000e+00
2253 602 -1.000000000000000e+00
2253 803 -2.041241526603699e-01
2253 2253 4.632870644330978e+00
2254 123 -1.000000000000000e+00
2254 581 -1.000000000000000e+00
2254 1506 -1.000000000000000e+00
2254 2254 3.320256322622299e+00
2255 260 -1.000000000000000e+00
2255 470 -1.000000000000000e+00
2255 2101 -1.095346257090569e+00
2255 2255 3.095346257090569e+00
2256 117 -1.000000000000000e+00
2256 413 -1.000000000000000e+00
2256 1804 -1.000000000000000e+00
2256 2256 3.155699789524078e+00
2257 7 -1.000000000000000e+00
2257 398 -1.000000000000000e+00
2257 446 -1.000000000000000e+00
2257 1129 -1.010152548551559e-01
2257 2257 3.368276491761208e+00
2258 13 -1.000000000000000e+00
2258 48 -1.000000000000000e+00
2258 156 -1.000000000000000e+00
2258 2258 4.251699157059193e+00
2259 5 -1.000000000000000e+00
2259 326 -1.000000000000000e+00
2259 1149 -1.000000000000000e+00
2259 2259 4.575867950916290e+00
2260 1222 -1.000000000000000e+00
2260 1997 -1.000000000000000e+00
2260 2102 -1.000000000000000e+00
2260 2260 5.000000000000000e+00
2261 383 -1.000000000000000e+00
2261 792 -1.000000000000000e+00
2261 1714 -1.000000000000000e+00
2261 2261 4.000000000000000e+00
2262 7 -1.000000000000000e+00
2262 83 -1.000000000000000e+00
2262 557 -1.000000000000000e+00
2262 2262 3.000000000000000e+00
2263 13 -1.000000000000000e+00
2263 817 -1.000000000000000e+00
2263 1593 -1.000000000000000e+00
2263 2263 3.000000000000000e+00
2264 4 -1.000000000000000e+00
2264 57 -1.000000000000000e+00
2264 200 -1.000000000000000e+00
2264 2102 -2.490291297435760e-01
2264 2264 4.249029129743576e+00
2265 618 -1.000000000000000e+00
2265 1362 -1.000000000000000e+00
2265 1365 -1.000000000000000e+00
2265 2265 3.321287721395493e+00
2266 19 -1.000000000000000e+00
2266 1343 -1.000000000000000e+00
2266 2208 -1.000000000000000e+00
2266 2266 4.419362455606461e+00
2267 205 -1.000000000000000e+00
2267 264 -1.000000000000000e+00
2267 464 -1.873171478509903e-01
2267 653 -1.000000000000000e+00
2267 2267 5.187317147850990e+00
2268 203 -1.000000000000000e+00
2268 1611 -1.000000000000000e+00
2268 1804 -1.000000000000000e+00
2268 2268 4.288675129413605e+00
2269 18 -1.000000000000000e+00
2269 634 -8.980265259742737e-02
2269 1123 -1.000000000000000e+00
2269 1210 -1.000000000000000e+00
2269 2269 4.089802652597427e+00
2270 220 -1.113960579037666e+00
2270 1642 -1.000000000000000e+00
2270 1645 -1.000000000000000e+00
2270 2270 5.113960579037666e+00
2271 21 -1.000000000000000e+00
2271 55 -1.000000000000000e+00
2271 1498 -1.000000000000000e+00
2271 2271 3.372104197740555e+00
2272 176 -1.000000000000000e+00
2272 684 -1.000000000000000e+00
2272 1720 -1.000000000000000e+00
2272 2272 3.000000000000000e+00
2273 7 -1.000000000000000e+00
2273 575 -1.000000000000000e+00
2273 1615 -1.000000000000000e+00
2273 2273 4.000000000000000e+00
2274 137 -1.000000000000000e+00
2274 508 -1.000000000000000e+00
2274 570 -1.000000000000000e+00
2274 2274 5.141421362757683e+00
2275 34 -1.000000000000000e+00
2275 408 -1.000000000000000e+00
2275 1787 -1.000000000000000e+00
2275 2275 4.229415744543076e+00
2276 15 -1.000000000000000e+00
2276 400 -1.000000000000000e+00
2276 956 -1.131306424736977e+00
2276 2276 3.131306424736977e+00
2277 92 -1.000000000000000e+00
2277 620 -1.324532330036163e-01
2277 1582 -1.000000000000000e+00
2277 1680 -1.000000000000000e+00
2277 2277 3.132453233003616e+00
2278 6 -1.000000000000000e+00
2278 650 -1.000000000000000e+00
2278 818 -1.188982248306274e+00
2278 2176 -1.020620688796043e-01
2278 2278 6.291044317185879e+00
2279 5 -1.000000000000000e+00
2279 56 -1.000000000000000e+00
2279 137 -1.000000000000000e+00
2279 395 -1.666666567325592e-01
2279 2279 3.166666656732559e+00
2280 444 -1.000000000000000e+00
2280 490 -1.000000000000000e+00
2280 1142 -1.000000000000000e+00
2280 2280 1.096515721082687e+01
2281 780 -1.000000000000000e+00
2281 1672 -1.000000000000000e+00
2281 1683 -1.000000000000000e+00
2281 2281 3.149071201682091e+00
2282 236 -1.109599329531193e+00
2282 707 -1.000000000000000e+00
2282 1808 -1.000000000000000e+00
2282 2282 3.109599329531193e+00
2283 1566 -1.000000000000000e+00
2283 1628 -1.000000000000000e+00
2283 2153 -1.000000000000000e+00
2283 2283 3.000000000000000e+00
2284 383 -1.000000000000000e+00
2284 1000 -1.000000000000000e+00
2284 1424 -1.000000000000000e+00
2284 2284 4.166666656732559e+00
2285 987 -1.000000000000000e+00
2285 1584 -1.097590006887913e+00
2285 1800 -1.000000000000000e+00
2285 2285 5.246661208570004e+00
2286 101 -1.218217909336090e+00
2286 253 -1.000000000000000e+00
2286 2102 -1.000000000000000e+00
2286 2286 6.218217909336090e+00
2287 140 -1.000000000000000e+00
2287 568 -1.000000000000000e+00
2287 885 -1.000000000000000e+00
2287 2287 4.170940861105919e+00
2288 188 -1.000000000000000e+00
2288 1038 -1.000000000000000e+00
2288 2243 -1.000000000000000e+00
2288 2288 5.000000000000000e+00
2289 233 -1.000000000000000e+00
2289 435 -1.000000000000000e+00
2289 1170 -1.000000000000000e+00
2289 2289 3.111803397536278e+00
2290 106 -1.000000000000000e+00
2290 803 -1.000000000000000e+00
2290 1277 -2.572478950023651e-01
2290 1289 -1.121267817914486e+00
2290 2290 4.378515712916851e+00
2291 77 -1.324532330036163e-01
2291 107 -1.000000000000000e+00
2291 192 -1.000000000000000e+00
2291 338 -3.535533845424652e-01
2291 470 -1.889822483062744e-01
2291 1252 -5.000000000000000e-01
2291 1900 -1.000000000000000e+00
2291 2291 4.174988865852356e+00
2292 170 -1.000000000000000e+00
2292 430 -1.000000000000000e+00
2292 864 -1.066003590822220e-01
2292 902 -1.000000000000000e+00
2292 2292 3.106600359082222e+00
2293 74 -1.000000000000000e+00
2293 1133 -1.052704624831676e+00
2293 1436 -1.000000000000000e+00
2293 2293 4.052704624831676e+00
2294 46 -1.000000000000000e+00
2294 149 -1.000000000000000e+00
2294 574 -1.000000000000000e+00
2294 2294 3.000000000000000e+00
2295 42 -1.000000000000000e+00
2295 140 -1.000000000000000e+00
2295 162 -1.000000000000000e+00
2295 2280 -3.952847123146057e-01
2295 2295 3.803532987833023e+00
2296 15 -1.000000000000000e+00
2296 1213 -2.696799337863922e-01
2296 1721 -1.000000000000000e+00
2296 1996 -1.000000000000000e+00
2296 2296 3.269679933786392e+00
2297 56 -1.000000000000000e+00
2297 879 -1.000000000000000e+00
2297 1324 -1.000000000000000e+00
2297 1541 -1.867718547582626e-01
2297 1857 -1.245145648717880e-01
2297 2297 4.311286419630051e+00
2298 27 -1.000000000000000e+00
2298 31 -1.000000000000000e+00
2298 1439 -1.000000000000000e+00
2298 2298 3.541888445615768e+00
2299 244 -1.000000000000000e+00
2299 460 -1.000000000000000e+00
2299 666 -1.000000000000000e+00
2299 2299 4.000000000000000e+00
2300 163 -1.000000000000000e+00
2300 236 -1.000000000000000e+00
2300 1666 -1.000000000000000e+00
2300 2080 -1.166423782706261e-01
2300 2300 4.205729462206364e+00
2301 1438 -1.000000000000000e+00
2301 1574 -1.000000000000000e+00
2301 1705 -1.000000000000000e+00
2301 1905 -1.501173228025436e-01
2301 2301 3.372143849730492e+00
2302 116 -1.000000000000000e+00
2302 357 -1.000000000000000e+00
2302 400 -1.000000000000000e+00
2302 2302 6.000000000000000e+00
2303 350 -1.000000000000000e+00
2303 926 -1.000000000000000e+00
2303 1189 -1.000000000000000e+00
2303 2303 7.000000000000000e+00
2304 5 -1.000000000000000e+00
2304 242 -1.000000000000000e+00
2304 1314 -1.000000000000000e+00
2304 1367 -3.191970884799957e-01
2304 2304 3.963749647140503e+00
2305 109 -1.000000000000000e+00
2305 946 -1.000000000000000e+00
2305 1348 -1.000000000000000e+00
2305 2305 3.000000000000000e+00
2306 137 -2.279211580753326e-01
2306 256 -1.000000000000000e+00
2306 1139 -1.000000000000000e+00
2306 1938 -1.000000000000000e+00
2306 2306 5.495182394981384e+00
2307 6 -1.000000000000000e+00
2307 139 -1.000000000000000e+00
2307 532 -1.000000000000000e+00
2307 2307 4.000000000000000e+00
2308 7 -1.000000000000000e+00
2308 23 -1.000000000000000e+00
2308 326 -1.000000000000000e+00
2308 1984 -2.834733724594116e-01
2308 2308 7.283473372459412e+00
2309 35 -1.000000000000000e+00
2309 1711 -1.000000000000000e+00
2309 2179 -1.000000000000000e+00
2309 2309 3.000000000000000e+00
2310 409 -1.000000000000000e+00
2310 432 -1.000000000000000e+00
2310 2017 -1.000000000000000e+00
2310 2253 -4.287464916706085e-01
2310 2310 4.428746491670609e+00
2311 292 -1.000000000000000e+00
2311 579 -1.000000000000000e+00
2311 1134 -1.000000000000000e+00
2311 2311 4.249007113277912e+00
2312 12 -1.000000000000000e+00
2312 111 -1.000000000000000e+00
2312 958 -1.000000000000000e+00
2312 2312 5.000000000000000e+00
2313 4 -1.000000000000000e+00
2313 43 -1.000000000000000e+00
2313 1361 -2.236067950725555e-01
2313 1517 -4.472135901451111e-01
2313 1744 -1.000000000000000e+00
2313 2313 7.670820385217667e+00
2314 34 -1.000000000000000e+00
2314 568 -1.000000000000000e+00
2314 579 -2.032788991928101e-01
2314 583 -1.000000000000000e+00
2314 1895 -1.528941690921783e-01
2314 2314 4.356173068284988e+00
2315 21 -1.000000000000000e+00
2315 73 -1.088561490178108e+00
2315 1196 -1.000000000000000e+00
2315 2315 4.327607214450836e+00
2316 19 -1.000000000000000e+00
2316 698 -1.000000000000000e+00
2316 2161 -1.000000000000000e+00
2316 2316 3.000000000000000e+00
2317 655 -1.000000000000000e+00
2317 823 -1.000000000000000e+00
2317 1387 -1.000000000000000e+00
2317 2317 7.323127046227455e+00
2318 888 -1.000000000000000e+00
2318 1505 -1.000000000000000e+00
2318 1979 -1.677050888538361e-01
2318 2098 -1.000000000000000e+00
2318 2318 7.232254810631275e+00
2319 20 -1.000000000000000e+00
2319 314 -1.000000000000000e+00
2319 1876 -1.000000000000000e+00
2319 2319 8.000000000000000e+00
2320 5 -1.000000000000000e+00
2320 281 -1.000000000000000e+00
2320 814 -1.000000000000000e+00
2320 854 -9.622504562139511e-02
2320 2320 4.096225045621395e+00
2321 139 -1.000000000000000e+00
2321 168 -1.000000000000000e+00
2321 1557 -1.000000000000000e+00
2321 1756 -1.443375647068024e-01
2321 2321 3.144337564706802e+00
2322 83 -1.000000000000000e+00
2322 483 -1.000000000000000e+00
2322 956 -1.000000000000000e+00
2322 2322 3.121267817914486e+00
2323 274 -2.581988871097565e-01
2323 533 -1.000000000000000e+00
2323 906 -1.000000000000000e+00
2323 2280 -1.182574182748795e+00
2323 2323 3.802463471889496e+00
2324 13 -1.000000000000000e+00
2324 926 -1.000000000000000e+00
2324 1261 -1.000000000000000e+00
2324 2324 5.084215193986893e+00
2325 89 -1.000000000000000e+00
2325 443 -1.000000000000000e+00
2325 1299 -1.000000000000000e+00
2325 2325 3.000000000000000e+00
2326 374 -1.000000000000000e+00
2326 690 -1.062622427940369e+00
2326 1318 -1.000000000000000e+00
2326 2326 4.062622427940369e+00
2327 255 -1.000000000000000e+00
2327 1261 -1.000000000000000e+00
2327 1716 -1.000000000000000e+00
2327 2327 3.000000000000000e+00
2328 35 -1.000000000000000e+00
2328 739 -1.000000000000000e+00
2328 1266 -1.000000000000000e+00
2328 2104 -1.130667477846146e-01
2328 2328 6.192123688757420e+00
2329 327 -1.000000000000000e+00
2329 1251 -1.000000000000000e+00
2329 2144 -1.000000000000000e+00
2329 2329 5.000000000000000e+00
2330 156 -1.000000000000000e+00
2330 224 -7.580979913473129e-02
2330 1424 -1.000000000000000e+00
2330 2031 -1.000000000000000e+00
2330 2330 5.168657466769218e+00
2331 199 -1.000000000000000e+00
2331 1426 -1.000000000000000e+00
2331 1546 -1.000000000000000e+00
2331 2331 5.261116474866867e+00
2332 865 -1.000000000000000e+00
2332 1855 -1.000000000000000e+00
2332 1983 -1.000000000000000e+00
2332 2332 4.000000000000000e+00
2333 1 -1.000000000000000e+00
2333 137 -1.000000000000000e+00
2333 769 -1.000000000000000e+00
2333 2333 3.000000000000000e+00
2334 572 -1.000000000000000e+00
2334 1195 -2.964997291564941e-01
2334 1580 -1.000000000000000e+00
2334 1875 -1.000000000000000e+00
2334 2334 3.296499729156494e+00
2335 619 -1.000000000000000e+00
2335 909 -1.000000000000000e+00
2335 1871 -1.000000000000000e+00
2335 2335 3.000000000000000e+00
2336 184 -1.000000000000000e+00
2336 411 -1.000000000000000e+00
2336 969 -1.000000000000000e+00
2336 2336 8.000000000000000e+00
2337 9 -1.000000000000000e+00
2337 769 -1.153429105877876e+00
2337 1467 -2.108185142278671e-01
2337 2299 -1.000000000000000e+00
2337 2337 3.364247620105743e+00
2338 138 -1.000000000000000e+00
2338 1028 -1.000000000000000e+00
2338 1238 -2.572478950023651e-01
2338 1714 -1.000000000000000e+00
2338 2338 4.378515712916851e+00
2339 5 -1.000000000000000e+00
2339 162 -1.000000000000000e+00
2339 1462 -1.000000000000000e+00
2339 1560 -4.564354419708252e-01
2339 1813 -2.886751294136047e-01
2339 2339 4.745110571384430e+00
2340 515 -1.000000000000000e+00
2340 1067 -1.000000000000000e+00
2340 1657 -1.000000000000000e+00
2340 2340 5.073720976710320e+00
2341 60 -1.000000000000000e+00
2341 243 -1.000000000000000e+00
2341 429 -1.000000000000000e+00
2341 1067 -1.336306184530258e-01
2341 1104 -1.889822334051132e-01
2341 2341 3.322612851858139e+00
2342 6 -1.000000000000000e+00
2342 25 -1.732050776481628e-01
2342 551 -4.023738801479340e-01
2342 845 -1.000000000000000e+00
2342 1282 -1.732050776481628e-01
2342 1929 -1.000000000000000e+00
2342 2342 4.748784035444260e+00
2343 16 -1.000000000000000e+00
2343 93 -2.807449698448181e-01
2343 720 -1.000000000000000e+00
2343 862 -1.000000000000000e+00
2343 2343 3.548006206750870e+00
2344 16 -1.889822483062744e-01
2344 201 -1.000000000000000e+00
2344 290 -1.000000000000000e+00
2344 464 -1.000000000000000e+00
2344 2344 4.188982248306274e+00
2345 87 -1.000000000000000e+00
2345 652 -1.000000000000000e+00
2345 1018 -1.207613706588745e+00
2345 2345 5.207613706588745e+00
2346 31 -1.000000000000000e+00
2346 138 -1.000000000000000e+00
2346 2120 -1.230914890766144e-01
2346 2268 -1.000000000000000e+00
2346 2346 6.123091489076614e+00
2347 451 -1.000000000000000e+00
2347 829 -1.000000000000000e+00
2347 1437 -1.000000000000000e+00
2347 2347 5.000000000000000e+00
2348 133 -1.000000000000000e+00
2348 481 -1.076923079788685e+00
2348 1025 -1.000000000000000e+00
2348 2348 3.076923079788685e+00
2349 10 -1.000000000000000e+00
2349 2024 -1.000000000000000e+00
2349 2127 -1.000000000000000e+00
2349 2349 4.000000000000000e+00
2350 256 -1.000000000000000e+00
2350 555 -1.000000000000000e+00
2350 1215 -1.192450091242790e+00
2350 2350 5.192450091242790e+00
2351 9 -1.000000000000000e+00
2351 1385 -1.000000000000000e+00
2351 2185 -1.000000000000000e+00
2351 2351 3.000000000000000e+00
2352 135 -1.000000000000000e+00
2352 424 -1.000000000000000e+00
2352 1321 -1.000000000000000e+00
2352 1333 -1.690308600664139e-01
2352 2352 5.278139814734459e+00
2353 62 -1.000000000000000e+00
2353 932 -1.000000000000000e+00
2353 1139 -1.000000000000000e+00
2353 2353 3.000000000000000e+00
2354 422 -1.000000000000000e+00
2354 887 -1.474419534206390e-01
2354 890 -8.512565493583679e-02
2354 1433 -1.000000000000000e+00
2354 1747 -1.000000000000000e+00
2354 2354 5.232567608356476e+00
2355 259 -1.000000000000000e+00
2355 897 -1.000000000000000e+00
2355 2121 -1.000000000000000e+00
2355 2355 1.000000000000000e+01
2356 166 -1.000000000000000e+00
2356 730 -1.000000000000000e+00
2356 2248 -1.154303357005119e+00
2356 2356 4.154303357005119e+00
2357 8 -1.000000000000000e+00
2357 93 -1.000000000000000e+00
2357 1851 -1.000000000000000e+00
2357 2357 5.000000000000000e+00
2358 103 -1.000000000000000e+00
2358 547 -1.000000000000000e+00
2358 1982 -1.000000000000000e+00
2358 2358 3.000000000000000e+00
2359 511 -1.000000000000000e+00
2359 807 -1.000000000000000e+00
2359 1952 -1.000000000000000e+00
2359 2359 5.000000000000000e+00
2360 4 -1.000000000000000e+00
2360 71 -1.000000000000000e+00
2360 157 -1.000000000000000e+00
2360 2360 3.942808985710144e+00
2361 30 -1.000000000000000e+00
2361 59 -1.000000000000000e+00
2361 99 -1.000000000000000e+00
2361 1858 -2.941741943359375e-01
2361 2079 -2.631174027919769e-01
2361 2361 3.557291597127914e+00
2362 241 -1.000000000000000e+00
2362 1626 -1.000000000000000e+00
2362 2319 -1.000000000000000e+00
2362 2362 3.377964496612549e+00
2363 129 -1.000000000000000e+00
2363 281 -1.000000000000000e+00
2363 1278 -1.000000000000000e+00
2363 2363 4.000000000000000e+00
2364 152 -2.227177023887634e-01
2364 254 -1.000000000000000e+00
2364 285 -1.000000000000000e+00
2364 1425 -1.000000000000000e+00
2364 2364 3.222717702388763e+00
2365 270 -1.000000000000000e+00
2365 737 -1.000000000000000e+00
2365 2039 -1.000000000000000e+00
2365 2365 3.204124137759209e+00
2366 8 -1.000000000000000e+00
2366 498 -1.000000000000000e+00
2366 1461 -1.000000000000000e+00
2366 2366 3.000000000000000e+00
2367 74 -1.000000000000000e+00
2367 425 -1.000000000000000e+00
2367 438 -1.000000000000000e+00
2367 2367 4.089087076485157e+00
2368 391 -1.000000000000000e+00
2368 529 -1.000000000000000e+00
2368 551 -1.000000000000000e+00
2368 2368 3.000000000000000e+00
2369 5 -1.000000000000000e+00
2369 408 -1.000000000000000e+00
2369 786 -1.000000000000000e+00
2369 1364 -3.682040572166443e-01
2369 2369 3.890795722603798e+00
2370 742 -1.000000000000000e+00
2370 1076 -1.000000000000000e+00
2370 1208 -1.000000000000000e+00
2370 1477 -2.401922345161438e-01
2370 2370 3.692459225654602e+00
2371 7 -1.000000000000000e+00
2371 748 -1.000000000000000e+00
2371 1836 -1.000000000000000e+00
2371 2204 -2.581988871097565e-01
2371 2371 3.258198887109756e+00
2372 214 -1.000000000000000e+00
2372 282 -1.000000000000000e+00
2372 411 -1.000000000000000e+00
2372 730 -1.809068024158478e-01
2372 2372 5.180906802415848e+00
2373 45 -1.000000000000000e+00
2373 316 -1.000000000000000e+00
2373 806 -1.000000000000000e+00
2373 2117 -3.872983157634735e-01
2373 2373 4.610905110836029e+00
2374 283 -1.000000000000000e+00
2374 883 -1.000000000000000e+00
2374 1407 -1.000000000000000e+00
2374 1960 -3.086067140102386e-01
2374 2374 5.308606714010239e+00
2375 42 -1.000000000000000e+00
2375 78 -1.000000000000000e+00
2375 960 -1.000000000000000e+00
2375 1357 -2.041241526603699e-01
2375 2375 4.204124152660370e+00
2376 10 -1.000000000000000e+00
2376 73 -1.185239657759666e+00
2376 873 -1.000000000000000e+00
2376 2315 -2.390457242727280e-01
2376 2376 3.424285382032394e+00
2377 198 -1.000000000000000e+00
2377 390 -1.000000000000000e+00
2377 1099 -1.825741827487946e-01
2377 1416 -1.924500912427902e-01
2377 1576 -1.000000000000000e+00
2377 2377 3.375024273991585e+00
2378 165 -1.702512949705124e-01
2378 672 -1.000000000000000e+00
2378 777 -1.000000000000000e+00
2378 1571 -1.000000000000000e+00
2378 2378 3.578499570488930e+00
2379 11 -1.000000000000000e+00
2379 198 -1.000000000000000e+00
2379 471 -1.000000000000000e+00
2379 2379 3.140028014779091e+00
2380 928 -1.000000000000000e+00
2380 1009 -1.000000000000000e+00
2380 1678 -1.115470044314861e+00
2380 2380 4.115470044314861e+00
2381 5 -1.000000000000000e+00
2381 117 -1.000000000000000e+00
2381 142 -1.000000000000000e+00
2381 2139 -3.015113472938538e-01
2381 2381 4.603022694587708e+00
2382 39 -1.000000000000000e+00
2382 59 -1.100503779947758e+00
2382 1848 -1.000000000000000e+00
2382 2382 3.100503779947758e+00
2383 19 -1.000000000000000e+00
2383 141 -1.000000000000000e+00
2383 488 -1.000000000000000e+00
2383 2383 5.071066901087761e+00
2384 74 -1.000000000000000e+00
2384 150 -1.000000000000000e+00
2384 1019 -1.195228472352028e-01
2384 1168 -1.000000000000000e+00
2384 2384 3.119522847235203e+00
2385 85 -1.000000000000000e+00
2385 492 -1.160128161311150e+00
2385 888 -1.000000000000000e+00
2385 2385 6.160128161311150e+00
2386 1622 -1.000000000000000e+00
2386 1631 -1.000000000000000e+00
2386 1722 -1.000000000000000e+00
2386 2386 4.192450091242790e+00
2387 885 -1.000000000000000e+00
2387 1888 -1.000000000000000e+00
2387 1913 -1.000000000000000e+00
2387 2387 3.000000000000000e+00
2388 78 -1.000000000000000e+00
2388 163 -1.000000000000000e+00
2388 1686 -1.000000000000000e+00
2388 2388 3.000000000000000e+00
2389 289 -1.000000000000000e+00
2389 312 -1.000000000000000e+00
2389 737 -1.000000000000000e+00
2389 2389 3.000000000000000e+00
2390 9 -1.000000000000000e+00
2390 1950 -1.000000000000000e+00
2390 2074 -1.000000000000000e+00
2390 2390 4.000000000000000e+00
2391 1202 -1.091089546680450e-01
2391 1460 -1.000000000000000e+00
2391 1835 -1.000000000000000e+00
2391 2213 -1.000000000000000e+00
2391 2391 3.109108954668045e+00
2392 152 -1.000000000000000e+00
2392 198 -1.000000000000000e+00
2392 2067 -1.000000000000000e+00
2392 2392 4.000000000000000e+00
2393 363 -1.000000000000000e+00
2393 1275 -1.000000000000000e+00
2393 1424 -1.000000000000000e+00
2393 2393 3.000000000000000e+00
2394 257 -1.000000000000000e+00
2394 907 -1.000000014901161e-01
2394 2194 -1.000000000000000e+00
2394 2223 -1.000000000000000e+00
2394 2394 5.258113883435726e+00
2395 269 -1.000000000000000e+00
2395 1282 -1.000000000000000e+00
2395 1911 -1.000000000000000e+00
2395 2395 3.000000000000000e+00
2396 329 -1.000000000000000e+00
2396 629 -1.000000000000000e+00
2396 851 -1.000000000000000e+00
2396 2396 4.000000000000000e+00
2397 330 -1.000000000000000e+00
2397 1068 -1.000000000000000e+00
2397 1763 -1.000000000000000e+00
2397 2397 3.000000000000000e+00
2398 175 -1.066003590822220e-01
2398 636 -1.000000000000000e+00
2398 1274 -1.000000000000000e+00
2398 1288 -1.000000000000000e+00
2398 2398 4.106600359082222e+00
2399 114 -1.000000000000000e+00
2399 170 -1.000000000000000e+00
2399 897 -1.000000000000000e+00
2399 2399 6.114707864820957e+00
2400 8 -1.000000000000000e+00
2400 708 -1.000000000000000e+00
2400 1688 -1.000000000000000e+00
2400 1862 -1.270001232624054e-01
2400 2400 4.127000123262405e+00
2401 504 -1.000000000000000e+00
2401 989 -1.000000000000000e+00
2401 1074 -1.300000011920929e+00
2401 2401 3.300000011920929e+00
2402 224 -1.000000000000000e+00
2402 594 -1.507556736469269e-01
2402 696 -1.000000000000000e+00
2402 2157 -1.000000000000000e+00
2402 2402 3.150755673646927e+00
2403 890 -1.000000000000000e+00
2403 1241 -1.000000000000000e+00
2403 2354 -1.000000000000000e+00
2403 2403 3.000000000000000e+00
2404 75 -1.000000000000000e+00
2404 86 -1.000000000000000e+00
2404 167 -1.000000000000000e+00
2404 2404 3.000000000000000e+00
2405 86 -1.000000000000000e+00
2405 963 -1.000000000000000e+00
2405 1301 -1.000000000000000e+00
2405 2405 4.000000000000000e+00
2406 34 -1.000000000000000e+00
2406 239 -1.000000000000000e+00
2406 2313 -1.000000000000000e+00
2406 2406 4.129099443554878e+00
2407 306 -1.136930629611015e+00
2407 774 -1.000000000000000e+00
2407 2100 -1.000000000000000e+00
2407 2407 3.136930629611015e+00
2408 269 -1.000000000000000e+00
2408 955 -1.132453233003616e+00
2408 1654 -1.000000000000000e+00
2408 2408 3.132453233003616e+00
2409 11 -1.000000000000000e+00
2409 37 -1.000000000000000e+00
2409 351 -1.000000000000000e+00
2409 2409 3.000000000000000e+00
2410 72 -1.000000000000000e+00
2410 800 -1.000000000000000e+00
2410 1111 -1.000000000000000e+00
2410 2410 5.219089016318321e+00
2411 28 -1.000000000000000e+00
2411 538 -1.154700443148613e-01
2411 893 -1.000000000000000e+00
2411 2179 -1.000000000000000e+00
2411 2236 -4.403854906558990e-01
2411 2410 -2.190890163183212e-01
2411 2411 4.774944551289082e+00
2412 43 -1.000000000000000e+00
2412 197 -1.000000000000000e+00
2412 590 -2.236067950725555e-01
2412 1522 -1.000000000000000e+00
2412 2412 3.223606795072556e+00
2413 828 -1.000000000000000e+00
2413 1458 -1.000000000000000e+00
2413 2167 -1.000000000000000e+00
2413 2413 3.000000000000000e+00
2414 431 -1.000000000000000e+00
2414 1262 -1.000000000000000e+00
2414 1616 -1.000000000000000e+00
2414 2414 4.000000000000000e+00
2415 7 -1.000000000000000e+00
2415 1132 -1.000000000000000e+00
2415 1598 -1.000000000000000e+00
2415 2415 3.202886559069157e+00
2416 14 -1.000000000000000e+00
2416 423 -1.000000000000000e+00
2416 574 -1.000000000000000e+00
2416 2416 3.000000000000000e+00
2417 16 -1.000000000000000e+00
2417 21 -1.000000000000000e+00
2417 47 -1.000000000000000e+00
2417 501 -9.365857392549515e-02
2417 2417 5.093658573925495e+00
2418 447 -1.000000000000000e+00
2418 572 -1.000000000000000e+00
2418 2226 -1.000000000000000e+00
2418 2418 5.155699789524078e+00
2419 38 -9.449112415313721e-02
2419 109 -1.000000000000000e+00
2419 116 -1.000000000000000e+00
2419 1617 -1.000000000000000e+00
2419 2419 4.228121742606163e+00
2420 1192 -1.000000000000000e+00
2420 1552 -1.000000000000000e+00
2420 2145 -1.000000000000000e+00
2420 2420 5.357538282871246e+00
2421 685 -1.000000000000000e+00
2421 1490 -1.000000000000000e+00
2421 2153 -1.000000000000000e+00
2421 2421 3.102062076330185e+00
2422 42 -1.000000000000000e+00
2422 390 -1.581138819456100e-01
2422 476 -1.000000000000000e+00
2422 648 -1.000000000000000e+00
2422 2422 3.158113881945610e+00
2423 216 -1.000000000000000e+00
2423 696 -1.000000000000000e+00
2423 1680 -1.000000000000000e+00
2423 2423 4.138675048947334e+00
2424 1571 -1.274351626634598e+00
2424 1947 -1.000000000000000e+00
2424 2022 -1.205971464514732e+00
2424 2424 3.480323091149330e+00
2425 7 -1.000000000000000e+00
2425 1332 -1.000000000000000e+00
2425 2288 -1.000000000000000e+00
2425 2425 5.177667260169983e+00
2426 371 -1.000000000000000e+00
2426 777 -1.000000000000000e+00
2426 1631 -1.000000000000000e+00
2426 2426 4.141421362757683e+00
2427 270 -1.000000000000000e+00
2427 613 -1.000000000000000e+00
2427 1519 -1.000000000000000e+00
2427 2427 3.000000000000000e+00
2428 49 -1.000000000000000e+00
2428 1219 -1.000000000000000e+00
2428 1701 -2.672612369060516e-01
2428 2248 -1.000000000000000e+00
2428 2428 6.267261236906052e+00
2429 99 -1.000000000000000e+00
2429 100 -1.000000000000000e+00
2429 770 -1.000000000000000e+00
2429 2429 3.000000000000000e+00
2430 300 -1.000000000000000e+00
2430 1637 -1.645497202873230e+00
2430 1875 -1.000000000000000e+00
2430 2430 6.789834767580032e+00
2431 875 -1.000000000000000e+00
2431 1632 -1.000000000000000e+00
2431 2226 -1.129099443554878e+00
2431 2431 5.129099443554878e+00
2432 441 -1.000000000000000e+00
2432 1038 -1.000000000000000e+00
2432 2242 -1.000000000000000e+00
2432 2432 3.707106769084930e+00
2433 548 -1.000000000000000e+00
2433 1353 -1.000000000000000e+00
2433 1364 -4.168062210083008e-01
2433 1806 -1.000000000000000e+00
2433 2139 -2.785430252552032e-01
2433 2433 4.909771755337715e+00
2434 92 -1.000000000000000e+00
2434 171 -1.000000000000000e+00
2434 307 -1.000000000000000e+00
2434 433 -1.740776598453522e-01
2434 1108 -2.886751294136047e-01
2434 2434 5.462752789258957e+00
2435 30 -1.000000000000000e+00
2435 304 -1.000000000000000e+00
2435 1794 -2.881952226161957e-01
2435 2426 -1.000000000000000e+00
2435 2435 6.492793530225754e+00
2436 409 -1.000000000000000e+00
2436 1589 -1.000000000000000e+00
2436 2065 -1.000000000000000e+00
2436 2436 5.084515422582626e+00
2437 2 -1.000000000000000e+00
2437 167 -1.000000000000000e+00
2437 535 -1.000000000000000e+00
2437 2437 3.000000000000000e+00
2438 6 -1.000000000000000e+00
2438 404 -1.000000000000000e+00
2438 1295 -2.535462975502014e-01
2438 1808 -1.000000000000000e+00
2438 2438 3.362655252218246e+00
2439 799 -1.000000000000000e+00
2439 894 -1.714985966682434e-01
2439 1240 -1.000000000000000e+00
2439 1454 -1.000000000000000e+00
2439 2439 5.171498596668243e+00
2440 82 -1.000000000000000e+00
2440 1068 -1.000000000000000e+00
2440 1684 -1.000000000000000e+00
2440 1693 -1.443375647068024e-01
2440 2440 6.144337564706802e+00
2441 282 -1.000000000000000e+00
2441 497 -1.000000000000000e+00
2441 565 -1.230769231915474e+00
2441 2441 3.230769231915474e+00
2442 403 -1.147078648209572e-01
2442 868 -1.000000000000000e+00
2442 1864 -1.000000000000000e+00
2442 2399 -1.114707864820957e+00
2442 2442 3.229415729641914e+00
2443 101 -1.000000000000000e+00
2443 648 -1.000000000000000e+00
2443 1403 -1.000000000000000e+00
2443 2443 4.136082753539085e+00
2444 835 -1.000000000000000e+00
2444 953 -1.000000000000000e+00
2444 1859 -1.000000000000000e+00
2444 2444 3.000000000000000e+00
2445 42 -1.000000000000000e+00
2445 247 -1.000000000000000e+00
2445 1306 -1.000000000000000e+00
2445 2445 3.000000000000000e+00
2446 5 -1.000000000000000e+00
2446 763 -1.000000000000000e+00
2446 1673 -1.000000000000000e+00
2446 2446 3.000000000000000e+00
2447 1107 -1.000000000000000e+00
2447 1397 -1.000000000000000e+00
2447 2318 -1.000000000000000e+00
2447 2447 3.000000000000000e+00
2448 11 -1.000000000000000e+00
2448 411 -1.000000000000000e+00
2448 2331 -1.261116474866867e+00
2448 2448 3.261116474866867e+00
2449 96 -1.000000000000000e+00
2449 384 -1.274883240461349e+00
2449 1502 -1.000000000000000e+00
2449 2449 3.576394587755203e+00
2450 2 -1.000000000000000e+00
2450 99 -1.000000000000000e+00
2450 1924 -1.000000000000000e+00
2450 2450 4.066666670143604e+00
2451 7 -1.000000000000000e+00
2451 52 -1.000000000000000e+00
2451 984 -1.000000000000000e+00
2451 2451 7.204124137759209e+00
2452 303 -1.000000000000000e+00
2452 774 -1.000000000000000e+00
2452 2355 -1.000000000000000e+00
2452 2452 3.000000000000000e+00
2453 9 -1.000000000000000e+00
2453 259 -1.000000000000000e+00
2453 2367 -1.000000000000000e+00
2453 2453 3.101015254855156e+00
2454 1182 -1.000000000000000e+00
2454 1615 -1.000000000000000e+00
2454 1921 -1.000000000000000e+00
2454 2454 4.000000000000000e+00
2455 872 -1.000000000000000e+00
2455 1080 -1.000000000000000e+00
2455 1403 -1.000000000000000e+00
2455 2455 4.144337564706802e+00
2456 77 -1.000000000000000e+00
2456 1112 -1.000000000000000e+00
2456 1947 -1.000000000000000e+00
2456 2456 4.057166196405888e+00
2457 168 -1.000000000000000e+00
2457 1045 -1.000000000000000e+00
2457 1492 -1.000000000000000e+00
2457 2457 3.000000000000000e+00
2458 52 -1.000000000000000e+00
2458 477 -1.000000000000000e+00
2458 580 -1.000000000000000e+00
2458 2458 4.000000000000000e+00
2459 383 -1.000000000000000e+00
2459 517 -1.000000000000000e+00
2459 1300 -1.000000000000000e+00
2459 2459 3.000000000000000e+00
2460 549 -1.000000000000000e+00
2460 1139 -1.961161345243454e-01
2460 1520 -1.000000000000000e+00
2460 2306 -1.267261236906052e+00
2460 2460 3.463377371430397e+00
2461 403 -1.000000000000000e+00
2461 987 -1.000000000000000e+00
2461 2297 -1.000000000000000e+00
2461 2461 3.091287091374397e+00
2462 253 -1.000000000000000e+00
2462 791 -1.000000000000000e+00
2462 1913 -1.000000000000000e+00
2462 2462 3.500000000000000e+00
2463 346 -1.000000000000000e+00
2463 370 -1.000000000000000e+00
2463 1295 -1.690308600664139e-01
2463 1833 -1.000000000000000e+00
2463 2463 3.169030860066414e+00
2464 35 -1.000000000000000e+00
2464 199 -1.000000000000000e+00
2464 1774 -1.000000000000000e+00
2464 2464 3.000000000000000e+00
2465 46 -1.000000000000000e+00
2465 366 -1.000000000000000e+00
2465 1973 -1.000000000000000e+00
2465 2465 3.000000000000000e+00
2466 420 -1.000000000000000e+00
2466 1192 -1.000000000000000e+00
2466 1630 -2.828427255153656e-01
2466 1800 -1.000000000000000e+00
2466 2466 6.282842725515366e+00
2467 4 -1.000000000000000e+00
2467 374 -1.000000000000000e+00
2467 1196 -1.000000000000000e+00
2467 2467 4.000000000000000e+00
2468 378 -1.000000000000000e+00
2468 1757 -1.000000000000000e+00
2468 2204 -1.000000000000000e+00
2468 2468 3.288675129413605e+00
2469 74 -1.417366862297058e-01
2469 121 -1.000000000000000e+00
2469 1139 -1.000000000000000e+00
2469 2352 -1.000000000000000e+00
2469 2469 5.141736686229706e+00
2470 26 -1.000000000000000e+00
2470 730 -1.511857956647873e-01
2470 953 -1.188982248306274e+00
2470 1902 -1.000000000000000e+00
2470 1962 -1.336306184530258e-01
2470 2470 4.560509651899338e+00
2471 48 -1.000000000000000e+00
2471 590 -1.000000000000000e+00
2471 634 -2.041241377592087e-01
2471 1210 -2.296576052904129e-01
2471 1705 -1.000000000000000e+00
2471 2471 3.433781743049622e+00
2472 306 -1.000000000000000e+00
2472 494 -1.000000000000000e+00
2472 1244 -1.000000000000000e+00
2472 2472 4.000000000000000e+00
2473 200 -1.000000000000000e+00
2473 1001 -1.000000000000000e+00
2473 1615 -1.054554469883442e+00
2473 2473 3.054554469883442e+00
2474 626 -1.000000000000000e+00
2474 1054 -1.000000000000000e+00
2474 1232 -1.000000000000000e+00
2474 2474 6.132453233003616e+00
2475 8 -1.000000000000000e+00
2475 78 -1.000000000000000e+00
2475 1163 -1.000000000000000e+00
2475 2475 3.000000000000000e+00
2476 21 -1.000000000000000e+00
2476 82 -1.000000000000000e+00
2476 955 -2.581988871097565e-01
2476 1387 -2.051956653594971e-01
2476 1654 -1.000000000000000e+00
2476 2476 4.463394552469254e+00
2477 19 -1.000000000000000e+00
2477 787 -1.000000000000000e+00
2477 1999 -1.000000000000000e+00
2477 2477 3.000000000000000e+00
2478 103 -1.000000000000000e+00
2478 378 -1.000000000000000e+00
2478 1948 -1.165144562721252e+00
2478 2478 7.449922837316990e+00
2479 444 -1.000000000000000e+00
2479 599 -1.100503779947758e+00
2479 1125 -1.000000000000000e+00
2479 1174 -9.724333137273788e-02
2479 1495 -1.041158363223076e-01
2479 2479 3.394312977790833e+00
2480 68 -1.000000000000000e+00
2480 99 -1.129099443554878e+00
2480 1577 -1.353553384542465e+00
2480 1594 -2.581988871097565e-01
2480 2480 3.740851715207100e+00
2481 103 -1.000000000000000e+00
2481 1025 -1.543033570051193e-01
2481 1323 -1.000000000000000e+00
2481 1400 -1.000000000000000e+00
2481 2481 4.154303357005119e+00
2482 194 -1.000000000000000e+00
2482 568 -1.000000000000000e+00
2482 1928 -1.000000000000000e+00
2482 2482 3.000000000000000e+00
2483 1318 -1.000000000000000e+00
2483 1588 -1.000000000000000e+00
2483 1889 -1.000000000000000e+00
2483 2168 -1.020620763301849e-01
2483 2483 5.435395419597626e+00
2484 222 -1.096225045621395e+00
2484 391 -1.000000000000000e+00
2484 678 -8.333333581686020e-02
2484 1997 -1.000000000000000e+00
2484 2484 3.179558381438255e+00
2485 299 -1.714985966682434e-01
2485 416 -1.000000000000000e+00
2485 2000 -1.000000000000000e+00
2485 2350 -1.000000000000000e+00
2485 2485 3.421498596668243e+00
2486 5 -1.000000000000000e+00
2486 271 -2.236067950725555e-01
2486 2053 -1.000000000000000e+00
2486 2130 -1.000000000000000e+00
2486 2486 4.223606795072556e+00
2487 217 -1.000000000000000e+00
2487 1273 -1.000000000000000e+00
2487 1415 -1.000000000000000e+00
2487 2487 3.235702246427536e+00
2488 171 -1.000000000000000e+00
2488 1058 -1.000000000000000e+00
2488 1669 -1.000000000000000e+00
2488 2488 4.000000000000000e+00
2489 245 -1.000000000000000e+00
2489 321 -1.129099443554878e+00
2489 673 -1.000000000000000e+00
2489 2489 3.129099443554878e+00
2490 439 -1.000000000000000e+00
2490 887 -1.000000000000000e+00
2490 1173 -1.000000000000000e+00
2490 2490 3.000000000000000e+00
2491 5 -1.000000000000000e+00
2491 609 -1.000000000000000e+00
2491 1871 -1.000000000000000e+00
2491 2370 -4.522669911384583e-01
2491 2491 3.452266991138458e+00
2492 256 -1.000000000000000e+00
2492 722 -1.000000000000000e+00
2492 1168 -1.000000000000000e+00
2492 2492 5.093658573925495e+00
2493 618 -1.000000000000000e+00
2493 737 -1.000000000000000e+00
2493 1586 -1.000000000000000e+00
2493 2493 4.192450091242790e+00
2494 27 -1.000000000000000e+00
2494 48 -1.000000000000000e+00
2494 162 -1.000000000000000e+00
2494 1755 -2.581988871097565e-01
2494 2494 4.258198887109756e+00
2495 31 -1.000000000000000e+00
2495 1464 -1.121267817914486e+00
2495 2129 -1.000000000000000e+00
2495 2495 3.121267817914486e+00
2496 71 -1.000000000000000e+00
2496 1243 -1.000000000000000e+00
2496 1403 -1.000000000000000e+00
2496 2496 3.000000000000000e+00
2497 5 -1.000000000000000e+00
2497 57 -1.000000000000000e+00
2497 378 -1.000000000000000e+00
2497 2497 3.000000000000000e+00
2498 414 -1.000000000000000e+00
2498 1153 -1.000000000000000e+00
2498 2007 -1.000000000000000e+00
2498 2498 3.000000000000000e+00
2499 753 -1.360827535390854e-01
2499 808 -1.000000000000000e+00
2499 967 -1.000000000000000e+00
2499 2183 -1.000000000000000e+00
2499 2499 4.394281640648842e+00
2500 7 -1.000000000000000e+00
2500 793 -1.000000000000000e+00
2500 1901 -1.000000000000000e+00
2500 2500 4.294883906841278e+00
2501 719 -1.000000000000000e+00
2501 888 -1.000000000000000e+00
2501 1635 -1.000000000000000e+00
2501 2501 3.000000000000000e+00
2502 5 -1.000000000000000e+00
2502 57 -1.000000000000000e+00
2502 1813 -3.162277638912201e-01
2502 2147 -1.000000000000000e+00
2502 2502 4.681376129388809e+00
2503 171 -1.000000000000000e+00
2503 535 -1.000000000000000e+00
2503 871 -1.000000000000000e+00
2503 1260 -1.690308600664139e-01
2503 2503 5.169030860066414e+00
2504 198 -1.000000000000000e+00
2504 465 -1.000000000000000e+00
2504 1582 -1.000000000000000e+00
2504 2504 4.000000000000000e+00
2505 31 -1.000000000000000e+00
2505 140 -1.000000000000000e+00
2505 144 -1.123091489076614e+00
2505 2505 4.123091489076614e+00
2506 800 -1.000000000000000e+00
2506 2017 -1.000000000000000e+00
2506 2212 -1.000000000000000e+00
2506 2506 3.331742923706770e+00
2507 78 -1.000000000000000e+00
2507 699 -1.000000000000000e+00
2507 1708 -1.000000000000000e+00
2507 2507 3.000000000000000e+00
2508 147 -1.000000000000000e+00
2508 282 -1.000000000000000e+00
2508 1327 -1.000000000000000e+00
2508 2508 3.480450704693794e+00
2509 213 -1.000000000000000e+00
2509 1251 -1.000000000000000e+00
2509 1384 -1.000000000000000e+00
2509 2509 5.154303357005119e+00
2510 349 -1.072168782353401e+00
2510 762 -1.000000000000000e+00
2510 1898 -1.000000000000000e+00
2510 2510 6.072168782353401e+00
2511 287 -1.825741827487946e-01
2511 365 -1.000000000000000e+00
2511 554 -1.000000000000000e+00
2511 1685 -1.182574182748795e+00
2511 2511 3.365148365497589e+00
2512 705 -1.000000000000000e+00
2512 755 -1.000000000000000e+00
2512 1636 -1.443375647068024e-01
2512 2346 -1.000000000000000e+00
2512 2512 4.144337564706802e+00
2513 42 -1.000000000000000e+00
2513 308 -1.000000000000000e+00
2513 1877 -7.715167850255966e-02
2513 2028 -1.000000000000000e+00
2513 2513 3.077151678502560e+00
2514 321 -1.000000000000000e+00
2514 480 -1.000000000000000e+00
2514 1652 -1.000000000000000e+00
2514 2514 3.000000000000000e+00
2515 416 -1.000000000000000e+00
2515 1619 -1.000000000000000e+00
2515 2021 -1.000000000000000e+00
2515 2515 3.000000000000000e+00
2516 1013 -1.000000000000000e+00
2516 1223 -1.000000000000000e+00
2516 1803 -1.000000000000000e+00
2516 2516 3.000000000000000e+00
2517 95 -1.000000000000000e+00
2517 482 -1.000000000000000e+00
2517 1777 -8.908708393573761e-02
2517 2209 -1.204124152660370e+00
2517 2517 3.293211236596107e+00
2518 648 -1.000000000000000e+00
2518 1917 -1.000000000000000e+00
2518 2140 -1.000000000000000e+00
2518 2518 4.204124152660370e+00
2519 135 -1.000000000000000e+00
2519 348 -3.396830856800079e-01
2519 497 -1.000000000000000e+00
2519 2186 -1.000000000000000e+00
2519 2519 4.339683085680008e+00
2520 23 -1.000000000000000e+00
2520 1300 -1.000000000000000e+00
2520 2357 -1.000000000000000e+00
2520 2520 3.000000000000000e+00
2521 60 -1.000000000000000e+00
2521 162 -1.000000000000000e+00
2521 209 -1.000000000000000e+00
2521 2521 4.000000000000000e+00
2522 7 -1.000000000000000e+00
2522 124 -2.827849984169006e-01
2522 424 -1.000000000000000e+00
2522 2247 -1.331133067607880e+00
2522 2522 5.047473013401031e+00
2523 885 -1.000000000000000e+00
2523 1900 -1.000000000000000e+00
2523 2059 -1.000000000000000e+00
2523 2523 8.000000000000000e+00
2524 4 -1.000000000000000e+00
2524 1131 -1.000000000000000e+00
2524 2107 -1.000000000000000e+00
2524 2524 3.000000000000000e+00
2525 13 -1.000000000000000e+00
2525 159 -9.782319515943527e-02
2525 653 -1.000000000000000e+00
2525 1094 -1.066003590822220e-01
2525 1205 -1.000000000000000e+00
2525 1843 -1.066003590822220e-01
2525 2525 3.311023913323879e+00
2526 7 -1.000000000000000e+00
2526 460 -1.000000000000000e+00
2526 997 -1.000000000000000e+00
2526 2526 4.000000000000000e+00
2527 579 -1.000000000000000e+00
2527 757 -1.000000000000000e+00
2527 1581 -1.000000000000000e+00
2527 2527 4.000000000000000e+00
2528 29 -1.176776677370071e+00
2528 150 -1.000000000000000e+00
2528 401 -4.564354568719864e-02
2528 2302 -1.000000000000000e+00
2528 2528 3.222420223057270e+00
2529 5 -2.581988871097565e-01
2529 725 -1.000000000000000e+00
2529 1757 -1.000000000000000e+00
2529 2066 -1.000000000000000e+00
2529 2529 4.258198887109756e+00
2530 137 -1.000000000000000e+00
2530 320 -1.000000000000000e+00
2530 1062 -1.740776598453522e-01
2530 2241 -1.150329202413559e+00
2530 2530 5.324406862258911e+00
2531 461 -1.000000000000000e+00
2531 787 -1.000000000000000e+00
2531 1092 -1.000000000000000e+00
2531 2531 5.141421362757683e+00
2532 826 -1.000000000000000e+00
2532 950 -1.000000000000000e+00
2532 1304 -1.000000000000000e+00
2532 2532 5.000000000000000e+00
2533 1869 -1.000000000000000e+00
2533 2058 -1.000000000000000e+00
2533 2522 -1.000000000000000e+00
2533 2533 3.000000000000000e+00
2534 99 -1.000000000000000e+00
2534 277 -1.000000000000000e+00
2534 607 -1.000000000000000e+00
2534 2534 4.000000000000000e+00
2535 65 -1.000000000000000e+00
2535 80 -1.000000000000000e+00
2535 1930 -1.000000000000000e+00
2535 2535 4.000000000000000e+00
2536 26 -1.000000000000000e+00
2536 343 -1.000000000000000e+00
2536 1299 -1.000000000000000e+00
2536 2536 4.000000000000000e+00
2537 407 -1.000000000000000e+00
2537 928 -1.000000000000000e+00
2537 953 -1.000000000000000e+00
2537 1949 -4.330126941204071e-01
2537 2537 4.433012694120407e+00
2538 14 -1.000000000000000e+00
2538 792 -1.000000000000000e+00
2538 834 -2.500000298023224e-01
2538 2535 -1.000000000000000e+00
2538 2538 4.250000029802322e+00
2539 65 -1.000000000000000e+00
2539 420 -1.000000000000000e+00
2539 1229 -1.000000000000000e+00
2539 2539 6.000000000000000e+00
2540 19 -1.000000000000000e+00
2540 115 -1.091089546680450e-01
2540 1451 -1.000000000000000e+00
2540 1856 -1.285714298486710e+00
2540 2540 3.394823253154755e+00
2541 26 -1.000000000000000e+00
2541 269 -1.000000000000000e+00
2541 1868 -1.000000000000000e+00
2541 2541 5.000000000000000e+00
2542 1454 -1.000000000000000e+00
2542 1744 -1.000000000000000e+00
2542 2509 -1.154303357005119e+00
2542 2542 4.372521266341209e+00
2543 9 -1.000000000000000e+00
2543 116 -1.000000000000000e+00
2543 1711 -1.000000000000000e+00
2543 2543 3.000000000000000e+00
2544 234 -1.000000000000000e+00
2544 1784 -1.000000000000000e+00
2544 2510 -1.000000000000000e+00
2544 2544 4.000000000000000e+00
2545 304 -1.000000000000000e+00
2545 918 -1.000000000000000e+00
2545 2347 -1.000000000000000e+00
2545 2545 3.000000000000000e+00
2546 2 -1.000000000000000e+00
2546 93 -1.000000000000000e+00
2546 2194 -1.000000000000000e+00
2546 2546 3.000000000000000e+00
2547 20 -1.000000000000000e+00
2547 32 -1.223606795072556e+00
2547 1790 -1.000000000000000e+00
2547 2547 3.223606795072556e+00
2548 35 -1.000000000000000e+00
2548 1105 -1.000000000000000e+00
2548 1568 -1.000000000000000e+00
2548 2548 3.384900182485580e+00
2549 1574 -1.153393000364304e+00
2549 1847 -1.000000000000000e+00
2549 2049 -1.000000000000000e+00
2549 2549 3.261858232319355e+00
2550 79 -1.000000000000000e+00
2550 330 -1.000000000000000e+00
2550 1838 -1.000000000000000e+00
2550 2550 3.000000000000000e+00
2551 42 -1.000000000000000e+00
2551 1611 -1.000000000000000e+00
2551 2107 -1.000000000000000e+00
2551 2551 4.000000000000000e+00
2552 306 -1.000000000000000e+00
2552 1423 -1.141421362757683e+00
2552 1854 -1.000000000000000e+00
2552 2552 3.141421362757683e+00
2553 72 -1.000000000000000e+00
2553 109 -1.000000000000000e+00
2553 1888 -1.000000000000000e+00
2553 2553 3.000000000000000e+00
2554 32 -1.000000000000000e+00
2554 47 -1.000000000000000e+00
2554 132 -1.000000000000000e+00
2554 2554 4.000000000000000e+00
2555 26 -1.000000000000000e+00
2555 34 -1.000000000000000e+00
2555 189 -1.000000000000000e+00
2555 2555 3.267261236906052e+00
2556 36 -1.000000000000000e+00
2556 270 -1.045175392180681e+00
2556 1126 -1.192006140947342e+00
2556 1257 -1.195228472352028e-01
2556 2556 4.409118618816137e+00
2557 287 -1.000000000000000e+00
2557 317 -1.000000000000000e+00
2557 453 -6.154574453830719e-02
2557 1875 -1.341881722211838e+00
2557 2557 3.403427466750145e+00
2558 97 -1.000000000000000e+00
2558 963 -1.000000000000000e+00
2558 1031 -3.198010623455048e-01
2558 1221 -1.000000000000000e+00
2558 2558 3.319801062345505e+00
2559 7 -1.000000000000000e+00
2559 691 -1.000000000000000e+00
2559 777 -1.167967751622200e+00
2559 1805 -1.137147024273872e-01
2559 2559 3.281682454049587e+00
2560 46 -1.000000000000000e+00
2560 68 -1.178174167871475e+00
2560 96 -1.000000000000000e+00
2560 134 -8.908708393573761e-02
2560 2560 3.267261251807213e+00
2561 51 -1.000000000000000e+00
2561 107 -1.000000000000000e+00
2561 414 -1.000000000000000e+00
2561 2561 3.000000000000000e+00
2562 286 -1.000000000000000e+00
2562 1306 -1.000000000000000e+00
2562 1796 -1.000000000000000e+00
2562 2562 3.000000000000000e+00
2563 19 -1.000000000000000e+00
2563 1640 -1.000000000000000e+00
2563 1800 -1.000000000000000e+00
2563 2563 5.000000000000000e+00
2564 336 -1.000000000000000e+00
2564 1680 -1.000000000000000e+00
2564 1937 -1.000000000000000e+00
2564 2564 4.000000000000000e+00
2565 239 -1.000000000000000e+00
2565 331 -1.000000000000000e+00
2565 2342 -1.000000000000000e+00
2565 2565 6.158113881945610e+00
2566 358 -1.000000000000000e+00
2566 383 -1.000000000000000e+00
2566 1030 -1.000000000000000e+00
2566 2566 5.000000000000000e+00
2567 987 -1.000000000000000e+00
2567 1064 -1.000000000000000e+00
2567 2089 -1.000000000000000e+00
2567 2567 3.000000000000000e+00
2568 70 -1.000000000000000e+00
2568 1213 -1.000000000000000e+00
2568 1549 -1.000000000000000e+00
2568 2568 3.000000000000000e+00
2569 306 -1.000000000000000e+00
2569 508 -1.000000000000000e+00
2569 2450 -1.000000000000000e+00
2569 2569 5.115470044314861e+00
2570 51 -1.000000000000000e+00
2570 695 -1.000000000000000e+00
2570 1903 -1.000000000000000e+00
2570 2570 4.000000000000000e+00
2571 671 -1.000000000000000e+00
2571 1251 -1.000000000000000e+00
2571 1807 -1.000000000000000e+00
2571 2571 5.000000000000000e+00
2572 96 -1.000000000000000e+00
2572 210 -1.000000000000000e+00
2572 1550 -1.144337564706802e+00
2572 2572 3.144337564706802e+00
2573 70 -1.000000000000000e+00
2573 758 -1.000000000000000e+00
2573 2523 -1.000000000000000e+00
2573 2573 3.000000000000000e+00
2574 651 -1.000000000000000e+00
2574 1169 -1.000000000000000e+00
2574 2104 -1.000000000000000e+00
2574 2574 5.000000000000000e+00
2575 163 -1.000000000000000e+00
2575 1826 -1.000000000000000e+00
2575 2470 -1.000000000000000e+00
2575 2575 4.000000000000000e+00
2576 476 -1.000000000000000e+00
2576 706 -1.000000000000000e+00
2576 2106 -1.000000000000000e+00
2576 2576 4.230940088629723e+00
2577 8 -1.000000000000000e+00
2577 57 -1.000000000000000e+00
2577 209 -1.825741827487946e-01
2577 2135 -1.000000000000000e+00
2577 2577 3.182574182748795e+00
2578 89 -1.000000000000000e+00
2578 96 -1.000000000000000e+00
2578 393 -1.000000000000000e+00
2578 2578 5.000000000000000e+00
2579 77 -1.000000000000000e+00
2579 98 -1.000000000000000e+00
2579 727 -1.000000000000000e+00
2579 2579 3.000000000000000e+00
2580 20 -1.000000000000000e+00
2580 51 -1.000000000000000e+00
2580 487 -1.000000000000000e+00
2580 2580 3.000000000000000e+00
2581 154 -1.000000000000000e+00
2581 489 -1.000000000000000e+00
2581 726 -1.000000000000000e+00
2581 910 -3.380617201328278e-01
2581 1684 -2.581988871097565e-01
2581 2581 4.596260607242584e+00
2582 193 -1.000000000000000e+00
2582 1346 -1.000000000000000e+00
2582 2539 -1.000000000000000e+00
2582 2582 3.377964496612549e+00
2583 4 -1.000000000000000e+00
2583 551 -1.000000000000000e+00
2583 1670 -1.000000000000000e+00
2583 2583 4.000000000000000e+00
2584 93 -1.000000000000000e+00
2584 1347 -1.000000000000000e+00
2584 1766 -1.000000000000000e+00
2584 2584 4.000000000000000e+00
2585 57 -1.000000000000000e+00
2585 282 -1.000000000000000e+00
2585 396 -1.000000000000000e+00
2585 2585 3.000000000000000e+00
2586 7 -1.000000000000000e+00
2586 1181 -1.000000000000000e+00
2586 1577 -1.000000000000000e+00
2586 2586 3.000000000000000e+00
2587 22 -1.000000000000000e+00
2587 1680 -1.149071186780930e+00
2587 1760 -1.000000000000000e+00
2587 2587 3.399071186780930e+00
2588 1209 -1.000000000000000e+00
2588 1403 -1.000000000000000e+00
2588 1957 -1.000000000000000e+00
2588 2588 3.000000000000000e+00
2589 13 -1.000000000000000e+00
2589 157 -1.000000000000000e+00
2589 526 -1.000000000000000e+00
2589 2589 5.761801689863205e+00
2590 35 -1.000000000000000e+00
2590 97 -1.000000000000000e+00
2590 305 -1.000000000000000e+00
2590 631 -2.857142984867096e-01
2590 1343 -1.889822483062744e-01
2590 2590 4.474696546792984e+00
2591 82 -1.000000000000000e+00
2591 280 -1.000000000000000e+00
2591 1182 -3.872983157634735e-01
2591 1332 -2.490291297435760e-01
2591 1990 -1.000000000000000e+00
2591 2591 4.636327445507050e+00
2592 45 -1.000000000000000e+00
2592 1221 -1.000000000000000e+00
2592 1333 -1.240347325801849e-01
2592 2355 -1.000000000000000e+00
2592 2592 5.418208926916122e+00
2593 5 -1.000000000000000e+00
2593 79 -1.000000000000000e+00
2593 1786 -1.218217909336090e+00
2593 2593 4.485479146242142e+00
2594 5 -1.000000000000000e+00
2594 1752 -1.000000000000000e+00
2594 2107 -1.000000000000000e+00
2594 2594 3.000000000000000e+00
2595 75 -1.000000000000000e+00
2595 989 -1.000000000000000e+00
2595 1818 -1.000000000000000e+00
2595 2595 3.000000000000000e+00
2596 417 -1.000000000000000e+00
2596 731 -1.000000000000000e+00
2596 1915 -1.000000000000000e+00
2596 2596 6.158113881945610e+00
2597 904 -1.000000000000000e+00
2597 1054 -1.000000000000000e+00
2597 1072 -1.000000000000000e+00
2597 2597 3.000000000000000e+00
2598 1 -1.000000000000000e+00
2598 704 -1.000000000000000e+00
2598 1197 -1.000000000000000e+00
2598 2598 4.000000000000000e+00
2599 13 -1.000000000000000e+00
2599 1811 -1.000000000000000e+00
2599 2570 -1.000000000000000e+00
2599 2599 4.226455390453339e+00
2600 529 -3.273268640041351e-01
2600 1194 -1.000000000000000e+00
2600 1309 -1.000000000000000e+00
2600 1343 -1.000000000000000e+00
2600 2600 3.680880218744278e+00
2601 402 -1.000000000000000e+00
2601 1106 -1.000000000000000e+00
2601 2308 -1.000000000000000e+00
2601 2601 4.188982248306274e+00
2602 376 -1.000000000000000e+00
2602 1673 -1.000000000000000e+00
2602 2148 -1.000000000000000e+00
2602 2602 5.171498596668243e+00
2603 5 -1.000000000000000e+00
2603 620 -1.000000000000000e+00
2603 648 -3.608439266681671e-01
2603 1478 -1.000000000000000e+00
2603 2487 -2.357022464275360e-01
2603 2603 5.596546173095703e+00
2604 2 -1.000000000000000e+00
2604 393 -1.000000000000000e+00
2604 1053 -1.000000000000000e+00
2604 2604 4.267261236906052e+00
2605 424 -1.000000000000000e+00
2605 597 -1.000000000000000e+00
2605 1909 -2.132007181644440e-01
2605 2123 -7.106690853834152e-02
2605 2237 -1.000000000000000e+00
2605 2605 5.353439070284367e+00
2606 334 -1.000000000000000e+00
2606 1465 -1.000000000000000e+00
2606 1552 -1.000000000000000e+00
2606 2606 3.000000000000000e+00
2607 162 -1.000000000000000e+00
2607 317 -1.353553384542465e+00
2607 914 -1.000000000000000e+00
2607 2607 3.353553384542465e+00
2608 830 -1.000000000000000e+00
2608 1097 -1.000000000000000e+00
2608 1865 -1.000000000000000e+00
2608 2608 3.000000000000000e+00
2609 154 -1.000000000000000e+00
2609 1386 -1.543033570051193e-01
2609 1730 -1.000000000000000e+00
2609 1770 -1.000000000000000e+00
2609 2609 4.154303357005119e+00
2610 251 -1.000000000000000e+00
2610 1001 -1.000000000000000e+00
2610 1463 -1.000000000000000e+00
2610 1508 -9.759000688791275e-02
2610 2610 3.097590006887913e+00
2611 223 -1.000000000000000e+00
2611 932 -1.000000000000000e+00
2611 1875 -1.000000000000000e+00
2611 2611 3.000000000000000e+00
2612 1027 -1.000000000000000e+00
2612 2080 -1.000000000000000e+00
2612 2300 -1.000000000000000e+00
2612 2612 3.000000000000000e+00
2613 330 -1.000000000000000e+00
2613 795 -1.000000000000000e+00
2613 1772 -1.000000000000000e+00
2613 2613 4.000000000000000e+00
2614 67 -1.089087076485157e+00
2614 558 -1.000000000000000e+00
2614 1370 -1.145864993333817e+00
2614 1549 -1.360827535390854e-01
2614 2614 3.371034823358059e+00
2615 5 -1.000000000000000e+00
2615 8 -1.000000000000000e+00
2615 884 -1.000000000000000e+00
2615 2615 4.000000000000000e+00
2616 30 -1.000000000000000e+00
2616 321 -1.000000000000000e+00
2616 525 -1.000000000000000e+00
2616 2616 5.000000000000000e+00
2617 57 -1.000000000000000e+00
2617 295 -1.000000000000000e+00
2617 2451 -1.000000000000000e+00
2617 2617 3.000000000000000e+00
2618 43 -1.000000000000000e+00
2618 1173 -1.000000000000000e+00
2618 1884 -1.000000000000000e+00
2618 2618 3.154303357005119e+00
2619 235 -1.000000000000000e+00
2619 846 -2.357022762298584e-01
2619 1055 -1.000000000000000e+00
2619 1490 -1.000000000000000e+00
2619 2619 4.235702276229858e+00
2620 1199 -1.000000000000000e+00
2620 1731 -1.000000000000000e+00
2620 2011 -1.000000000000000e+00
2620 2620 3.516397774219513e+00
2621 32 -1.000000000000000e+00
2621 34 -1.000000000000000e+00
2621 159 -1.000000000000000e+00
2621 2621 4.292953848838806e+00
2622 6 -1.000000000000000e+00
2622 46 -1.000000000000000e+00
2622 376 -1.000000000000000e+00
2622 1726 -2.357022464275360e-01
2622 2622 5.773159742355347e+00
2623 133 -1.000000000000000e+00
2623 710 -9.622504562139511e-02
2623 717 -3.922322690486908e-01
2623 1185 -1.000000000000000e+00
2623 1339 -1.000000000000000e+00
2623 2623 4.488457314670086e+00
2624 27 -1.000000000000000e+00
2624 1065 -1.000000000000000e+00
2624 2168 -1.000000000000000e+00
2624 2483 -3.333333432674408e-01
2624 2624 4.333333343267441e+00
2625 445 -1.000000000000000e+00
2625 1009 -1.000000000000000e+00
2625 1760 -1.000000000000000e+00
2625 2625 3.000000000000000e+00
2626 69 -1.000000000000000e+00
2626 259 -1.161164596676826e+00
2626 707 -1.000000000000000e+00
2626 2453 -1.010152548551559e-01
2626 2626 3.262179851531982e+00
2627 48 -1.000000000000000e+00
2627 1230 -1.000000000000000e+00
2627 2220 -1.000000000000000e+00
2627 2627 4.308606714010239e+00
2628 9 -1.000000000000000e+00
2628 26 -1.000000000000000e+00
2628 51 -1.000000000000000e+00
2628 2628 3.000000000000000e+00
2629 330 -1.000000000000000e+00
2629 523 -1.000000000000000e+00
2629 1972 -1.078086882829666e+00
2629 2629 4.078086882829666e+00
2630 120 -1.000000000000000e+00
2630 142 -1.000000000000000e+00
2630 326 -1.000000000000000e+00
2630 2630 3.235702276229858e+00
2631 361 -1.000000000000000e+00
2631 1616 -1.000000000000000e+00
2631 2207 -1.000000000000000e+00
2631 2631 6.000000000000000e+00
2632 27 -1.000000000000000e+00
2632 442 -1.000000000000000e+00
2632 1255 -1.000000000000000e+00
2632 2632 3.000000000000000e+00
2633 1251 -1.000000000000000e+00
2633 1678 -1.000000000000000e+00
2633 1855 -1.000000000000000e+00
2633 2633 3.000000000000000e+00
2634 391 -1.000000000000000e+00
2634 410 -1.000000000000000e+00
2634 1460 -1.000000000000000e+00
2634 2634 3.182574182748795e+00
2635 302 -1.000000000000000e+00
2635 578 -1.000000000000000e+00
2635 1674 -1.357688605785370e-01
2635 2027 -1.000000000000000e+00
2635 2635 3.135768860578537e+00
2636 104 -1.000000000000000e+00
2636 200 -1.000000000000000e+00
2636 1757 -1.000000000000000e+00
2636 2636 3.000000000000000e+00
2637 390 -1.000000000000000e+00
2637 1173 -1.000000000000000e+00
2637 1883 -1.000000000000000e+00
2637 2637 3.000000000000000e+00
2638 34 -1.000000000000000e+00
2638 1290 -1.000000000000000e+00
2638 1616 -1.000000000000000e+00
2638 2638 4.000000000000000e+00
2639 103 -1.000000000000000e+00
2639 349 -1.020620688796043e-01
2639 1692 -1.000000000000000e+00
2639 2510 -1.000000000000000e+00
2639 2639 3.102062068879604e+00
2640 52 -1.000000000000000e+00
2640 666 -1.000000000000000e+00
2640 1778 -1.000000000000000e+00
2640 2640 4.176776692271233e+00
2641 23 -1.000000000000000e+00
2641 37 -1.000000000000000e+00
2641 121 -1.025978326797485e-01
2641 1775 -1.081110708415508e+00
2641 2641 3.183708541095257e+00
2642 7 -1.000000000000000e+00
2642 403 -1.000000000000000e+00
2642 902 -3.333333432674408e-01
2642 1217 -4.364358186721802e-01
2642 1731 -1.000000000000000e+00
2642 2620 -2.581988871097565e-01
2642 2642 5.849288448691368e+00
2643 99 -1.000000000000000e+00
2643 686 -1.000000000000000e+00
2643 1054 -1.000000000000000e+00
2643 2643 3.000000000000000e+00
2644 269 -1.000000000000000e+00
2644 950 -1.000000000000000e+00
2644 1249 -1.000000000000000e+00
2644 1597 -1.257389187812805e-01
2644 2644 3.125738918781281e+00
2645 4 -1.000000000000000e+00
2645 338 -1.000000000000000e+00
2645 987 -1.000000000000000e+00
2645 2645 3.000000000000000e+00
2646 178 -1.000000000000000e+00
2646 1269 -1.000000000000000e+00
2646 1617 -1.000000000000000e+00
2646 2646 3.223606795072556e+00
2647 192 -1.000000000000000e+00
2647 315 -1.000000000000000e+00
2647 1028 -1.178511381149292e-01
2647 1415 -1.072168782353401e+00
2647 2191 -1.443375647068024e-01
2647 2647 3.334357485175133e+00
2648 1361 -1.000000000000000e+00
2648 1590 -1.000000000000000e+00
2648 1628 -1.000000000000000e+00
2648 2648 8.301511347293854e+00
2649 43 -1.000000000000000e+00
2649 116 -1.000000000000000e+00
2649 121 -1.000000000000000e+00
2649 1775 -6.454972177743912e-02
2649 2649 3.064549721777439e+00
2650 320 -1.000000000000000e+00
2650 1167 -1.000000000000000e+00
2650 2200 -1.000000000000000e+00
2650 2650 3.000000000000000e+00
2651 757 -1.000000000000000e+00
2651 2219 -1.000000000000000e+00
2651 2286 -1.000000000000000e+00
2651 2651 3.000000000000000e+00
2652 1101 -1.000000000000000e+00
2652 1106 -1.000000000000000e+00
2652 1573 -1.000000000000000e+00
2652 2652 3.000000000000000e+00
2653 7 -1.000000000000000e+00
2653 333 -1.000000000000000e+00
2653 728 -1.000000000000000e+00
2653 831 -1.904761940240860e-01
2653 2653 5.190476194024086e+00
2654 33 -1.000000000000000e+00
2654 1494 -1.000000000000000e+00
2654 1576 -1.000000000000000e+00
2654 2311 -1.031421199440956e-01
2654 2654 4.103142119944096e+00
2655 737 -1.176776692271233e+00
2655 1290 -1.000000000000000e+00
2655 2243 -1.000000000000000e+00
2655 2365 -2.041241377592087e-01
2655 2655 3.380900830030441e+00
2656 542 -1.000000000000000e+00
2656 2090 -1.096225045621395e+00
2656 2169 -1.117851123213768e+00
2656 2656 3.214076168835163e+00
2657 46 -1.000000000000000e+00
2657 477 -1.000000000000000e+00
2657 1623 -1.000000000000000e+00
2657 2657 6.235702246427536e+00
2658 10 -1.000000000000000e+00
2658 176 -1.000000000000000e+00
2658 333 -1.000000000000000e+00
2658 2658 4.000000000000000e+00
2659 389 -1.000000000000000e+00
2659 751 -1.000000000000000e+00
2659 2072 -1.000000000000000e+00
2659 2659 3.000000000000000e+00
2660 67 -1.000000000000000e+00
2660 462 -1.111803397536278e+00
2660 1137 -1.000000000000000e+00
2660 2660 4.111803397536278e+00
2661 193 -1.000000000000000e+00
2661 454 -1.000000000000000e+00
2661 715 -1.000000000000000e+00
2661 2661 3.000000000000000e+00
2662 1 -1.000000000000000e+00
2662 1201 -1.000000000000000e+00
2662 2531 -1.141421362757683e+00
2662 2662 3.141421362757683e+00
2663 7 -1.000000000000000e+00
2663 11 -1.000000000000000e+00
2663 1357 -1.000000000000000e+00
2663 2663 3.000000000000000e+00
2664 114 -1.000000000000000e+00
2664 276 -1.000000000000000e+00
2664 1784 -1.969596594572067e-01
2664 2317 -1.000000000000000e+00
2664 2664 3.196959659457207e+00
2665 154 -1.000000000000000e+00
2665 798 -1.000000000000000e+00
2665 1267 -1.000000000000000e+00
2665 2665 4.000000000000000e+00
2666 46 -1.000000000000000e+00
2666 434 -1.000000000000000e+00
2666 2127 -1.000000000000000e+00
2666 2666 3.000000000000000e+00
2667 32 -1.000000000000000e+00
2667 1333 -1.000000000000000e+00
2667 2405 -1.000000000000000e+00
2667 2592 -2.941741943359375e-01
2667 2667 4.396236270666122e+00
2668 8 -1.000000000000000e+00
2668 23 -1.000000000000000e+00
2668 493 -1.000000000000000e+00
2668 1363 -2.840286493301392e-01
2668 2668 4.647832095623016e+00
2669 6 -1.000000000000000e+00
2669 1933 -1.000000000000000e+00
2669 2532 -1.000000000000000e+00
2669 2669 3.141421362757683e+00
2670 43 -1.000000000000000e+00
2670 1783 -1.000000000000000e+00
2670 2425 -1.177667260169983e+00
2670 2670 4.177667260169983e+00
2671 778 -1.000000000000000e+00
2671 1140 -1.000000000000000e+00
2671 1897 -1.000000000000000e+00
2671 2671 3.000000000000000e+00
2672 1254 -1.000000000000000e+00
2672 1330 -2.236067950725555e-01
2672 2113 -1.000000000000000e+00
2672 2208 -1.000000000000000e+00
2672 2672 5.588755160570145e+00
2673 350 -1.000000000000000e+00
2673 1303 -1.000000000000000e+00
2673 1894 -1.000000000000000e+00
2673 2673 3.000000000000000e+00
2674 394 -1.000000000000000e+00
2674 566 -1.000000000000000e+00
2674 636 -1.000000000000000e+00
2674 2674 5.250000029802322e+00
2675 27 -1.000000000000000e+00
2675 743 -1.000000000000000e+00
2675 1233 -1.000000000000000e+00
2675 2675 4.000000000000000e+00
2676 132 -1.000000000000000e+00
2676 1029 -1.000000000000000e+00
2676 2565 -1.000000000000000e+00
2676 2676 3.000000000000000e+00
2677 480 -1.000000000000000e+00
2677 650 -1.000000000000000e+00
2677 1892 -1.000000000000000e+00
2677 2677 7.000000000000000e+00
2678 44 -1.000000000000000e+00
2678 106 -1.000000000000000e+00
2678 495 -1.000000000000000e+00
2678 2678 3.000000000000000e+00
2679 34 -1.000000000000000e+00
2679 46 -1.000000000000000e+00
2679 1301 -1.000000000000000e+00
2679 2679 3.000000000000000e+00
2680 239 -1.000000000000000e+00
2680 1716 -1.000000000000000e+00
2680 2598 -1.000000000000000e+00
2680 2680 3.000000000000000e+00
2681 84 -1.000000000000000e+00
2681 2140 -1.000000000000000e+00
2681 2260 -1.000000000000000e+00
2681 2681 3.000000000000000e+00
2682 8 -1.000000000000000e+00
2682 953 -1.000000000000000e+00
2682 1147 -1.000000000000000e+00
2682 2682 5.248069465160370e+00
2683 227 -1.000000000000000e+00
2683 256 -1.000000000000000e+00
2683 1526 -1.000000000000000e+00
2683 2683 3.000000000000000e+00
2684 324 -1.000000000000000e+00
2684 778 -1.000000000000000e+00
2684 1451 -1.000000000000000e+00
2684 2684 4.000000000000000e+00
2685 1 -1.000000000000000e+00
2685 4 -1.000000000000000e+00
2685 17 -1.000000000000000e+00
2685 2685 3.000000000000000e+00
2686 522 -1.000000000000000e+00
2686 1477 -1.000000000000000e+00
2686 2359 -1.000000000000000e+00
2686 2686 3.000000000000000e+00
2687 602 -1.000000000000000e+00
2687 1271 -1.000000000000000e+00
2687 1389 -1.000000000000000e+00
2687 2687 4.092450037598610e+00
2688 315 -1.000000000000000e+00
2688 1714 -1.000000000000000e+00
2688 2107 -1.000000000000000e+00
2688 2688 3.000000000000000e+00
2689 24 -1.000000000000000e+00
2689 148 -1.000000000000000e+00
2689 758 -1.000000000000000e+00
2689 2689 4.000000000000000e+00
2690 311 -1.000000000000000e+00
2690 532 -1.000000000000000e+00
2690 547 -1.000000000000000e+00
2690 2690 4.000000000000000e+00
2691 6 -1.000000000000000e+00
2691 326 -1.000000000000000e+00
2691 429 -1.000000000000000e+00
2691 2691 4.000000000000000e+00
2692 24 -1.000000000000000e+00
2692 2492 -1.000000000000000e+00
2692 2648 -1.000000000000000e+00
2692 2692 3.000000000000000e+00
2693 71 -1.000000000000000e+00
2693 472 -1.000000000000000e+00
2693 1362 -1.000000000000000e+00
2693 2693 3.000000000000000e+00
2694 121 -1.000000000000000e+00
2694 1833 -1.000000000000000e+00
2694 2523 -1.000000000000000e+00
2694 2694 3.000000000000000e+00
2695 151 -1.000000000000000e+00
2695 975 -1.000000000000000e+00
2695 1764 -1.000000000000000e+00
2695 2695 6.160128161311150e+00
2696 5 -1.000000000000000e+00
2696 11 -1.000000000000000e+00
2696 120 -1.767767071723938e-01
2696 142 -1.490712016820908e-01
2696 1190 -1.000000000000000e+00
2696 2630 -2.357022762298584e-01
2696 2696 5.561550185084343e+00
2697 63 -1.000000000000000e+00
2697 909 -1.000000000000000e+00
2697 916 -1.000000000000000e+00
2697 2697 3.000000000000000e+00
2698 2074 -1.000000000000000e+00
2698 2202 -1.000000000000000e+00
2698 2434 -1.000000000000000e+00
2698 2698 3.000000000000000e+00
2699 26 -1.000000000000000e+00
2699 28 -1.000000000000000e+00
2699 111 -1.000000000000000e+00
2699 2699 3.000000000000000e+00
2700 60 -1.000000000000000e+00
2700 1757 -1.000000000000000e+00
2700 2025 -1.000000000000000e+00
2700 2700 5.000000000000000e+00
2701 86 -1.000000000000000e+00
2701 335 -1.377964496612549e+00
2701 435 -1.000000000000000e+00
2701 2701 4.619711384177208e+00
2702 8 -1.000000000000000e+00
2702 254 -1.581138819456100e-01
2702 1328 -1.000000000000000e+00
2702 2148 -1.000000000000000e+00
2702 2702 5.158113881945610e+00
2703 159 -1.000000000000000e+00
2703 320 -1.000000000000000e+00
2703 348 -1.000000000000000e+00
2703 2703 3.000000000000000e+00
2704 11 -1.000000000000000e+00
2704 646 -1.000000000000000e+00
2704 1973 -1.000000000000000e+00
2704 2704 3.000000000000000e+00
2705 15 -1.000000000000000e+00
2705 1218 -1.000000000000000e+00
2705 1578 -1.000000000000000e+00
2705 2705 4.000000000000000e+00
2706 109 -1.138675048947334e+00
2706 113 -1.000000000000000e+00
2706 546 -1.000000000000000e+00
2706 2706 4.138675048947334e+00
2707 294 -1.000000000000000e+00
2707 305 -1.000000000000000e+00
2707 1492 -1.000000000000000e+00
2707 2707 4.000000000000000e+00
2708 22 -1.000000000000000e+00
2708 139 -1.000000000000000e+00
2708 599 -1.000000000000000e+00
2708 2708 4.182574182748795e+00
2709 304 -1.000000000000000e+00
2709 625 -1.000000000000000e+00
2709 894 -1.000000000000000e+00
2709 2709 3.149071186780930e+00
2710 199 -1.000000000000000e+00
2710 271 -1.000000000000000e+00
2710 2018 -1.115470044314861e+00
2710 2710 3.115470044314861e+00
2711 242 -1.000000000000000e+00
2711 471 -1.000000000000000e+00
2711 1130 -1.000000000000000e+00
2711 1493 -2.236067950725555e-01
2711 2711 5.223606795072556e+00
2712 404 -1.000000000000000e+00
2712 432 -1.000000000000000e+00
2712 606 -1.000000000000000e+00
2712 2712 4.000000000000000e+00
2713 204 -1.000000000000000e+00
2713 305 -1.000000000000000e+00
2713 700 -2.236067950725555e-01
2713 1601 -1.204124137759209e+00
2713 2713 3.427730932831764e+00
2714 150 -1.000000000000000e+00
2714 1326 -1.000000000000000e+00
2714 2000 -2.773500978946686e-01
2714 2435 -1.000000000000000e+00
2714 2714 4.435463979840279e+00
2715 316 -1.147441953420639e+00
2715 399 -1.000000000000000e+00
2715 451 -1.000000000000000e+00
2715 2715 3.147441953420639e+00
2716 184 -1.000000000000000e+00
2716 1139 -1.000000000000000e+00
2716 2537 -1.000000000000000e+00
2716 2716 4.000000000000000e+00
2717 7 -1.000000000000000e+00
2717 1023 -1.098058067262173e+00
2717 1061 -1.000000000000000e+00
2717 2230 -1.386750489473343e-01
2717 2717 3.236733116209507e+00
2718 374 -1.138675048947334e+00
2718 1253 -1.000000000000000e+00
2718 1969 -1.000000000000000e+00
2718 2718 4.362281844019890e+00
2719 5 -1.000000000000000e+00
2719 510 -1.000000000000000e+00
2719 1729 -1.000000000000000e+00
2719 2719 4.000000000000000e+00
2720 124 -1.000000000000000e+00
2720 200 -1.000000000000000e+00
2720 2247 -2.041241526603699e-01
2720 2667 -1.000000000000000e+00
2720 2720 3.471385389566422e+00
2721 8 -1.000000000000000e+00
2721 91 -1.000000000000000e+00
2721 458 -1.000000000000000e+00
2721 2721 3.000000000000000e+00
2722 166 -1.000000000000000e+00
2722 651 -1.000000000000000e+00
2722 1556 -1.000000000000000e+00
2722 2722 5.000000000000000e+00
2723 150 -1.000000000000000e+00
2723 264 -1.000000000000000e+00
2723 376 -1.000000000000000e+00
2723 2723 3.000000000000000e+00
2724 66 -1.000000000000000e+00
2724 71 -1.000000000000000e+00
2724 2329 -1.000000000000000e+00
2724 2724 3.000000000000000e+00
2725 9 -1.000000000000000e+00
2725 223 -1.000000000000000e+00
2725 1541 -1.000000000000000e+00
2725 2415 -1.048284918069839e-01
2725 2725 4.104828491806984e+00
2726 8 -1.000000000000000e+00
2726 85 -1.000000000000000e+00
2726 2022 -1.000000000000000e+00
2726 2726 4.000000000000000e+00
2727 227 -1.000000000000000e+00
2727 809 -1.000000000000000e+00
2727 820 -1.000000000000000e+00
2727 2727 4.000000000000000e+00
2728 456 -1.000000000000000e+00
2728 2159 -1.272727251052856e+00
2728 2173 -1.000000000000000e+00
2728 2621 -1.348399668931961e-01
2728 2728 3.407567217946053e+00
2729 1673 -1.000000000000000e+00
2729 2476 -1.000000000000000e+00
2729 2556 -5.241423845291138e-02
2729 2605 -1.000000000000000e+00
2729 2729 4.052414238452911e+00
2730 307 -1.000000000000000e+00
2730 333 -1.000000000000000e+00
2730 1582 -1.000000000000000e+00
2730 2730 4.000000000000000e+00
2731 39 -1.000000000000000e+00
2731 613 -1.000000000000000e+00
2731 2338 -1.000000000000000e+00
2731 2731 3.182574182748795e+00
2732 59 -1.000000000000000e+00
2732 143 -1.000000000000000e+00
2732 201 -1.000000000000000e+00
2732 2732 3.000000000000000e+00
2733 103 -1.000000000000000e+00
2733 1339 -1.000000000000000e+00
2733 1428 -1.000000000000000e+00
2733 2733 5.000000000000000e+00
2734 372 -1.000000000000000e+00
2734 1135 -1.000000000000000e+00
2734 1770 -1.906925141811371e-01
2734 2722 -1.000000000000000e+00
2734 2734 4.348806396126747e+00
2735 1092 -1.000000000000000e+00
2735 1528 -1.000000000000000e+00
2735 2589 -1.000000000000000e+00
2735 2735 3.000000000000000e+00
2736 59 -1.000000000000000e+00
2736 1345 -1.000000000000000e+00
2736 1929 -1.000000000000000e+00
2736 2736 3.000000000000000e+00
2737 46 -1.000000000000000e+00
2737 102 -1.100000001490116e+00
2737 2375 -1.000000000000000e+00
2737 2737 3.100000001490116e+00
2738 31 -1.000000000000000e+00
2738 817 -1.000000000000000e+00
2738 1218 -1.000000000000000e+00
2738 2738 3.000000000000000e+00
2739 222 -1.000000000000000e+00
2739 245 -1.284267604351044e+00
2739 2285 -1.000000000000000e+00
2739 2739 3.284267604351044e+00
2740 187 -1.000000000000000e+00
2740 2104 -1.136363640427589e+00
2740 2328 -1.000000000000000e+00
2740 2740 3.136363640427589e+00
2741 6 -1.000000000000000e+00
2741 32 -1.000000000000000e+00
2741 2157 -1.000000000000000e+00
2741 2741 3.000000000000000e+00
2742 1317 -1.000000000000000e+00
2742 2474 -1.000000000000000e+00
2742 2708 -1.000000000000000e+00
2742 2742 4.114707864820957e+00
2743 71 -1.000000000000000e+00
2743 370 -1.432229727506638e-01
2743 457 -1.000000000000000e+00
2743 1729 -1.961161345243454e-01
2743 2224 -1.092450030148029e+00
2743 2743 3.431789137423038e+00
2744 261 -1.000000000000000e+00
2744 728 -1.000000000000000e+00
2744 1194 -1.000000000000000e+00
2744 2576 -2.309400886297226e-01
2744 2744 5.230940088629723e+00
2745 499 -1.000000000000000e+00
2745 1135 -1.000000000000000e+00
2745 1309 -1.000000000000000e+00
2745 2734 -1.581138819456100e-01
2745 2745 3.158113881945610e+00
2746 27 -1.000000000000000e+00
2746 90 -1.000000000000000e+00
2746 858 -3.651483654975891e-01
2746 1668 -1.000000000000000e+00
2746 2746 4.547722548246384e+00
2747 27 -1.000000000000000e+00
2747 887 -1.000000000000000e+00
2747 2346 -1.000000000000000e+00
2747 2747 4.000000000000000e+00
2748 57 -1.000000000000000e+00
2748 1058 -1.000000000000000e+00
2748 2536 -1.000000000000000e+00
2748 2748 4.000000000000000e+00
2749 193 -1.000000000000000e+00
2749 2026 -1.000000000000000e+00
2749 2217 -1.000000000000000e+00
2749 2749 4.000000000000000e+00
2750 8 -1.000000000000000e+00
2750 50 -1.000000000000000e+00
2750 2539 -1.000000000000000e+00
2750 2750 3.000000000000000e+00
2751 182 -1.000000000000000e+00
2751 1306 -1.000000000000000e+00
2751 2105 -1.000000000000000e+00
2751 2751 3.000000000000000e+00
2752 263 -1.000000000000000e+00
2752 1623 -1.000000000000000e+00
2752 2329 -1.000000000000000e+00
2752 2752 4.000000000000000e+00
2753 275 -1.000000000000000e+00
2753 784 -1.000000000000000e+00
2753 806 -1.000000000000000e+00
2753 2753 4.000000000000000e+00
2754 200 -1.000000000000000e+00
2754 285 -1.000000000000000e+00
2754 1991 -1.000000000000000e+00
2754 2754 3.000000000000000e+00
2755 132 -1.000000000000000e+00
2755 703 -1.000000000000000e+00
2755 2000 -1.000000000000000e+00
2755 2755 5.408248305320740e+00
2756 52 -1.000000000000000e+00
2756 304 -1.000000000000000e+00
2756 2000 -1.000000000000000e+00
2756 2756 3.239045694470406e+00
2757 369 -1.000000000000000e+00
2757 451 -1.000000000000000e+00
2757 487 -1.000000000000000e+00
2757 2757 4.000000000000000e+00
2758 759 -1.000000000000000e+00
2758 1049 -1.000000000000000e+00
2758 1426 -1.000000000000000e+00
2758 2758 5.000000000000000e+00
2759 531 -1.000000000000000e+00
2759 996 -1.000000000000000e+00
2759 2451 -1.000000000000000e+00
2759 2759 4.000000000000000e+00
2760 5 -1.000000000000000e+00
2760 1063 -1.000000000000000e+00
2760 1149 -1.000000000000000e+00
2760 1792 -5.163977742195129e-01
2760 1963 -2.886751294136047e-01
2760 2259 -3.086067140102386e-01
2760 2760 7.691029876470566e+00
2761 138 -1.000000000000000e+00
2761 239 -1.666666716337204e-01
2761 285 -1.000000000000000e+00
2761 799 -1.000000000000000e+00
2761 2406 -1.290994435548782e-01
2761 2565 -1.581138819456100e-01
2761 2761 3.453879997134209e+00
2762 5 -1.000000000000000e+00
2762 1517 -1.000000000000000e+00
2762 2304 -3.464101552963257e-01
2762 2313 -1.000000000000000e+00
2762 2762 3.662637919187546e+00
2763 35 -1.000000000000000e+00
2763 241 -1.000000000000000e+00
2763 946 -1.000000000000000e+00
2763 1929 -1.259881556034088e-01
2763 2763 4.125988155603409e+00
2764 2072 -1.000000000000000e+00
2764 2474 -1.000000000000000e+00
2764 2708 -1.825741827487946e-01
2764 2742 -1.000000000000000e+00
2764 2764 3.182574182748795e+00
2765 57 -1.000000000000000e+00
2765 593 -1.000000000000000e+00
2765 2571 -1.000000000000000e+00
2765 2765 3.000000000000000e+00
2766 72 -1.000000000000000e+00
2766 494 -1.000000000000000e+00
2766 2014 -1.232845172286034e+00
2766 2415 -9.805806726217270e-02
2766 2766 4.409960180521011e+00
2767 480 -1.000000000000000e+00
2767 1032 -1.000000000000000e+00
2767 2504 -1.000000000000000e+00
2767 2767 4.000000000000000e+00
2768 441 -1.000000000000000e+00
2768 980 -1.000000000000000e+00
2768 2137 -1.000000000000000e+00
2768 2768 3.000000000000000e+00
2769 51 -1.000000000000000e+00
2769 471 -1.000000000000000e+00
2769 1578 -1.000000000000000e+00
2769 2769 3.083333335816860e+00
2770 615 -1.240965798497200e+00
2770 903 -1.000000000000000e+00
2770 1289 -1.000000000000000e+00
2770 2770 3.240965798497200e+00
2771 114 -1.000000000000000e+00
2771 825 -1.000000000000000e+00
2771 1488 -1.734219789505005e-01
2771 2317 -2.601329684257507e-01
2771 2714 -1.000000000000000e+00
2771 2771 3.433554947376251e+00
2772 127 -1.000000000000000e+00
2772 522 -1.000000000000000e+00
2772 1119 -1.000000000000000e+00
2772 2772 3.000000000000000e+00
2773 241 -1.000000000000000e+00
2773 2278 -1.000000000000000e+00
2773 2355 -1.000000000000000e+00
2773 2773 3.000000000000000e+00
2774 31 -1.000000000000000e+00
2774 49 -1.000000000000000e+00
2774 382 -1.000000000000000e+00
2774 2774 4.160128161311150e+00
2775 98 -1.000000000000000e+00
2775 233 -1.000000000000000e+00
2775 1036 -1.000000000000000e+00
2775 2775 4.000000000000000e+00
2776 8 -1.000000000000000e+00
2776 347 -1.000000000000000e+00
2776 1168 -1.571348458528519e-01
2776 1272 -1.000000000000000e+00
2776 2776 3.157134845852852e+00
2777 95 -1.000000000000000e+00
2777 169 -1.000000000000000e+00
2777 482 -1.000000000000000e+00
2777 2777 3.000000000000000e+00
2778 389 -1.000000000000000e+00
2778 1705 -1.000000000000000e+00
2778 2435 -1.000000000000000e+00
2778 2778 3.000000000000000e+00
2779 31 -1.000000000000000e+00
2779 724 -1.000000000000000e+00
2779 1664 -1.000000000000000e+00
2779 2779 4.000000000000000e+00
2780 941 -1.000000000000000e+00
2780 1423 -1.000000000000000e+00
2780 1677 -1.000000000000000e+00
2780 2780 3.000000000000000e+00
2781 1242 -1.000000000000000e+00
2781 1385 -1.000000000000000e+00
2781 2648 -1.000000000000000e+00
2781 2781 5.000000000000000e+00
2782 8 -1.000000000000000e+00
2782 396 -1.125988155603409e+00
2782 1577 -1.000000000000000e+00
2782 2068 -1.690308600664139e-01
2782 2782 3.295019015669823e+00
2783 5 -1.000000000000000e+00
2783 369 -2.425356358289719e-01
2783 493 -2.581988871097565e-01
2783 1365 -1.507556736469269e-01
2783 1586 -5.000000000000000e-01
2783 1792 -4.472135901451111e-01
2783 1932 -1.000000000000000e+00
2783 2064 -2.425356358289719e-01
2783 2084 -2.773500978946686e-01
2783 2139 -5.000000000000000e-01
2783 2205 -3.162277638912201e-01
2783 2259 -2.672612369060516e-01
2783 2268 -2.886751294136047e-01
2783 2493 -1.000000000000000e+00
2783 2589 -3.535533845424652e-01
2783 2760 -5.773502588272095e-01
2783 2783 1.043748554587364e+01
2784 737 -1.000000000000000e+00
2784 912 -1.000000000000000e+00
2784 1561 -1.233549684286118e+00
2784 2784 4.233549684286118e+00
2785 535 -1.000000000000000e+00
2785 707 -1.000000000000000e+00
2785 961 -1.200000002980232e+00
2785 2785 3.200000002980232e+00
2786 476 -1.000000000000000e+00
2786 577 -1.543033570051193e-01
2786 642 -1.000000000000000e+00
2786 884 -1.000000000000000e+00
2786 1833 -1.178511381149292e-01
2786 2786 3.272154495120049e+00
2787 228 -1.000000000000000e+00
2787 324 -1.000000000000000e+00
2787 694 -1.000000000000000e+00
2787 2787 4.144337564706802e+00
2788 311 -1.000000000000000e+00
2788 2022 -1.000000000000000e+00
2788 2411 -1.000000000000000e+00
2788 2788 4.000000000000000e+00
2789 7 -1.000000000000000e+00
2789 159 -1.000000000000000e+00
2789 1011 -1.000000000000000e+00
2789 2789 3.000000000000000e+00
2790 811 -1.000000000000000e+00
2790 1734 -1.000000000000000e+00
2790 1881 -1.000000000000000e+00
2790 2790 3.000000000000000e+00
2791 9 -1.000000000000000e+00
2791 891 -1.000000000000000e+00
2791 2040 -1.074535593390465e+00
2791 2791 3.074535593390465e+00
2792 14 -1.000000000000000e+00
2792 35 -1.000000000000000e+00
2792 1650 -1.000000000000000e+00
2792 2792 6.000000000000000e+00
2793 39 -1.000000000000000e+00
2793 740 -1.000000000000000e+00
2793 797 -1.000000000000000e+00
2793 2793 3.000000000000000e+00
2794 144 -2.357022464275360e-01
2794 571 -1.000000000000000e+00
2794 1752 -1.000000000000000e+00
2794 2505 -1.000000000000000e+00
2794 2794 4.235702246427536e+00
2795 5 -1.000000000000000e+00
2795 10 -1.000000000000000e+00
2795 22 -4.364358186721802e-01
2795 233 -1.000000000000000e+00
2795 917 -2.981424033641815e-01
2795 1110 -1.898315995931625e-01
2795 1291 -4.714044928550720e-01
2795 2220 -4.082483053207397e-01
2795 2360 -4.714044928550720e-01
2795 2795 5.942133799195290e+00
2796 153 -1.000000000000000e+00
2796 1221 -1.000000000000000e+00
2796 1586 -1.000000000000000e+00
2796 2796 3.000000000000000e+00
2797 411 -1.000000000000000e+00
2797 447 -1.000000000000000e+00
2797 1853 -1.000000000000000e+00
2797 2797 5.000000000000000e+00
2798 222 -1.000000000000000e+00
2798 325 -1.000000000000000e+00
2798 2619 -1.000000000000000e+00
2798 2798 3.000000000000000e+00
2799 126 -1.000000000000000e+00
2799 242 -1.000000000000000e+00
2799 1686 -1.000000000000000e+00
2799 2799 3.000000000000000e+00
2800 21 -1.000000000000000e+00
2800 56 -1.000000000000000e+00
2800 200 -1.000000000000000e+00
2800 2800 3.000000000000000e+00
2801 260 -1.000000000000000e+00
2801 1955 -1.000000000000000e+00
2801 2439 -1.000000000000000e+00
2801 2801 4.000000000000000e+00
2802 304 -1.000000000000000e+00
2802 500 -1.000000000000000e+00
2802 1069 -1.000000000000000e+00
2802 2802 4.000000000000000e+00
2803 1072 -1.000000000000000e+00
2803 1199 -1.000000000000000e+00
2803 1521 -1.000000000000000e+00
2803 2803 5.115470059216022e+00
2804 17 -1.000000000000000e+00
2804 460 -1.000000000000000e+00
2804 2436 -1.084515422582626e+00
2804 2804 5.084515422582626e+00
2805 108 -1.000000000000000e+00
2805 185 -1.000000000000000e+00
2805 242 -1.000000000000000e+00
2805 2620 -2.581988871097565e-01
2805 2642 -1.666666716337204e-01
2805 2805 3.424865558743477e+00
2806 765 -1.000000000000000e+00
2806 1065 -1.000000000000000e+00
2806 2682 -1.000000000000000e+00
2806 2806 4.000000000000000e+00
2807 157 -1.000000000000000e+00
2807 1975 -1.335410177707672e+00
2807 2797 -1.000000000000000e+00
2807 2807 6.335410177707672e+00
2808 707 -1.000000000000000e+00
2808 811 -1.000000000000000e+00
2808 1327 -2.000000029802322e-01
2808 1462 -1.000000000000000e+00
2808 2808 4.376776695251465e+00
2809 946 -1.000000000000000e+00
2809 2022 -1.000000000000000e+00
2809 2112 -1.000000000000000e+00
2809 2809 3.124034732580185e+00
2810 70 -1.000000000000000e+00
2810 1558 -1.000000000000000e+00
2810 1887 -1.000000000000000e+00
2810 2810 3.081649653613567e+00
2811 535 -1.000000000000000e+00
2811 1686 -1.174077659845352e+00
2811 1922 -1.000000000000000e+00
2811 2811 3.174077659845352e+00
2812 287 -1.000000000000000e+00
2812 1181 -1.000000000000000e+00
2812 1875 -1.000000000000000e+00
2812 2812 4.000000000000000e+00
2813 92 -1.000000000000000e+00
2813 2273 -1.000000000000000e+00
2813 2420 -1.144337564706802e+00
2813 2813 3.267429053783417e+00
2814 19 -1.000000000000000e+00
2814 898 -1.000000000000000e+00
2814 2318 -1.064549721777439e+00
2814 2814 3.064549721777439e+00
2815 59 -1.000000000000000e+00
2815 332 -1.000000000000000e+00
2815 672 -1.000000000000000e+00
2815 2815 3.000000000000000e+00
2816 6 -1.000000000000000e+00
2816 417 -1.000000000000000e+00
2816 1138 -1.000000000000000e+00
2816 1223 -2.500000298023224e-01
2816 2816 4.658248335123062e+00
2817 6 -1.000000000000000e+00
2817 57 -1.000000000000000e+00
2817 551 -2.245443463325500e-01
2817 1835 -1.000000000000000e+00
2817 2817 3.695948839187622e+00
2818 9 -1.000000000000000e+00
2818 298 -1.000000000000000e+00
2818 1602 -1.000000000000000e+00
2818 2818 6.000000000000000e+00
2819 82 -1.000000000000000e+00
2819 1496 -1.000000000000000e+00
2819 2267 -1.000000000000000e+00
2819 2819 3.358568549156189e+00
2820 534 -1.000000000000000e+00
2820 751 -1.000000000000000e+00
2820 2527 -1.000000000000000e+00
2820 2820 3.174077659845352e+00
2821 347 -1.307440847158432e-01
2821 1019 -1.000000000000000e+00
2821 1584 -1.000000000000000e+00
2821 2088 -1.000000000000000e+00
2821 2821 3.130744084715843e+00
2822 234 -1.000000000000000e+00
2822 1526 -1.000000000000000e+00
2822 1651 -1.117851138114929e+00
2822 2822 4.117851138114929e+00
2823 8 -1.000000000000000e+00
2823 65 -1.000000000000000e+00
2823 1663 -1.000000000000000e+00
2823 2823 3.000000000000000e+00
2824 15 -1.000000000000000e+00
2824 150 -1.000000000000000e+00
2824 798 -1.000000000000000e+00
2824 2824 5.000000000000000e+00
2825 5 -1.000000000000000e+00
2825 403 -1.000000000000000e+00
2825 1438 -1.163984030485153e+00
2825 2825 3.163984030485153e+00
2826 214 -1.000000000000000e+00
2826 314 -1.000000000000000e+00
2826 1766 -1.147078648209572e-01
2826 2584 -1.000000000000000e+00
2826 2826 3.114707864820957e+00
2827 236 -1.000000000000000e+00
2827 311 -1.000000000000000e+00
2827 983 -1.000000000000000e+00
2827 2827 3.000000000000000e+00
2828 135 -1.000000000000000e+00
2828 655 -1.000000000000000e+00
2828 1340 -1.000000000000000e+00
2828 2828 5.113227695226669e+00
2829 120 -5.892556905746460e-02
2829 142 -7.453560084104538e-02
2829 272 -1.000000000000000e+00
2829 1517 -1.000000000000000e+00
2829 2696 -1.000000000000000e+00
2829 2829 3.133461169898510e+00
2830 9 -1.000000000000000e+00
2830 898 -3.086067140102386e-01
2830 1979 -1.000000000000000e+00
2830 2098 -7.856741547584534e-02
2830 2385 -1.000000000000000e+00
2830 2830 3.387174129486084e+00
2831 10 -1.000000000000000e+00
2831 1412 -1.000000000000000e+00
2831 2603 -1.000000000000000e+00
2831 2831 3.000000000000000e+00
2832 99 -1.000000000000000e+00
2832 1509 -1.125988155603409e+00
2832 1521 -1.000000000000000e+00
2832 2803 -1.154700592160225e-01
2832 2832 3.477160461246967e+00
2833 22 -1.000000000000000e+00
2833 208 -1.000000000000000e+00
2833 323 -1.000000000000000e+00
2833 2833 4.000000000000000e+00
2834 8 -1.000000000000000e+00
2834 1749 -1.000000000000000e+00
2834 2521 -1.000000000000000e+00
2834 2834 4.000000000000000e+00
2835 743 -1.000000000000000e+00
2835 895 -1.000000000000000e+00
2835 1955 -1.000000000000000e+00
2835 2835 5.000000000000000e+00
2836 2 -1.000000000000000e+00
2836 96 -1.000000000000000e+00
2836 292 -1.000000000000000e+00
2836 2836 3.000000000000000e+00
2837 49 -1.000000000000000e+00
2837 162 -1.000000000000000e+00
2837 193 -1.000000000000000e+00
2837 1563 -2.500000000000000e-01
2837 2837 5.250000000000000e+00
2838 423 -1.000000000000000e+00
2838 1578 -1.000000000000000e+00
2838 1596 -1.000000000000000e+00
2838 2258 -1.474419534206390e-01
2838 2838 3.436022043228149e+00
2839 807 -1.000000000000000e+00
2839 1004 -1.000000000000000e+00
2839 1887 -1.000000000000000e+00
2839 2839 3.000000000000000e+00
2840 79 -1.000000000000000e+00
2840 619 -2.672612369060516e-01
2840 916 -1.000000000000000e+00
2840 1765 -1.000000000000000e+00
2840 2840 4.267261236906052e+00
2841 38 -1.000000000000000e+00
2841 983 -1.856953352689743e-01
2841 1486 -1.000000000000000e+00
2841 1730 -1.000000000000000e+00
2841 2841 3.185695335268974e+00
2842 16 -1.000000000000000e+00
2842 1728 -1.000000000000000e+00
2842 1983 -1.000000000000000e+00
2842 2842 5.000000000000000e+00
2843 21 -1.000000000000000e+00
2843 751 -1.000000000000000e+00
2843 788 -1.000000000000000e+00
2843 2843 5.000000000000000e+00
2844 1289 -1.000000000000000e+00
2844 1540 -1.138675048947334e+00
2844 2833 -1.000000000000000e+00
2844 2844 3.138675048947334e+00
2845 1506 -1.000000000000000e+00
2845 1573 -1.000000000000000e+00
2845 1862 -1.000000000000000e+00
2845 2845 3.000000000000000e+00
2846 238 -1.000000000000000e+00
2846 323 -1.141421362757683e+00
2846 1193 -1.000000000000000e+00
2846 2846 3.141421362757683e+00
2847 19 -1.000000000000000e+00
2847 275 -1.000000000000000e+00
2847 1211 -1.000000000000000e+00
2847 2847 3.188982248306274e+00
2848 5 -1.000000000000000e+00
2848 425 -1.000000000000000e+00
2848 674 -1.889822483062744e-01
2848 1628 -1.000000000000000e+00
2848 2227 -9.284766763448715e-02
2848 2848 4.281829915940762e+00
2849 28 -1.000000000000000e+00
2849 640 -1.000000000000000e+00
2849 2140 -1.714985966682434e-01
2849 2518 -1.204124152660370e+00
2849 2849 3.375622749328613e+00
2850 98 -1.000000000000000e+00
2850 720 -1.000000000000000e+00
2850 2622 -1.000000000000000e+00
2850 2850 3.000000000000000e+00
2851 161 -1.000000000000000e+00
2851 1705 -1.000000000000000e+00
2851 1905 -1.169030860066414e+00
2851 2301 -2.220265269279480e-01
2851 2851 4.391057386994362e+00
2852 706 -1.000000000000000e+00
2852 728 -1.000000000000000e+00
2852 2417 -1.000000000000000e+00
2852 2852 3.000000000000000e+00
2853 95 -1.000000000000000e+00
2853 296 -1.000000000000000e+00
2853 1667 -1.000000000000000e+00
2853 2853 3.000000000000000e+00
2854 415 -1.000000000000000e+00
2854 651 -1.000000000000000e+00
2854 706 -1.000000000000000e+00
2854 2854 4.000000000000000e+00
2855 111 -1.000000000000000e+00
2855 686 -1.000000000000000e+00
2855 1682 -1.000000000000000e+00
2855 2855 3.000000000000000e+00
2856 4 -1.000000000000000e+00
2856 443 -1.000000000000000e+00
2856 688 -1.000000000000000e+00
2856 2856 4.000000000000000e+00
2857 4 -1.000000000000000e+00
2857 13 -1.000000000000000e+00
2857 411 -1.000000000000000e+00
2857 2857 3.000000000000000e+00
2858 106 -1.000000000000000e+00
2858 428 -1.000000000000000e+00
2858 2648 -1.000000000000000e+00
2858 2858 3.223606795072556e+00
2859 165 -1.000000000000000e+00
2859 511 -1.000000000000000e+00
2859 672 -1.443375647068024e-01
2859 708 -1.000000000000000e+00
2859 2859 4.144337564706802e+00
2860 113 -1.000000000000000e+00
2860 592 -1.000000000000000e+00
2860 811 -1.138675048947334e+00
2860 2860 5.138675048947334e+00
2861 327 -1.000000000000000e+00
2861 485 -1.000000000000000e+00
2861 2565 -1.000000000000000e+00
2861 2861 3.000000000000000e+00
2862 40 -1.000000000000000e+00
2862 365 -1.000000000000000e+00
2862 1385 -1.000000000000000e+00
2862 2862 3.000000000000000e+00
2863 6 -1.000000000000000e+00
2863 44 -1.000000000000000e+00
2863 95 -1.000000000000000e+00
2863 2863 3.000000000000000e+00
2864 9 -1.000000000000000e+00
2864 967 -1.000000000000000e+00
2864 1125 -1.000000000000000e+00
2864 2864 3.000000000000000e+00
2865 163 -1.000000000000000e+00
2865 939 -1.000000000000000e+00
2865 1923 -1.000000000000000e+00
2865 1928 -1.178511381149292e-01
2865 2865 3.117851138114929e+00
2866 499 -1.000000000000000e+00
2866 798 -1.000000000000000e+00
2866 810 -5.773502588272095e-01
2866 1518 -1.000000000000000e+00
2866 2866 3.577350258827209e+00
2867 198 -1.000000000000000e+00
2867 880 -1.000000000000000e+00
2867 1903 -1.000000000000000e+00
2867 2867 4.000000000000000e+00
2868 799 -1.136082753539085e+00
2868 817 -1.000000000000000e+00
2868 1324 -1.000000000000000e+00
2868 2868 3.136082753539085e+00
2869 40 -1.000000000000000e+00
2869 132 -1.000000000000000e+00
2869 215 -1.000000000000000e+00
2869 1860 -2.085144072771072e-01
2869 2869 3.728866323828697e+00
2870 2 -1.000000000000000e+00
2870 5 -1.000000000000000e+00
2870 35 -1.000000000000000e+00
2870 2285 -1.490712016820908e-01
2870 2870 4.149071201682091e+00
2871 27 -1.235702246427536e+00
2871 162 -1.000000000000000e+00
2871 542 -1.000000000000000e+00
2871 647 -2.357022464275360e-01
2871 1185 -1.825741827487946e-01
2871 1902 -2.649064660072327e-01
2871 2281 -1.490712016820908e-01
2871 2298 -2.357022464275360e-01
2871 2746 -1.825741827487946e-01
2871 2871 6.368048757314682e+00
2872 1172 -1.088388346135616e+00
2872 2596 -1.158113881945610e+00
2872 2757 -1.000000000000000e+00
2872 2872 4.246502228081226e+00
2873 21 -1.000000000000000e+00
2873 483 -1.000000000000000e+00
2873 963 -1.000000000000000e+00
2873 2873 4.000000000000000e+00
2874 27 -1.000000000000000e+00
2874 991 -1.000000000000000e+00
2874 1941 -1.000000000000000e+00
2874 2874 3.000000000000000e+00
2875 87 -1.000000000000000e+00
2875 281 -1.000000000000000e+00
2875 890 -1.000000000000000e+00
2875 2875 7.105409249663353e+00
2876 287 -1.000000000000000e+00
2876 1246 -1.000000000000000e+00
2876 2203 -2.500000000000000e-01
2876 2229 -1.000000000000000e+00
2876 2876 4.338388346135616e+00
2877 7 -1.000000000000000e+00
2877 109 -1.000000000000000e+00
2877 258 -1.000000000000000e+00
2877 2877 3.522591665387154e+00
2878 16 -1.204124137759209e+00
2878 335 -1.000000000000000e+00
2878 1568 -1.000000000000000e+00
2878 2878 3.204124137759209e+00
2879 6 -1.000000000000000e+00
2879 770 -1.195228621363640e-01
2879 1976 -1.000000000000000e+00
2879 2214 -1.825741827487946e-01
2879 2711 -1.000000000000000e+00
2879 2879 3.302097044885159e+00
2880 6 -1.000000000000000e+00
2880 147 -1.936491578817368e-01
2880 225 -1.000000000000000e+00
2880 312 -1.000000000000000e+00
2880 739 -1.825741827487946e-01
2880 2880 4.376223340630531e+00
2881 60 -1.000000000000000e+00
2881 635 -1.000000000000000e+00
2881 1795 -1.000000000000000e+00
2881 2881 5.000000000000000e+00
2882 1189 -1.000000000000000e+00
2882 1552 -1.000000000000000e+00
2882 2499 -1.000000000000000e+00
2882 2882 3.377964496612549e+00
2883 1237 -1.000000000000000e+00
2883 1707 -1.000000000000000e+00
2883 2428 -1.000000000000000e+00
2883 2883 4.000000000000000e+00
2884 60 -1.000000000000000e+00
2884 246 -1.000000000000000e+00
2884 409 -1.000000000000000e+00
2884 2884 4.000000000000000e+00
2885 315 -1.000000000000000e+00
2885 812 -1.000000000000000e+00
2885 2601 -1.000000000000000e+00
2885 2885 3.000000000000000e+00
2886 5 -1.000000000000000e+00
2886 73 -1.000000000000000e+00
2886 2010 -1.107211254537106e+00
2886 2886 4.214422509074211e+00
2887 148 -1.111803397536278e+00
2887 575 -1.000000000000000e+00
2887 2168 -1.000000000000000e+00
2887 2887 3.111803397536278e+00
2888 45 -1.000000000000000e+00
2888 629 -1.077849894762039e+00
2888 2648 -1.000000000000000e+00
2888 2888 3.077849894762039e+00
2889 10 -1.000000000000000e+00
2889 786 -1.000000000000000e+00
2889 1806 -1.235702246427536e+00
2889 2889 3.707106739282608e+00
2890 306 -1.000000000000000e+00
2890 559 -1.000000000000000e+00
2890 2191 -1.000000000000000e+00
2890 2890 3.000000000000000e+00
2891 8 -1.000000000000000e+00
2891 724 -1.000000000000000e+00
2891 1332 -1.000000000000000e+00
2891 2891 3.174077659845352e+00
2892 1097 -1.000000000000000e+00
2892 1176 -1.000000000000000e+00
2892 2211 -1.000000000000000e+00
2892 2892 4.000000000000000e+00
2893 239 -1.000000000000000e+00
2893 1275 -1.000000000000000e+00
2893 2280 -1.000000000000000e+00
2893 2893 5.384900182485580e+00
2894 270 -6.900654733181000e-02
2894 859 -1.000000000000000e+00
2894 1126 -1.466471105813980e-01
2894 1494 -1.000000000000000e+00
2894 2729 -1.000000000000000e+00
2894 2894 3.215653657913208e+00
2895 1948 -1.095346257090569e+00
2895 2189 -1.000000000000000e+00
2895 2478 -2.309400886297226e-01
2895 2602 -1.000000000000000e+00
2895 2895 3.466162070631981e+00
2896 411 -1.059131238609552e+00
2896 1167 -1.000000000000000e+00
2896 2212 -1.000000000000000e+00
2896 2506 -5.439282581210136e-02
2896 2896 4.113524064421654e+00
2897 808 -1.000000000000000e+00
2897 1198 -1.360827535390854e-01
2897 1340 -1.000000000000000e+00
2897 2026 -1.873171478509903e-01
2897 2486 -1.000000000000000e+00
2897 2897 3.323399901390076e+00
2898 131 -1.000000000000000e+00
2898 242 -1.000000000000000e+00
2898 1049 -1.000000000000000e+00
2898 2898 4.000000000000000e+00
2899 1264 -1.000000000000000e+00
2899 1734 -3.922322690486908e-01
2899 2565 -1.000000000000000e+00
2899 2719 -1.000000000000000e+00
2899 2899 3.392232269048691e+00
2900 46 -1.000000000000000e+00
2900 161 -1.000000000000000e+00
2900 541 -1.968747973442078e-01
2900 547 -1.000000000000000e+00
2900 2900 4.196874797344208e+00
2901 71 -1.000000000000000e+00
2901 292 -1.000000000000000e+00
2901 376 -1.000000000000000e+00
2901 1307 -3.086067140102386e-01
2901 2901 4.308606714010239e+00
2902 49 -1.000000000000000e+00
2902 381 -8.908707648515701e-02
2902 777 -1.000000000000000e+00
2902 1572 -8.058229088783264e-02
2902 2093 -1.042796045541763e+00
2902 2902 3.212465412914753e+00
2903 116 -1.000000000000000e+00
2903 135 -1.000000000000000e+00
2903 1789 -1.160643860697746e+00
2903 2903 3.340249165892601e+00
2904 123 -1.000000000000000e+00
2904 421 -1.000000000000000e+00
2904 2843 -1.000000000000000e+00
2904 2904 3.000000000000000e+00
2905 1106 -1.000000000000000e+00
2905 2049 -1.000000000000000e+00
2905 2492 -1.000000000000000e+00
2905 2905 3.000000000000000e+00
2906 6 -1.000000000000000e+00
2906 150 -1.000000000000000e+00
2906 2260 -1.000000000000000e+00
2906 2622 -2.041241526603699e-01
2906 2906 4.510310381650925e+00
2907 1058 -1.000000000000000e+00
2907 1880 -1.088388346135616e+00
2907 2760 -1.000000000000000e+00
2907 2907 4.088388346135616e+00
2908 100 -1.000000000000000e+00
2908 176 -1.000000000000000e+00
2908 2354 -1.000000000000000e+00
2908 2908 4.000000000000000e+00
2909 253 -1.000000000000000e+00
2909 418 -1.290994435548782e-01
2909 654 -1.000000000000000e+00
2909 1321 -1.000000000000000e+00
2909 2909 3.129099443554878e+00
2910 8 -1.000000000000000e+00
2910 1721 -1.000000000000000e+00
2910 2420 -1.213200718164444e+00
2910 2813 -1.230914890766144e-01
2910 2910 3.336292207241058e+00
2911 150 -1.000000000000000e+00
2911 200 -1.000000000000000e+00
2911 480 -1.000000000000000e+00
2911 2911 6.125988155603409e+00
2912 6 -1.000000000000000e+00
2912 568 -1.000000000000000e+00
2912 969 -1.000000000000000e+00
2912 2912 3.000000000000000e+00
2913 228 -1.099014751613140e+00
2913 730 -1.000000000000000e+00
2913 1714 -1.000000000000000e+00
2913 2913 3.099014751613140e+00
2914 434 -1.000000000000000e+00
2914 942 -1.000000000000000e+00
2914 2128 -1.119522862136364e+00
2914 2914 4.119522862136364e+00
2915 24 -1.000000000000000e+00
2915 227 -1.000000000000000e+00
2915 2569 -1.000000000000000e+00
2915 2915 4.000000000000000e+00
2916 114 -1.000000000000000e+00
2916 620 -1.000000000000000e+00
2916 857 -1.000000000000000e+00
2916 2916 3.000000000000000e+00
2917 31 -1.000000000000000e+00
2917 310 -1.000000000000000e+00
2917 327 -1.000000000000000e+00
2917 2917 6.000000000000000e+00
2918 1711 -1.000000000000000e+00
2918 1930 -1.000000000000000e+00
2918 2705 -1.000000000000000e+00
2918 2918 3.000000000000000e+00
2919 71 -1.000000000000000e+00
2919 80 -1.000000000000000e+00
2919 1286 -1.000000000000000e+00
2919 2919 3.000000000000000e+00
2920 157 -1.000000000000000e+00
2920 176 -1.000000000000000e+00
2920 483 -1.000000000000000e+00
2920 2920 5.166666671633720e+00
2921 99 -1.000000000000000e+00
2921 150 -1.000000000000000e+00
2921 546 -1.000000000000000e+00
2921 2921 3.174077659845352e+00
2922 522 -1.000000000000000e+00
2922 535 -1.000000000000000e+00
2922 1223 -2.132007181644440e-01
2922 1867 -1.000000000000000e+00
2922 2922 3.213200718164444e+00
2923 845 -1.000000000000000e+00
2923 1888 -1.000000000000000e+00
2923 1955 -1.000000000000000e+00
2923 2923 5.000000000000000e+00
2924 86 -1.000000000000000e+00
2924 167 -1.000000000000000e+00
2924 2253 -1.000000000000000e+00
2924 2924 3.000000000000000e+00
2925 404 -1.000000000000000e+00
2925 1256 -1.000000000000000e+00
2925 1337 -1.000000000000000e+00
2925 2925 3.000000000000000e+00
2926 361 -1.000000000000000e+00
2926 467 -1.000000000000000e+00
2926 576 -1.000000000000000e+00
2926 2926 3.000000000000000e+00
2927 107 -1.000000000000000e+00
2927 282 -1.000000000000000e+00
2927 1847 -1.000000000000000e+00
2927 2927 3.000000000000000e+00
2928 59 -1.000000000000000e+00
2928 111 -1.000000000000000e+00
2928 393 -1.000000000000000e+00
2928 2928 3.000000000000000e+00
2929 34 -1.000000000000000e+00
2929 162 -1.000000000000000e+00
2929 292 -1.000000000000000e+00
2929 750 -2.000000029802322e-01
2929 2929 3.200000002980232e+00
2930 242 -1.000000000000000e+00
2930 332 -1.000000000000000e+00
2930 497 -1.000000000000000e+00
2930 2930 4.000000000000000e+00
2931 16 -1.000000000000000e+00
2931 39 -1.000000000000000e+00
2931 508 -1.000000000000000e+00
2931 2931 3.000000000000000e+00
2932 1732 -1.000000000000000e+00
2932 2066 -1.000000000000000e+00
2932 2135 -1.000000000000000e+00
2932 2932 3.000000000000000e+00
2933 537 -1.000000000000000e+00
2933 1764 -1.000000000000000e+00
2933 1897 -1.000000000000000e+00
2933 2933 6.260175958275795e+00
2934 533 -1.000000000000000e+00
2934 1128 -1.154303357005119e+00
2934 1838 -1.000000000000000e+00
2934 2323 -1.259881556034088e-01
2934 2934 3.280291512608528e+00
2935 1256 -1.000000000000000e+00
2935 2716 -1.000000000000000e+00
2935 2749 -1.000000000000000e+00
2935 2935 3.000000000000000e+00
2936 281 -1.066815309226513e+00
2936 854 -1.000000000000000e+00
2936 1639 -1.000000000000000e+00
2936 2936 3.066815309226513e+00
2937 492 -1.000000000000000e+00
2937 1105 -1.000000000000000e+00
2937 1969 -1.000000000000000e+00
2937 2937 4.000000000000000e+00
2938 30 -1.000000000000000e+00
2938 332 -1.000000000000000e+00
2938 858 -1.000000000000000e+00
2938 2298 -3.061861991882324e-01
2938 2871 -1.443375647068024e-01
2938 2938 4.450523763895035e+00
2939 6 -1.000000000000000e+00
2939 188 -1.336306184530258e-01
2939 249 -1.000000000000000e+00
2939 263 -1.000000000000000e+00
2939 877 -1.325825303792953e-01
2939 2939 5.266213148832321e+00
2940 1237 -1.000000000000000e+00
2940 1627 -1.069843024015427e+00
2940 2199 -1.000000000000000e+00
2940 2940 4.160009987652302e+00
2941 101 -1.000000000000000e+00
2941 159 -1.000000000000000e+00
2941 1843 -1.106600359082222e+00
2941 2941 3.106600359082222e+00
2942 192 -1.000000000000000e+00
2942 1496 -1.308606714010239e+00
2942 2843 -1.000000000000000e+00
2942 2942 5.308606714010239e+00
2943 344 -1.000000000000000e+00
2943 2336 -1.000000000000000e+00
2943 2599 -1.226455390453339e+00
2943 2943 4.462157636880875e+00
2944 422 -1.000000000000000e+00
2944 1213 -1.000000000000000e+00
2944 1900 -1.000000000000000e+00
2944 2944 3.000000000000000e+00
2945 158 -1.863390058279037e-01
2945 529 -1.000000000000000e+00
2945 1149 -1.000000000000000e+00
2945 1641 -1.000000000000000e+00
2945 2945 4.186339005827904e+00
2946 1096 -1.000000000000000e+00
2946 1263 -1.000000000000000e+00
2946 2266 -1.301511317491531e+00
2946 2946 3.301511317491531e+00
2947 280 -1.000000000000000e+00
2947 669 -1.000000000000000e+00
2947 2818 -1.000000000000000e+00
2947 2947 4.174077659845352e+00
2948 105 -1.000000000000000e+00
2948 496 -2.535462677478790e-01
2948 869 -1.000000000000000e+00
2948 1125 -1.000000000000000e+00
2948 2948 3.253546267747879e+00
2949 333 -1.000000000000000e+00
2949 1022 -1.000000000000000e+00
2949 1663 -1.000000000000000e+00
2949 2949 3.000000000000000e+00
2950 106 -1.062994077801704e+00
2950 270 -1.000000000000000e+00
2950 769 -1.000000000000000e+00
2950 2950 3.192634820938110e+00
2951 52 -1.000000000000000e+00
2951 730 -1.000000000000000e+00
2951 1962 -2.433321326971054e-01
2951 2372 -1.000000000000000e+00
2951 2470 -8.671098947525024e-02
2951 2951 3.330043122172356e+00
2952 4 -1.000000000000000e+00
2952 1099 -1.000000000000000e+00
2952 1287 -1.000000000000000e+00
2952 2952 4.000000000000000e+00
2953 810 -1.000000000000000e+00
2953 1316 -1.000000000000000e+00
2953 2529 -1.000000000000000e+00
2953 2783 -4.082482755184174e-01
2953 2953 3.879652768373489e+00
2954 5 -2.886751294136047e-01
2954 825 -1.000000000000000e+00
2954 1643 -1.000000000000000e+00
2954 2381 -1.000000000000000e+00
2954 2954 3.288675129413605e+00
2955 355 -1.000000000000000e+00
2955 1397 -1.000000000000000e+00
2955 2244 -1.000000000000000e+00
2955 2955 5.083333343267441e+00
2956 117 -1.000000000000000e+00
2956 1115 -1.000000000000000e+00
2956 1461 -1.000000000000000e+00
2956 2485 -2.500000000000000e-01
2956 2956 4.250000000000000e+00
2957 165 -1.000000000000000e+00
2957 1404 -1.000000000000000e+00
2957 1571 -1.073323555290699e+00
2957 2022 -1.651445627212524e-01
2957 2957 3.238468118011951e+00
2958 6 -1.000000000000000e+00
2958 1223 -2.672612369060516e-01
2958 1293 -1.000000000000000e+00
2958 2220 -1.000000000000000e+00
2958 2783 -3.779644966125488e-01
2958 2958 4.645225733518600e+00
2959 21 -1.000000000000000e+00
2959 531 -1.000000000000000e+00
2959 822 -1.000000000000000e+00
2959 2959 3.000000000000000e+00
2960 13 -1.000000000000000e+00
2960 531 -1.000000000000000e+00
2960 1699 -1.000000000000000e+00
2960 2960 3.000000000000000e+00
2961 2385 -1.000000000000000e+00
2961 2538 -1.000000000000000e+00
2961 2654 -1.000000000000000e+00
2961 2961 3.000000000000000e+00
2962 57 -1.000000000000000e+00
2962 126 -1.000000000000000e+00
2962 1870 -3.380617201328278e-01
2962 2308 -1.000000000000000e+00
2962 2962 4.489247500896454e+00
2963 12 -1.000000000000000e+00
2963 65 -1.000000000000000e+00
2963 616 -1.000000000000000e+00
2963 2963 3.000000000000000e+00
2964 33 -1.000000000000000e+00
2964 153 -1.000000000000000e+00
2964 749 -1.000000000000000e+00
2964 2964 3.000000000000000e+00
2965 234 -1.000000000000000e+00
2965 937 -1.000000000000000e+00
2965 1623 -1.000000000000000e+00
2965 2965 3.000000000000000e+00
2966 2 -1.000000000000000e+00
2966 7 -1.000000000000000e+00
2966 93 -1.313064396381378e-01
2966 112 -1.000000000000000e+00
2966 2343 -2.672612369060516e-01
2966 2966 3.398567676544189e+00
2967 5 -1.000000000000000e+00
2967 106 -1.000000000000000e+00
2967 1167 -1.000000000000000e+00
2967 2950 -1.296407431364059e-01
2967 2967 3.129640743136406e+00
2968 254 -1.000000000000000e+00
2968 1988 -1.000000000000000e+00
2968 2226 -1.000000000000000e+00
2968 2968 3.000000000000000e+00
2969 277 -1.533930003643036e-01
2969 507 -1.000000000000000e+00
2969 771 -1.000000000000000e+00
2969 1293 -8.770579844713211e-02
2969 2171 -1.000000000000000e+00
2969 2969 3.241098798811436e+00
2970 38 -1.000000000000000e+00
2970 662 -1.000000000000000e+00
2970 1929 -1.000000000000000e+00
2970 2970 3.000000000000000e+00
2971 67 -1.000000000000000e+00
2971 2854 -1.000000000000000e+00
2971 2872 -1.000000000000000e+00
2971 2971 3.000000000000000e+00
2972 5 -1.000000000000000e+00
2972 105 -1.250000000000000e-01
2972 316 -1.000000000000000e+00
2972 496 -1.000000000000000e+00
2972 2972 4.329124137759209e+00
2973 152 -1.000000000000000e+00
2973 671 -1.000000000000000e+00
2973 1715 -1.100000001490116e+00
2973 2973 3.100000001490116e+00
2974 1292 -1.000000000000000e+00
2974 1744 -1.239045724272728e+00
2974 2133 -1.000000000000000e+00
2974 2974 3.239045724272728e+00
2975 8 -1.000000000000000e+00
2975 791 -1.000000000000000e+00
2975 1194 -1.144337564706802e+00
2975 2975 3.144337564706802e+00
2976 139 -1.000000000000000e+00
2976 165 -2.085144072771072e-01
2976 672 -1.000000000000000e+00
2976 960 -1.000000000000000e+00
2976 2378 -4.082482755184174e-01
2976 2976 3.616762682795525e+00
2977 22 -4.364358186721802e-01
2977 75 -1.000000000000000e+00
2977 917 -2.981424033641815e-01
2977 1157 -1.000000000000000e+00
2977 1291 -4.714044928550720e-01
2977 1392 -1.000000000000000e+00
2977 1564 -2.721655368804932e-01
2977 2220 -4.082483053207397e-01
2977 2360 -4.714044928550720e-01
2977 2493 -1.924500912427902e-01
2977 2502 -3.651483654975891e-01
2977 2795 -6.666666865348816e-01
2977 2977 6.582066193223000e+00
2978 31 -1.000000000000000e+00
2978 268 -1.000000000000000e+00
2978 953 -1.000000000000000e+00
2978 2978 3.000000000000000e+00
2979 176 -1.000000000000000e+00
2979 620 -1.000000000000000e+00
2979 888 -1.000000000000000e+00
2979 1339 -1.414213627576828e-01
2979 2979 3.141421362757683e+00
2980 888 -1.000000000000000e+00
2980 904 -1.000000000000000e+00
2980 1087 -1.000000000000000e+00
2980 2980 3.000000000000000e+00
2981 4 -1.000000000000000e+00
2981 7 -1.000000000000000e+00
2981 1520 -1.000000000000000e+00
2981 2981 3.000000000000000e+00
2982 13 -1.000000000000000e+00
2982 68 -1.000000000000000e+00
2982 1301 -1.000000000000000e+00
2982 2921 -1.740776598453522e-01
2982 2982 3.174077659845352e+00
2983 99 -1.000000000000000e+00
2983 115 -1.000000000000000e+00
2983 302 -1.000000000000000e+00
2983 2983 3.000000000000000e+00
2984 1312 -1.000000000000000e+00
2984 1385 -1.000000000000000e+00
2984 2104 -1.000000000000000e+00
2984 2328 -7.905694097280502e-02
2984 2984 3.079056940972805e+00
2985 670 -1.082199491560459e+00
2985 1235 -1.000000000000000e+00
2985 1985 -1.121267817914486e+00
2985 2985 3.203467309474945e+00
2986 404 -1.000000000000000e+00
2986 773 -7.216878235340118e-02
2986 1294 -1.000000000000000e+00
2986 2145 -1.000000000000000e+00
2986 2986 3.072168782353401e+00
2987 46 -1.000000000000000e+00
2987 1502 -1.000000000000000e+00
2987 2125 -1.000000000000000e+00
2987 2987 3.000000000000000e+00
2988 496 -1.000000000000000e+00
2988 652 -1.000000000000000e+00
2988 1399 -1.000000000000000e+00
2988 2988 3.000000000000000e+00
2989 219 -1.000000000000000e+00
2989 1152 -1.105409257113934e+00
2989 1289 -1.000000000000000e+00
2989 2989 3.105409257113934e+00
2990 54 -1.138675048947334e+00
2990 81 -1.000000000000000e+00
2990 1347 -2.500000298023224e-01
2990 2400 -1.000000000000000e+00
2990 2990 3.388675078749657e+00
2991 87 -1.000000000000000e+00
2991 1500 -1.000000000000000e+00
2991 2222 -1.000000000000000e+00
2991 2991 3.000000000000000e+00
2992 325 -1.000000000000000e+00
2992 758 -1.000000000000000e+00
2992 2576 -1.000000000000000e+00
2992 2992 3.000000000000000e+00
2993 153 -1.000000000000000e+00
2993 1149 -1.000000000000000e+00
2993 2310 -1.000000000000000e+00
2993 2993 3.000000000000000e+00
2994 7 -1.000000000000000e+00
2994 70 -1.000000000000000e+00
2994 879 -1.000000000000000e+00
2994 2810 -8.164965361356735e-02
2994 2994 3.081649653613567e+00
2995 8 -1.000000000000000e+00
2995 51 -1.000000000000000e+00
2995 1925 -1.000000000000000e+00
2995 2995 3.000000000000000e+00
2996 1788 -1.000000000000000e+00
2996 1925 -1.000000000000000e+00
2996 2302 -1.000000000000000e+00
2996 2996 4.000000000000000e+00
2997 47 -1.000000000000000e+00
2997 288 -1.000000000000000e+00
2997 599 -1.000000000000000e+00
2997 1174 -1.213670074939728e-01
2997 1495 -8.662962168455124e-02
2997 2479 -9.245003014802933e-02
2997 2997 3.300446659326553e+00
2998 572 -1.000000000000000e+00
2998 760 -1.000000000000000e+00
2998 2425 -1.000000000000000e+00
2998 2998 4.000000000000000e+00
2999 19 -1.000000000000000e+00
2999 20 -1.000000000000000e+00
2999 1096 -1.000000000000000e+00
2999 2999 3.000000000000000e+00
3000 11 -1.000000000000000e+00
3000 688 -1.000000000000000e+00
3000 1672 -1.000000000000000e+00
3000 3000 5.000000000000000e+00
3001 5 -1.000000000000000e+00
3001 239 -1.000000000000000e+00
3001 397 -8.770579844713211e-02
3001 865 -1.000000000000000e+00
3001 3001 3.087705798447132e+00
3002 191 -1.000000000000000e+00
3002 798 -1.000000000000000e+00
3002 2244 -1.000000000000000e+00
3002 3002 3.000000000000000e+00
3003 438 -1.000000000000000e+00
3003 2469 -1.000000000000000e+00
3003 2616 -1.000000000000000e+00
3003 3003 4.235702246427536e+00
3004 12 -1.000000000000000e+00
3004 663 -1.000000000000000e+00
3004 1427 -1.000000000000000e+00
3004 3004 3.000000000000000e+00
3005 266 -1.000000000000000e+00
3005 1088 -1.000000000000000e+00
3005 1105 -3.779644966125488e-01
3005 1542 -1.000000000000000e+00
3005 3005 3.377964496612549e+00
3006 464 -1.000000000000000e+00
3006 845 -1.490711867809296e-01
3006 2011 -1.000000000000000e+00
3006 2267 -1.000000000000000e+00
3006 3006 4.149071186780930e+00
3007 214 -1.000000000000000e+00
3007 1595 -1.000000000000000e+00
3007 2064 -1.000000000000000e+00
3007 3007 3.000000000000000e+00
3008 13 -1.000000000000000e+00
3008 52 -1.000000000000000e+00
3008 1229 -1.000000000000000e+00
3008 3008 3.000000000000000e+00
3009 57 -1.000000000000000e+00
3009 489 -1.000000000000000e+00
3009 1757 -1.000000000000000e+00
3009 3009 3.166666656732559e+00
3010 925 -1.000000000000000e+00
3010 1086 -1.000000000000000e+00
3010 1433 -1.000000000000000e+00
3010 3010 4.000000000000000e+00
3011 31 -1.000000000000000e+00
3011 275 -1.000000000000000e+00
3011 318 -1.000000000000000e+00
3011 3011 3.000000000000000e+00
3012 8 -1.240771695971489e+00
3012 153 -1.000000000000000e+00
3012 1424 -1.000000000000000e+00
3012 2891 -1.740776598453522e-01
3012 3012 4.414849355816841e+00
3013 1 -1.000000000000000e+00
3013 8 -1.000000000000000e+00
3013 644 -1.000000000000000e+00
3013 3013 3.000000000000000e+00
3014 9 -1.000000000000000e+00
3014 2380 -1.000000000000000e+00
3014 2875 -1.000000000000000e+00
3014 3014 3.000000000000000e+00
3015 423 -1.000000000000000e+00
3015 2481 -1.000000000000000e+00
3015 2702 -1.000000000000000e+00
3015 3015 4.000000000000000e+00
3016 679 -1.000000000000000e+00
3016 1044 -1.000000000000000e+00
3016 1229 -1.000000000000000e+00
3016 3016 4.316227763891220e+00
3017 1457 -1.081649653613567e+00
3017 1576 -1.000000000000000e+00
3017 2702 -1.000000000000000e+00
3017 3017 3.081649653613567e+00
3018 4 -1.000000000000000e+00
3018 2090 -1.000000000000000e+00
3018 2359 -1.000000000000000e+00
3018 3018 3.000000000000000e+00
3019 116 -1.000000000000000e+00
3019 123 -1.000000000000000e+00
3019 135 -1.000000000000000e+00
3019 3019 3.000000000000000e+00
3020 26 -1.144337564706802e+00
3020 545 -1.000000000000000e+00
3020 1493 -4.472135901451111e-01
3020 1745 -5.000000000000000e-01
3020 2288 -1.000000000000000e+00
3020 2555 -2.672612369060516e-01
3020 3020 4.562936529517174e+00
3021 30 -1.000000000000000e+00
3021 95 -1.000000000000000e+00
3021 769 -1.000000000000000e+00
3021 2079 -3.726780116558075e-01
3021 3021 3.372678011655807e+00
3022 305 -1.000000000000000e+00
3022 1433 -1.138675048947334e+00
3022 1588 -1.000000000000000e+00
3022 3022 3.138675048947334e+00
3023 129 -1.000000000000000e+00
3023 2022 -1.000000000000000e+00
3023 2466 -1.000000000000000e+00
3023 3023 4.000000000000000e+00
3024 15 -1.000000000000000e+00
3024 21 -1.000000000000000e+00
3024 1665 -2.357022464275360e-01
3024 2212 -1.000000000000000e+00
3024 3024 4.235702246427536e+00
3025 721 -1.000000000000000e+00
3025 1647 -1.000000000000000e+00
3025 2564 -1.000000000000000e+00
3025 3025 4.000000000000000e+00
3026 214 -1.000000000000000e+00
3026 707 -1.000000000000000e+00
3026 842 -1.178511232137680e-01
3026 1162 -1.000000000000000e+00
3026 3026 3.117851123213768e+00
3027 8 -1.000000000000000e+00
3027 319 -2.022599577903748e-01
3027 402 -1.000000000000000e+00
3027 2315 -1.000000000000000e+00
3027 3027 3.202259957790375e+00
3028 153 -1.000000000000000e+00
3028 288 -1.000000000000000e+00
3028 324 -1.000000000000000e+00
3028 3028 3.235702276229858e+00
3029 1286 -1.000000000000000e+00
3029 1821 -1.000000000000000e+00
3029 2575 -1.000000000000000e+00
3029 3029 4.000000000000000e+00
3030 15 -1.000000000000000e+00
3030 252 -1.000000000000000e+00
3030 1938 -1.000000000000000e+00
3030 3030 3.000000000000000e+00
3031 5 -1.000000000000000e+00
3031 98 -1.000000000000000e+00
3031 1813 -3.535533845424652e-01
3031 2451 -1.000000000000000e+00
3031 3031 3.353553384542465e+00
3032 514 -1.000000000000000e+00
3032 2029 -1.000000000000000e+00
3032 2159 -1.134839966893196e+00
3032 3032 3.134839966893196e+00
3033 228 -1.000000000000000e+00
3033 698 -1.000000000000000e+00
3033 983 -1.000000000000000e+00
3033 3033 4.000000000000000e+00
3034 132 -1.000000000000000e+00
3034 931 -1.000000000000000e+00
3034 1425 -1.000000000000000e+00
3034 3034 3.000000000000000e+00
3035 96 -1.000000000000000e+00
3035 1573 -1.000000000000000e+00
3035 2695 -1.000000000000000e+00
3035 3035 4.000000000000000e+00
3036 343 -1.095346257090569e+00
3036 493 -1.000000000000000e+00
3036 1736 -1.134839966893196e+00
3036 3036 3.230186223983765e+00
3037 391 -1.000000000000000e+00
3037 541 -1.000000000000000e+00
3037 2900 -1.000000000000000e+00
3037 3037 3.000000000000000e+00
3038 607 -1.000000000000000e+00
3038 772 -1.000000000000000e+00
3038 1714 -1.000000000000000e+00
3038 3038 4.000000000000000e+00
3039 38 -1.000000000000000e+00
3039 407 -1.000000000000000e+00
3039 1582 -1.000000000000000e+00
3039 2419 -1.336306184530258e-01
3039 3039 3.133630618453026e+00
3040 1414 -1.000000000000000e+00
3040 1538 -1.000000000000000e+00
3040 2352 -1.000000000000000e+00
3040 2933 -1.581138819456100e-01
3040 3040 4.416312769055367e+00
3041 233 -1.000000000000000e+00
3041 1430 -1.000000000000000e+00
3041 1441 -1.000000000000000e+00
3041 3041 3.000000000000000e+00
3042 983 -1.000000000000000e+00
3042 1688 -1.000000000000000e+00
3042 2383 -1.071066901087761e+00
3042 3042 3.071066901087761e+00
3043 169 -1.000000000000000e+00
3043 270 -1.000000000000000e+00
3043 602 -1.154303357005119e+00
3043 2687 -9.245003759860992e-02
3043 3043 3.246753394603729e+00
3044 235 -1.000000000000000e+00
3044 285 -1.240347325801849e-01
3044 2406 -1.000000000000000e+00
3044 3038 -1.000000000000000e+00
3044 3044 3.124034732580185e+00
3045 294 -1.000000000000000e+00
3045 815 -1.000000000000000e+00
3045 1035 -1.000000000000000e+00
3045 3045 3.000000000000000e+00
3046 27 -1.000000000000000e+00
3046 109 -1.000000000000000e+00
3046 231 -1.000000000000000e+00
3046 3046 3.000000000000000e+00
3047 199 -1.000000000000000e+00
3047 522 -1.000000000000000e+00
3047 1550 -1.000000000000000e+00
3047 3047 3.000000000000000e+00
3048 189 -1.000000000000000e+00
3048 404 -1.000000000000000e+00
3048 1888 -1.000000000000000e+00
3048 3048 3.000000000000000e+00
3049 226 -1.000000000000000e+00
3049 637 -1.000000000000000e+00
3049 2706 -1.000000000000000e+00
3049 3049 3.000000000000000e+00
3050 75 -1.474419534206390e-01
3050 831 -6.299407780170441e-02
3050 1598 -1.000000000000000e+00
3050 1908 -1.000000000000000e+00
3050 2653 -1.000000000000000e+00
3050 3050 3.317036390304565e+00
3051 302 -1.000000000000000e+00
3051 1190 -1.000000000000000e+00
3051 2503 -1.000000000000000e+00
3051 3051 3.000000000000000e+00
3052 22 -1.000000000000000e+00
3052 44 -1.000000000000000e+00
3052 812 -1.000000000000000e+00
3052 3052 3.000000000000000e+00
3053 27 -1.000000000000000e+00
3053 647 -3.061861991882324e-01
3053 858 -2.886751294136047e-01
3053 1116 -1.000000000000000e+00
3053 1555 -1.000000000000000e+00
3053 2871 -2.886751294136047e-01
3053 3053 4.883536458015442e+00
3054 8 -1.000000000000000e+00
3054 657 -1.000000000000000e+00
3054 990 -1.000000000000000e+00
3054 3054 3.000000000000000e+00
3055 26 -1.000000000000000e+00
3055 1163 -1.000000000000000e+00
3055 1493 -1.000000000000000e+00
3055 3055 3.275009572505951e+00
3056 132 -1.000000000000000e+00
3056 650 -1.000000000000000e+00
3056 2203 -1.767766922712326e-01
3056 2229 -1.507556736469269e-01
3056 2876 -1.088388346135616e+00
3056 3056 4.415920712053776e+00
3057 71 -1.000000000000000e+00
3057 423 -1.000000000000000e+00
3057 1101 -1.000000000000000e+00
3057 2076 -2.581988871097565e-01
3057 2091 -3.333333432674408e-01
3057 3057 3.591532230377197e+00
3058 145 -1.226455390453339e+00
3058 353 -1.000000000000000e+00
3058 1798 -1.000000000000000e+00
3058 3058 4.226455390453339e+00
3059 244 -1.000000000000000e+00
3059 1556 -1.075592890381813e+00
3059 2156 -1.000000000000000e+00
3059 3059 3.075592890381813e+00
3060 151 -1.000000000000000e+00
3060 305 -1.000000000000000e+00
3060 1770 -1.000000000000000e+00
3060 3060 3.000000000000000e+00
3061 161 -1.000000000000000e+00
3061 444 -1.336306184530258e-01
3061 446 -1.000000000000000e+00
3061 843 -1.089087076485157e+00
3061 3061 3.222717694938183e+00
3062 95 -1.000000000000000e+00
3062 2483 -1.000000000000000e+00
3062 2624 -1.000000000000000e+00
3062 3062 4.000000000000000e+00
3063 35 -1.000000000000000e+00
3063 1165 -1.000000000000000e+00
3063 1474 -1.000000000000000e+00
3063 3063 3.000000000000000e+00
3064 56 -1.000000000000000e+00
3064 1566 -1.000000000000000e+00
3064 2478 -1.053838185966015e+00
3064 2895 -1.398757249116898e-01
3064 3064 3.193713910877705e+00
3065 78 -1.000000000000000e+00
3065 269 -1.000000000000000e+00
3065 952 -1.000000000000000e+00
3065 3065 3.000000000000000e+00
3066 78 -1.000000000000000e+00
3066 157 -1.000000000000000e+00
3066 1768 -1.000000000000000e+00
3066 3066 3.000000000000000e+00
3067 10 -1.000000000000000e+00
3067 758 -1.000000000000000e+00
3067 2086 -1.000000000000000e+00
3067 3067 3.000000000000000e+00
3068 150 -1.000000000000000e+00
3068 1143 -1.000000000000000e+00
3068 1397 -1.000000000000000e+00
3068 3068 3.000000000000000e+00
3069 17 -1.000000000000000e+00
3069 386 -1.000000000000000e+00
3069 2182 -1.000000000000000e+00
3069 3069 3.000000000000000e+00
3070 26 -1.000000000000000e+00
3070 292 -1.000000000000000e+00
3070 387 -1.000000000000000e+00
3070 3070 3.000000000000000e+00
3071 893 -1.000000000000000e+00
3071 2125 -1.000000000000000e+00
3071 2201 -1.000000000000000e+00
3071 3071 3.000000000000000e+00
3072 441 -1.000000000000000e+00
3072 662 -1.000000000000000e+00
3072 845 -1.000000000000000e+00
3072 3072 4.000000000000000e+00
3073 270 -1.000000000000000e+00
3073 575 -1.000000000000000e+00
3073 2684 -1.000000000000000e+00
3073 3073 4.000000000000000e+00
3074 26 -1.000000000000000e+00
3074 1697 -1.000000000000000e+00
3074 1964 -1.000000000000000e+00
3074 3074 3.000000000000000e+00
3075 528 -1.000000000000000e+00
3075 2010 -1.000000000000000e+00
3075 2803 -1.000000000000000e+00
3075 3075 6.000000000000000e+00
3076 1095 -1.000000000000000e+00
3076 2436 -1.000000000000000e+00
3076 2677 -1.000000000000000e+00
3076 3076 3.000000000000000e+00
3077 739 -1.000000000000000e+00
3077 1909 -1.000000000000000e+00
3077 2605 -1.069171443581581e+00
3077 3077 4.069171443581581e+00
3078 496 -1.000000000000000e+00
3078 2311 -1.000000000000000e+00
3078 2314 -1.000000000000000e+00
3078 3078 3.258198887109756e+00
3079 1 -1.000000000000000e+00
3079 1021 -1.000000000000000e+00
3079 1847 -1.333333402872086e-01
3079 2374 -1.000000000000000e+00
3079 2549 -1.084652319550514e-01
3079 3079 3.241798572242260e+00
3080 224 -1.000000000000000e+00
3080 511 -1.000000000000000e+00
3080 2330 -1.092847667634487e+00
3080 3080 3.092847667634487e+00
3081 80 -1.000000000000000e+00
3081 1228 -1.000000000000000e+00
3081 2807 -1.000000000000000e+00
3081 3081 3.000000000000000e+00
3082 625 -1.000000000000000e+00
3082 850 -1.000000000000000e+00
3082 2883 -1.000000000000000e+00
3082 3082 3.000000000000000e+00
3083 40 -1.000000000000000e+00
3083 462 -1.000000000000000e+00
3083 1591 -1.108465231955051e+00
3083 2450 -6.666667014360428e-02
3083 3083 3.175131902098656e+00
3084 22 -1.000000000000000e+00
3084 107 -1.000000000000000e+00
3084 1075 -4.803844690322876e-01
3084 2392 -1.000000000000000e+00
3084 3084 3.800640791654587e+00
3085 815 -1.000000000000000e+00
3085 1644 -1.000000000000000e+00
3085 2080 -1.000000000000000e+00
3085 3085 3.000000000000000e+00
3086 701 -1.000000000000000e+00
3086 1361 -1.000000000000000e+00
3086 1481 -1.054092571139336e-01
3086 1644 -1.100000001490116e+00
3086 3086 3.205409258604050e+00
3087 1617 -1.000000000000000e+00
3087 2339 -1.000000000000000e+00
3087 2646 -2.236067950725555e-01
3087 2860 -1.000000000000000e+00
3087 3087 3.223606795072556e+00
3088 1 -1.000000000000000e+00
3088 264 -1.000000000000000e+00
3088 421 -1.000000000000000e+00
3088 3088 3.000000000000000e+00
3089 7 -1.000000000000000e+00
3089 591 -1.000000000000000e+00
3089 2807 -1.000000000000000e+00
3089 3089 3.000000000000000e+00
3090 2259 -1.000000000000000e+00
3090 2311 -1.458649933338165e-01
3090 2324 -1.000000000000000e+00
3090 2792 -1.000000000000000e+00
3090 3090 3.145864993333817e+00
3091 79 -1.000000000000000e+00
3091 955 -3.202563226222992e-01
3091 1387 -1.000000000000000e+00
3091 2541 -1.000000000000000e+00
3091 3091 3.320256322622299e+00
3092 450 -1.000000000000000e+00
3092 779 -1.000000000000000e+00
3092 1395 -1.000000000000000e+00
3092 3092 8.235702246427536e+00
3093 92 -1.000000000000000e+00
3093 107 -1.000000000000000e+00
3093 784 -1.000000000000000e+00
3093 3093 5.301511347293854e+00
3094 22 -1.000000000000000e+00
3094 984 -1.000000000000000e+00
3094 2531 -1.000000000000000e+00
3094 3094 3.000000000000000e+00
3095 92 -1.162221416831017e+00
3095 368 -1.767766922712326e-01
3095 458 -1.000000000000000e+00
3095 1322 -1.000000000000000e+00
3095 1331 -3.162277638912201e-01
3095 1687 -2.773500978946686e-01
3095 1878 -1.924500912427902e-01
3095 2200 -5.000000000000000e-01
3095 2582 -3.779644966125488e-01
3095 2877 -2.425356358289719e-01
3095 2882 -3.779644966125488e-01
3095 3095 6.623490691184998e+00
3096 1582 -1.000000000000000e+00
3096 1629 -1.000000000000000e+00
3096 1718 -1.000000000000000e+00
3096 3096 3.000000000000000e+00
3097 987 -1.000000000000000e+00
3097 1451 -1.000000000000000e+00
3097 2488 -1.000000000000000e+00
3097 3097 3.000000000000000e+00
3098 123 -1.000000000000000e+00
3098 189 -1.000000000000000e+00
3098 1156 -1.000000000000000e+00
3098 3098 3.000000000000000e+00
3099 59 -1.000000000000000e+00
3099 468 -1.000000000000000e+00
3099 1014 -1.242250800132751e+00
3099 1818 -2.041241526603699e-01
3099 3099 3.446374952793121e+00
3100 316 -1.000000000000000e+00
3100 459 -2.267786711454391e-01
3100 535 -1.141421362757683e+00
3100 584 -1.000000000000000e+00
3100 999 -1.703885495662689e-01
3100 3100 3.538588583469391e+00
3101 35 -1.000000000000000e+00
3101 101 -1.000000000000000e+00
3101 2160 -1.000000000000000e+00
3101 3101 3.365148365497589e+00
3102 76 -1.000000000000000e+00
3102 155 -1.000000000000000e+00
3102 941 -1.000000000000000e+00
3102 3102 3.000000000000000e+00
3103 123 -1.490711867809296e-01
3103 184 -1.000000000000000e+00
3103 530 -1.240347325801849e-01
3103 2209 -1.000000000000000e+00
3103 2609 -1.000000000000000e+00
3103 3103 5.273105919361115e+00
3104 1201 -1.000000000000000e+00
3104 1657 -1.000000000000000e+00
3104 1873 -1.000000000000000e+00
3104 3104 3.000000000000000e+00
3105 482 -1.000000000000000e+00
3105 802 -1.000000000000000e+00
3105 1656 -1.000000000000000e+00
3105 3105 3.000000000000000e+00
3106 79 -1.000000000000000e+00
3106 378 -1.000000000000000e+00
3106 741 -1.000000000000000e+00
3106 1910 -3.333333134651184e-01
3106 3106 3.456424802541733e+00
3107 38 -1.000000000000000e+00
3107 90 -1.000000000000000e+00
3107 444 -1.000000000000000e+00
3107 3107 3.000000000000000e+00
3108 24 -1.000000000000000e+00
3108 1031 -1.000000000000000e+00
3108 1146 -1.000000000000000e+00
3108 1505 -9.901475906372070e-02
3108 3108 3.099014759063721e+00
3109 440 -1.124273948371410e+00
3109 796 -1.000000000000000e+00
3109 2631 -1.000000000000000e+00
3109 3109 3.124273948371410e+00
3110 1046 -1.149071186780930e+00
3110 1149 -1.000000000000000e+00
3110 1450 -2.357022762298584e-01
3110 2383 -1.000000000000000e+00
3110 3110 4.502624601125717e+00
3111 48 -1.000000000000000e+00
3111 1240 -3.015113472938538e-01
3111 1536 -1.000000000000000e+00
3111 2534 -1.000000000000000e+00
3111 3111 3.301511347293854e+00
3112 203 -1.000000000000000e+00
3112 326 -1.000000000000000e+00
3112 1732 -2.970442473888397e-01
3112 2592 -1.000000000000000e+00
3112 3112 6.297044247388840e+00
3113 5 -1.000000000000000e+00
3113 66 -1.000000000000000e+00
3113 771 -1.000000000000000e+00
3113 1163 -1.601281613111496e-01
3113 3113 4.418327048420906e+00
3114 333 -1.000000000000000e+00
3114 376 -1.000000000000000e+00
3114 2435 -1.204598307609558e+00
3114 2682 -2.480694651603699e-01
3114 2709 -1.490711867809296e-01
3114 2714 -1.581138819456100e-01
3114 2756 -2.390456944704056e-01
3114 3114 3.998898535966873e+00
3115 45 -1.000000000000000e+00
3115 2458 -1.000000000000000e+00
3115 2578 -1.000000000000000e+00
3115 3115 3.000000000000000e+00
3116 187 -1.113960579037666e+00
3116 1103 -1.000000000000000e+00
3116 1348 -1.000000000000000e+00
3116 3116 3.113960579037666e+00
3117 82 -1.000000000000000e+00
3117 789 -1.000000000000000e+00
3117 2819 -3.585685491561890e-01
3117 3113 -1.258198887109756e+00
3117 3117 3.616767436265945e+00
3118 4 -1.190476194024086e+00
3118 564 -1.000000000000000e+00
3118 1477 -1.000000000000000e+00
3118 1871 -3.380617201328278e-01
3118 3118 3.528537914156914e+00
3119 241 -1.000000000000000e+00
3119 242 -1.000000000000000e+00
3119 570 -1.000000000000000e+00
3119 3119 3.000000000000000e+00
3120 35 -1.000000000000000e+00
3120 57 -1.000000000000000e+00
3120 2451 -1.000000000000000e+00
3120 3120 3.235702246427536e+00
3121 2127 -1.000000000000000e+00
3121 2186 -1.000000000000000e+00
3121 2658 -1.000000000000000e+00
3121 3121 3.000000000000000e+00
3122 1270 -1.000000000000000e+00
3122 2668 -1.000000000000000e+00
3122 2807 -1.000000000000000e+00
3122 3122 3.000000000000000e+00
3123 107 -1.000000000000000e+00
3123 335 -1.000000000000000e+00
3123 1806 -1.000000000000000e+00
3123 3123 3.000000000000000e+00
3124 1728 -1.000000000000000e+00
3124 2308 -1.000000000000000e+00
3124 3025 -1.000000000000000e+00
3124 3124 4.000000000000000e+00
3125 34 -1.825741827487946e-01
3125 350 -1.000000000000000e+00
3125 707 -1.000000000000000e+00
3125 1466 -1.000000000000000e+00
3125 3125 3.182574182748795e+00
3126 13 -1.000000000000000e+00
3126 546 -1.000000000000000e+00
3126 642 -1.000000000000000e+00
3126 3126 5.000000000000000e+00
3127 303 -1.000000000000000e+00
3127 1631 -1.000000000000000e+00
3127 1897 -1.000000000000000e+00
3127 3127 4.000000000000000e+00
3128 117 -1.000000000000000e+00
3128 258 -1.000000000000000e+00
3128 384 -1.801874935626984e-01
3128 1576 -1.000000000000000e+00
3128 3128 4.467400819063187e+00
3129 1053 -1.000000000000000e+00
3129 1881 -1.000000000000000e+00
3129 2566 -1.000000000000000e+00
3129 3129 3.000000000000000e+00
3130 8 -1.000000000000000e+00
3130 1271 -1.000000000000000e+00
3130 2396 -1.000000000000000e+00
3130 3130 3.000000000000000e+00
3131 115 -1.000000000000000e+00
3131 286 -1.205195665359497e+00
3131 1203 -1.000000000000000e+00
3131 1498 -2.696799337863922e-01
3131 1719 -2.236067950725555e-01
3131 3131 3.698482394218445e+00
3132 674 -1.000000000000000e+00
3132 934 -1.000000000000000e+00
3132 2135 -1.000000000000000e+00
3132 3132 3.000000000000000e+00
3133 335 -1.106600359082222e+00
3133 2280 -1.000000000000000e+00
3133 2583 -1.000000000000000e+00
3133 2701 -2.417468875646591e-01
3133 3133 4.348347246646881e+00
3134 888 -1.000000000000000e+00
3134 1135 -1.000000000000000e+00
3134 1546 -1.000000000000000e+00
3134 3134 4.000000000000000e+00
3135 48 -1.290994435548782e-01
3135 51 -1.000000000000000e+00
3135 474 -1.000000000000000e+00
3135 1775 -1.000000000000000e+00
3135 3135 3.129099443554878e+00
3136 838 -1.000000000000000e+00
3136 847 -1.000000000000000e+00
3136 857 -1.000000000000000e+00
3136 3136 3.000000000000000e+00
3137 363 -1.000000000000000e+00
3137 2275 -1.000000000000000e+00
3137 2691 -1.000000000000000e+00
3137 3137 3.372104197740555e+00
3138 423 -1.000000000000000e+00
3138 1285 -1.178174152970314e+00
3138 1757 -1.136082753539085e+00
3138 3009 -1.666666567325592e-01
3138 3138 4.480923563241959e+00
3139 260 -1.174077659845352e+00
3139 1035 -1.000000000000000e+00
3139 1147 -1.000000000000000e+00
3139 2101 -3.813850283622742e-01
3139 3139 3.555462688207626e+00
3140 5 -1.000000000000000e+00
3140 17 -1.000000000000000e+00
3140 1344 -1.111111119389534e+00
3140 3140 3.111111119389534e+00
3141 135 -1.000000000000000e+00
3141 766 -1.000000000000000e+00
3141 1953 -1.000000000000000e+00
3141 3141 4.000000000000000e+00
3142 178 -1.192450091242790e+00
3142 351 -1.000000000000000e+00
3142 2753 -1.000000000000000e+00
3142 3142 3.192450091242790e+00
3143 5 -1.000000000000000e+00
3143 952 -1.000000000000000e+00
3143 2355 -1.000000000000000e+00
3143 3143 3.000000000000000e+00
3144 209 -1.000000000000000e+00
3144 270 -1.000000000000000e+00
3144 545 -1.000000000000000e+00
3144 3144 5.000000000000000e+00
3145 67 -1.000000000000000e+00
3145 1057 -1.000000000000000e+00
3145 1227 -1.000000000000000e+00
3145 1699 -3.779644966125488e-01
3145 2151 -1.666666716337204e-01
3145 3145 4.544631168246269e+00
3146 114 -1.000000000000000e+00
3146 258 -1.000000000000000e+00
3146 1862 -1.000000000000000e+00
3146 3146 3.000000000000000e+00
3147 27 -1.000000000000000e+00
3147 829 -1.000000000000000e+00
3147 1464 -1.000000000000000e+00
3147 3147 4.000000000000000e+00
3148 191 -1.000000000000000e+00
3148 572 -1.000000000000000e+00
3148 2818 -1.000000000000000e+00
3148 3148 3.000000000000000e+00
3149 609 -1.000000000000000e+00
3149 1282 -1.000000000000000e+00
3149 2500 -1.000000000000000e+00
3149 3149 4.000000000000000e+00
3150 325 -1.000000000000000e+00
3150 350 -1.000000000000000e+00
3150 3075 -1.000000000000000e+00
3150 3150 3.000000000000000e+00
3151 14 -1.000000000000000e+00
3151 579 -1.000000000000000e+00
3151 2774 -1.000000000000000e+00
3151 3078 -2.581988871097565e-01
3151 3151 3.258198887109756e+00
3152 11 -1.000000000000000e+00
3152 648 -1.000000000000000e+00
3152 1125 -1.000000000000000e+00
3152 3152 3.223606795072556e+00
3153 861 -1.000000000000000e+00
3153 1216 -1.000000000000000e+00
3153 1690 -1.000000000000000e+00
3153 1760 -5.661384761333466e-02
3153 3153 3.056613847613335e+00
3154 1598 -1.084515430033207e+00
3154 2014 -2.208963036537170e-01
3154 2725 -1.000000000000000e+00
3154 2766 -1.079056940972805e+00
3154 3154 4.384468674659729e+00
3155 13 -1.000000000000000e+00
3155 846 -1.000000000000000e+00
3155 1332 -1.000000000000000e+00
3155 2076 -2.309400886297226e-01
3155 3155 4.489138975739479e+00
3156 222 -1.000000000000000e+00
3156 439 -1.000000000000000e+00
3156 675 -1.000000000000000e+00
3156 3156 3.000000000000000e+00
3157 224 -1.000000000000000e+00
3157 1106 -1.000000000000000e+00
3157 2274 -1.141421362757683e+00
3157 3157 6.141421362757683e+00
3158 39 -1.000000000000000e+00
3158 513 -2.264554202556610e-01
3158 1243 -1.400280147790909e-01
3158 1343 -1.000000000000000e+00
3158 2590 -1.000000000000000e+00
3158 3158 3.366483435034752e+00
3159 123 -1.000000000000000e+00
3159 857 -1.000000000000000e+00
3159 2313 -1.000000000000000e+00
3159 3159 5.000000000000000e+00
3160 61 -1.000000000000000e+00
3160 224 -1.000000000000000e+00
3160 1430 -1.632993072271347e-01
3160 1456 -1.000000000000000e+00
3160 3160 3.163299307227135e+00
3161 1973 -1.000000000000000e+00
3161 2037 -1.000000000000000e+00
3161 2270 -1.000000000000000e+00
3161 3161 3.000000000000000e+00
3162 23 -1.000000000000000e+00
3162 831 -1.000000000000000e+00
3162 1908 -1.066003590822220e-01
3162 2896 -1.000000000000000e+00
3162 3050 -1.066003590822220e-01
3162 3162 5.213200718164444e+00
3163 139 -1.000000000000000e+00
3163 757 -1.235702276229858e+00
3163 839 -1.176776707172394e+00
3163 3163 3.412478983402252e+00
3164 494 -1.000000000000000e+00
3164 2261 -1.000000000000000e+00
3164 2345 -1.000000000000000e+00
3164 3164 3.000000000000000e+00
3165 1384 -1.000000000000000e+00
3165 1979 -1.000000000000000e+00
3165 2822 -1.000000000000000e+00
3165 3165 4.000000000000000e+00
3166 9 -1.000000000000000e+00
3166 166 -1.000000000000000e+00
3166 2153 -1.000000000000000e+00
3166 2421 -1.020620763301849e-01
3166 3166 3.102062076330185e+00
3167 7 -1.000000000000000e+00
3167 315 -1.000000000000000e+00
3167 2696 -1.000000000000000e+00
3167 3167 3.000000000000000e+00
3168 209 -1.000000000000000e+00
3168 900 -1.000000000000000e+00
3168 1851 -1.000000000000000e+00
3168 3168 3.000000000000000e+00
3169 6 -1.000000000000000e+00
3169 2197 -1.000000000000000e+00
3169 2374 -1.000000000000000e+00
3169 3169 3.000000000000000e+00
3170 206 -1.000000000000000e+00
3170 339 -1.000000000000000e+00
3170 937 -3.380617201328278e-01
3170 2151 -1.000000000000000e+00
3170 3170 3.338061720132828e+00
3171 319 -1.000000000000000e+00
3171 734 -1.000000000000000e+00
3171 3141 -1.000000000000000e+00
3171 3171 3.000000000000000e+00
3172 130 -1.000000000000000e+00
3172 2293 -1.000000000000000e+00
3172 2842 -1.000000000000000e+00
3172 3172 3.000000000000000e+00
3173 8 -1.000000000000000e+00
3173 604 -1.000000000000000e+00
3173 1576 -1.000000000000000e+00
3173 3173 4.000000000000000e+00
3174 4 -1.000000000000000e+00
3174 196 -1.443375647068024e-01
3174 246 -1.000000000000000e+00
3174 1274 -2.500000000000000e-01
3174 1883 -1.000000000000000e+00
3174 1939 -2.236067950725555e-01
3174 3174 3.841551154851913e+00
3175 5 -1.000000000000000e+00
3175 340 -1.000000000000000e+00
3175 1531 -1.000000000000000e+00
3175 3175 3.000000000000000e+00
3176 327 -2.153652459383011e-01
3176 931 -1.000000000000000e+00
3176 1345 -1.000000000000000e+00
3176 2440 -1.000000000000000e+00
3176 3176 4.215365245938301e+00
3177 1157 -1.000000000000000e+00
3177 1889 -1.000000000000000e+00
3177 1910 -1.230914890766144e-01
3177 2418 -1.000000000000000e+00
3177 3106 -1.230914890766144e-01
3177 3177 3.246182978153229e+00
3178 6 -1.000000000000000e+00
3178 1180 -2.390456944704056e-01
3178 1650 -1.000000000000000e+00
3178 2091 -1.000000000000000e+00
3178 3178 3.239045694470406e+00
3179 72 -1.000000000000000e+00
3179 205 -1.000000000000000e+00
3179 249 -1.000000000000000e+00
3179 3179 3.000000000000000e+00
3180 547 -1.000000000000000e+00
3180 1471 -1.714985966682434e-01
3180 1830 -1.000000000000000e+00
3180 2133 -1.000000000000000e+00
3180 3180 4.171498596668243e+00
3181 165 -1.000000000000000e+00
3181 237 -1.259881556034088e-01
3181 238 -1.000000000000000e+00
3181 1554 -1.000000000000000e+00
3181 3181 3.125988155603409e+00
3182 222 -1.000000000000000e+00
3182 510 -1.000000000000000e+00
3182 935 -1.000000000000000e+00
3182 1937 -2.286647558212280e-01
3182 3182 3.390355169773102e+00
3183 118 -1.000000000000000e+00
3183 1576 -1.096225045621395e+00
3183 1705 -1.000000000000000e+00
3183 3128 -1.290994435548782e-01
3183 3183 3.225324489176273e+00
3184 131 -1.000000000000000e+00
3184 412 -1.924500912427902e-01
3184 877 -1.000000000000000e+00
3184 1864 -1.000000000000000e+00
3184 3184 5.192450091242790e+00
3185 42 -1.342997193336487e+00
3185 1416 -1.000000000000000e+00
3185 2952 -1.000000000000000e+00
3185 3185 3.342997193336487e+00
3186 282 -1.000000000000000e+00
3186 1402 -1.111111193895340e-01
3186 1631 -1.259881556034088e-01
3186 1663 -1.000000000000000e+00
3186 1907 -1.290994435548782e-01
3186 2312 -1.000000000000000e+00
3186 2386 -1.924500912427902e-01
3186 3186 3.732726469635963e+00
3187 35 -1.000000000000000e+00
3187 94 -1.000000000000000e+00
3187 97 -1.000000000000000e+00
3187 3187 3.000000000000000e+00
3188 1422 -1.160128146409988e+00
3188 2040 -1.000000000000000e+00
3188 2063 -1.443375647068024e-01
3188 2775 -1.000000000000000e+00
3188 3188 3.304465711116791e+00
3189 35 -1.200000002980232e+00
3189 264 -1.000000000000000e+00
3189 624 -1.533930003643036e-01
3189 1892 -2.121320366859436e-01
3189 1939 -1.000000000000000e+00
3189 2160 -4.472135603427887e-01
3189 2869 -3.162277638912201e-01
3189 3101 -3.651483654975891e-01
3189 3174 -2.236067950725555e-01
3189 3189 5.100295707583427e+00
3190 244 -1.000000000000000e+00
3190 788 -2.096569836139679e-01
3190 1402 -1.000000000000000e+00
3190 2454 -1.000000000000000e+00
3190 3190 3.209656983613968e+00
3191 23 -1.000000000000000e+00
3191 1271 -1.000000000000000e+00
3191 2478 -1.000000000000000e+00
3191 3191 4.000000000000000e+00
3192 14 -1.000000000000000e+00
3192 1358 -1.581138819456100e-01
3192 1405 -1.205195665359497e+00
3192 2133 -1.000000000000000e+00
3192 3192 3.363309547305107e+00
3193 6 -1.000000000000000e+00
3193 620 -1.000000000000000e+00
3193 3092 -1.000000000000000e+00
3193 3193 4.000000000000000e+00
3194 962 -1.000000000000000e+00
3194 1461 -1.000000000000000e+00
3194 1557 -1.150755673646927e+00
3194 3194 3.150755673646927e+00
3195 674 -1.000000000000000e+00
3195 679 -1.000000000000000e+00
3195 2066 -1.000000000000000e+00
3195 3195 3.000000000000000e+00
3196 8 -1.000000000000000e+00
3196 578 -1.000000000000000e+00
3196 1728 -1.000000000000000e+00
3196 3196 3.000000000000000e+00
3197 383 -1.000000000000000e+00
3197 2824 -1.000000000000000e+00
3197 3184 -1.000000000000000e+00
3197 3197 3.000000000000000e+00
3198 57 -1.000000000000000e+00
3198 416 -1.064549721777439e+00
3198 1055 -1.079056940972805e+00
3198 3198 3.143606662750244e+00
3199 82 -1.000000000000000e+00
3199 487 -1.000000000000000e+00
3199 2328 -1.000000000000000e+00
3199 3199 4.000000000000000e+00
3200 451 -1.000000000000000e+00
3200 507 -1.000000000000000e+00
3200 581 -1.000000000000000e+00
3200 2247 -2.182179093360901e-01
3200 2522 -4.335549473762512e-01
3200 2720 -2.672612369060516e-01
3200 3200 3.919034093618393e+00
3201 108 -1.133630618453026e+00
3201 343 -1.000000000000000e+00
3201 1261 -1.000000000000000e+00
3201 2065 -2.425356358289719e-01
3201 3201 3.376166254281998e+00
3202 82 -1.000000000000000e+00
3202 2440 -1.000000000000000e+00
3202 2604 -1.267261236906052e+00
3202 3202 4.267261236906052e+00
3203 16 -1.000000000000000e+00
3203 325 -1.000000000000000e+00
3203 2020 -1.000000000000000e+00
3203 2031 -1.543033570051193e-01
3203 3203 3.154303357005119e+00
3204 1578 -1.000000000000000e+00
3204 2203 -1.000000000000000e+00
3204 3056 -1.000000000000000e+00
3204 3204 5.000000000000000e+00
3205 674 -1.000000000000000e+00
3205 987 -1.000000000000000e+00
3205 1300 -1.000000000000000e+00
3205 3205 3.000000000000000e+00
3206 19 -1.000000000000000e+00
3206 774 -1.000000000000000e+00
3206 793 -2.457365840673447e-01
3206 2159 -1.000000000000000e+00
3206 3206 4.394807770848274e+00
3207 22 -1.000000000000000e+00
3207 2280 -1.000000000000000e+00
3207 2677 -1.000000000000000e+00
3207 3207 3.288675129413605e+00
3208 317 -1.000000000000000e+00
3208 366 -1.000000000000000e+00
3208 494 -1.149071186780930e+00
3208 668 -7.669650018215179e-02
3208 3208 4.225767686963081e+00
3209 710 -1.000000000000000e+00
3209 2286 -1.000000000000000e+00
3209 2503 -1.000000000000000e+00
3209 3209 5.000000000000000e+00
3210 648 -1.000000000000000e+00
3210 2806 -1.000000000000000e+00
3210 2893 -1.000000000000000e+00
3210 3210 3.000000000000000e+00
3211 5 -1.000000000000000e+00
3211 13 -1.000000000000000e+00
3211 733 -1.000000000000000e+00
3211 3211 4.149071201682091e+00
3212 71 -1.000000000000000e+00
3212 107 -1.000000000000000e+00
3212 860 -1.000000000000000e+00
3212 3212 3.000000000000000e+00
3213 1 -1.000000000000000e+00
3213 652 -1.000000000000000e+00
3213 2235 -1.000000000000000e+00
3213 3213 3.000000000000000e+00
3214 24 -1.000000000000000e+00
3214 46 -1.000000000000000e+00
3214 606 -1.000000000000000e+00
3214 3214 3.000000000000000e+00
3215 223 -1.125988155603409e+00
3215 1585 -1.000000000000000e+00
3215 3126 -1.000000000000000e+00
3215 3215 3.125988155603409e+00
3216 17 -1.000000000000000e+00
3216 116 -1.000000000000000e+00
3216 708 -1.000000000000000e+00
3216 2236 -1.556997895240784e-01
3216 3216 4.155699789524078e+00
3217 107 -1.000000000000000e+00
3217 273 -1.000000000000000e+00
3217 2032 -1.000000000000000e+00
3217 3217 3.000000000000000e+00
3218 1598 -1.000000000000000e+00
3218 1609 -1.000000000000000e+00
3218 2657 -1.000000000000000e+00
3218 3218 3.000000000000000e+00
3219 27 -1.000000000000000e+00
3219 156 -1.000000000000000e+00
3219 707 -1.000000000000000e+00
3219 3219 4.000000000000000e+00
3220 6 -1.000000000000000e+00
3220 269 -1.000000000000000e+00
3220 1670 -1.000000000000000e+00
3220 3220 3.000000000000000e+00
3221 332 -1.000000000000000e+00
3221 465 -8.362419903278351e-02
3221 511 -1.000000000000000e+00
3221 1003 -1.087038829922676e+00
3221 3221 3.170663028955460e+00
3222 8 -1.000000000000000e+00
3222 165 -1.000000000000000e+00
3222 1303 -1.099258340895176e+00
3222 3222 3.099258340895176e+00
3223 372 -1.000000000000000e+00
3223 628 -1.000000000000000e+00
3223 879 -1.000000000000000e+00
3223 3223 3.000000000000000e+00
3224 185 -1.000000000000000e+00
3224 1424 -1.132276952266693e-01
3224 2284 -1.166666656732559e+00
3224 2631 -1.000000000000000e+00
3224 3224 3.279894351959229e+00
3225 414 -1.000000000000000e+00
3225 3093 -1.000000000000000e+00
3225 3133 -1.000000000000000e+00
3225 3225 3.000000000000000e+00
3226 1848 -1.000000000000000e+00
3226 2064 -1.000000000000000e+00
3226 2474 -1.132453233003616e+00
3226 2742 -1.147078648209572e-01
3226 3226 4.247161097824574e+00
3227 13 -1.000000000000000e+00
3227 507 -1.000000000000000e+00
3227 760 -1.000000000000000e+00
3227 3227 3.000000000000000e+00
3228 162 -1.000000000000000e+00
3228 987 -1.000000000000000e+00
3228 1563 -1.767766922712326e-01
3228 2760 -1.000000000000000e+00
3228 3228 3.176776692271233e+00
3229 85 -1.000000000000000e+00
3229 817 -1.085749298334122e+00
3229 2456 -1.057166196405888e+00
3229 3229 3.142915494740009e+00
3230 491 -1.000000000000000e+00
3230 1062 -1.000000000000000e+00
3230 2118 -1.000000000000000e+00
3230 2241 -2.125975936651230e-01
3230 3230 3.212597593665123e+00
3231 1275 -1.000000000000000e+00
3231 1392 -1.000000000000000e+00
3231 1472 -1.000000000000000e+00
3231 3231 3.000000000000000e+00
3232 5 -1.000000000000000e+00
3232 2145 -1.889822483062744e-01
3232 2369 -2.425356358289719e-01
3232 2423 -1.000000000000000e+00
3232 2762 -3.162277638912201e-01
3232 2958 -1.000000000000000e+00
3232 3232 4.971352443099022e+00
3233 31 -1.000000000000000e+00
3233 228 -1.000000000000000e+00
3233 1518 -1.000000000000000e+00
3233 3233 3.000000000000000e+00
3234 56 -1.000000000000000e+00
3234 1690 -1.000000000000000e+00
3234 3127 -1.000000000000000e+00
3234 3234 3.000000000000000e+00
3235 9 -1.000000000000000e+00
3235 1397 -1.000000000000000e+00
3235 3058 -1.000000000000000e+00
3235 3235 4.316227763891220e+00
3236 65 -1.000000000000000e+00
3236 330 -1.000000000000000e+00
3236 1054 -1.000000000000000e+00
3236 3236 3.000000000000000e+00
3237 4 -1.000000000000000e+00
3237 292 -1.000000000000000e+00
3237 1598 -1.000000000000000e+00
3237 3237 4.000000000000000e+00
3238 296 -1.000000000000000e+00
3238 884 -1.000000000000000e+00
3238 2602 -1.171498596668243e+00
3238 3238 4.171498596668243e+00
3239 105 -1.000000000000000e+00
3239 660 -1.000000000000000e+00
3239 2217 -1.000000000000000e+00
3239 3239 3.000000000000000e+00
3240 107 -1.000000000000000e+00
3240 985 -1.000000000000000e+00
3240 2908 -1.000000000000000e+00
3240 3240 4.000000000000000e+00
3241 1127 -1.000000000000000e+00
3241 1343 -1.000000000000000e+00
3241 1505 -1.000000000000000e+00
3241 3241 5.000000000000000e+00
3242 453 -1.000000000000000e+00
3242 1875 -1.119522862136364e+00
3242 2197 -1.000000000000000e+00
3242 3242 3.119522862136364e+00
3243 1528 -1.000000000000000e+00
3243 1753 -1.000000000000000e+00
3243 2917 -1.000000000000000e+00
3243 3243 3.000000000000000e+00
3244 249 -1.000000000000000e+00
3244 269 -1.000000000000000e+00
3244 1714 -1.000000000000000e+00
3244 3244 4.000000000000000e+00
3245 5 -1.000000000000000e+00
3245 624 -2.800560295581818e-01
3245 1159 -2.182178795337677e-01
3245 1860 -1.000000000000000e+00
3245 2390 -1.000000000000000e+00
3245 3120 -2.357022464275360e-01
3245 3189 -1.825741827487946e-01
3245 3245 3.916550338268280e+00
3246 16 -1.000000000000000e+00
3246 989 -1.000000000000000e+00
3246 1070 -2.041241526603699e-01
3246 1642 -1.000000000000000e+00
3246 3246 3.204124152660370e+00
3247 148 -1.000000000000000e+00
3247 1316 -1.000000000000000e+00
3247 1584 -1.000000000000000e+00
3247 3247 4.000000000000000e+00
3248 289 -1.000000000000000e+00
3248 419 -1.000000000000000e+00
3248 1408 -1.000000000000000e+00
3248 3248 3.000000000000000e+00
3249 24 -1.000000000000000e+00
3249 80 -1.000000000000000e+00
3249 1870 -1.916629672050476e-01
3249 2962 -1.151185780763626e+00
3249 3249 3.342848747968674e+00
3250 7 -1.000000000000000e+00
3250 125 -8.512564748525620e-02
3250 790 -1.091287091374397e+00
3250 1001 -1.087038822472095e+00
3250 3250 3.263451561331749e+00
3251 5 -1.000000000000000e+00
3251 271 -2.500000298023224e-01
3251 325 -1.000000000000000e+00
3251 1399 -1.000000000000000e+00
3251 3251 3.250000029802322e+00
3252 218 -1.000000000000000e+00
3252 246 -1.000000000000000e+00
3252 1679 -1.000000000000000e+00
3252 3252 3.000000000000000e+00
3253 1 -1.000000000000000e+00
3253 325 -1.184805318713188e+00
3253 1780 -1.000000000000000e+00
3253 3253 3.184805318713188e+00
3254 150 -1.000000000000000e+00
3254 199 -1.000000000000000e+00
3254 1631 -1.000000000000000e+00
3254 3254 3.000000000000000e+00
3255 5 -1.000000000000000e+00
3255 1751 -1.000000000000000e+00
3255 2133 -1.000000000000000e+00
3255 3255 3.000000000000000e+00
3256 121 -1.000000000000000e+00
3256 423 -2.828427255153656e-01
3256 1774 -1.362738132476807e+00
3256 2258 -1.000000000000000e+00
3256 2838 -1.118033975362778e-01
3256 3256 3.757384255528450e+00
3257 664 -1.000000000000000e+00
3257 1412 -1.000000000000000e+00
3257 2054 -1.000000000000000e+00
3257 3257 3.000000000000000e+00
3258 5 -1.000000000000000e+00
3258 92 -1.000000000000000e+00
3258 1312 -1.000000000000000e+00
3258 3258 3.000000000000000e+00
3259 5 -1.000000000000000e+00
3259 346 -2.927699983119965e-01
3259 1295 -1.000000000000000e+00
3259 3204 -1.000000000000000e+00
3259 3259 4.916117250919342e+00
3260 2106 -1.000000000000000e+00
3260 2758 -1.000000000000000e+00
3260 2781 -1.000000000000000e+00
3260 3260 3.000000000000000e+00
3261 153 -1.000000000000000e+00
3261 174 -1.000000000000000e+00
3261 1474 -1.000000000000000e+00
3261 3261 3.000000000000000e+00
3262 1742 -1.000000000000000e+00
3262 2542 -1.000000000000000e+00
3262 3024 -1.000000000000000e+00
3262 3262 3.000000000000000e+00
3263 200 -1.000000000000000e+00
3263 1251 -1.000000000000000e+00
3263 1628 -1.000000000000000e+00
3263 3263 3.000000000000000e+00
3264 161 -1.000000000000000e+00
3264 1280 -1.000000000000000e+00
3264 1432 -3.162277638912201e-01
3264 1526 -1.000000000000000e+00
3264 1558 -3.162277638912201e-01
3264 3264 4.632455527782440e+00
3265 105 -1.000000000000000e+00
3265 1473 -1.000000000000000e+00
3265 3029 -1.000000000000000e+00
3265 3265 3.000000000000000e+00
3266 194 -1.000000000000000e+00
3266 399 -1.000000000000000e+00
3266 987 -1.000000000000000e+00
3266 2461 -9.128709137439728e-02
3266 3266 3.091287091374397e+00
3267 689 -1.000000000000000e+00
3267 983 -1.000000000000000e+00
3267 1667 -1.000000000000000e+00
3267 3267 3.000000000000000e+00
3268 38 -1.000000000000000e+00
3268 894 -1.581138819456100e-01
3268 2152 -1.000000000000000e+00
3268 2439 -1.000000000000000e+00
3268 3268 3.158113881945610e+00
3269 46 -1.000000000000000e+00
3269 81 -1.169030845165253e+00
3269 131 -1.000000000000000e+00
3269 353 -3.015113174915314e-01
3269 3269 3.470542162656784e+00
3270 781 -1.000000000000000e+00
3270 2042 -1.000000000000000e+00
3270 2955 -1.000000000000000e+00
3270 3270 4.090909086167812e+00
3271 922 -1.000000000000000e+00
3271 1342 -1.070710681378841e+00
3271 2939 -1.000000000000000e+00
3271 3271 3.070710681378841e+00
3272 1705 -1.000000000000000e+00
3272 2098 -1.000000000000000e+00
3272 3035 -1.000000000000000e+00
3272 3272 3.000000000000000e+00
3273 7 -1.000000000000000e+00
3273 10 -1.000000000000000e+00
3273 2541 -1.000000000000000e+00
3273 3273 3.000000000000000e+00
3274 6 -1.000000000000000e+00
3274 57 -1.000000000000000e+00
3274 1583 -1.000000000000000e+00
3274 1650 -1.132276952266693e-01
3274 3274 5.222336634993553e+00
3275 332 -1.000000000000000e+00
3275 390 -1.000000000000000e+00
3275 1496 -1.000000000000000e+00
3275 3275 4.000000000000000e+00
3276 36 -1.000000000000000e+00
3276 81 -1.000000000000000e+00
3276 1148 -1.000000000000000e+00
3276 3276 3.000000000000000e+00
3277 412 -1.000000000000000e+00
3277 1165 -1.000000000000000e+00
3277 3199 -1.000000000000000e+00
3277 3277 3.000000000000000e+00
3278 9 -1.000000000000000e+00
3278 45 -1.889822483062744e-01
3278 151 -1.000000000000000e+00
3278 926 -1.000000000000000e+00
3278 3278 5.188982248306274e+00
3279 885 -1.000000000000000e+00
3279 1021 -1.000000000000000e+00
3279 1673 -2.886751294136047e-01
3279 2920 -1.166666671633720e+00
3279 3279 4.622008472681046e+00
3280 385 -1.000000000000000e+00
3280 493 -1.000000000000000e+00
3280 1645 -1.000000000000000e+00
3280 3280 5.516397774219513e+00
3281 675 -1.000000000000000e+00
3281 766 -1.000000000000000e+00
3281 1138 -3.651483654975891e-01
3281 1157 -2.721655368804932e-01
3281 1611 -2.886751294136047e-01
3281 2139 -5.773502588272095e-01
3281 2162 -1.000000000000000e+00
3281 2589 -4.082483053207397e-01
3281 2783 -5.773502588272095e-01
3281 2816 -4.082483053207397e-01
3281 3281 6.282086342573166e+00
3282 169 -1.000000000000000e+00
3282 281 -1.000000000000000e+00
3282 1307 -1.000000000000000e+00
3282 3282 3.000000000000000e+00
3283 798 -1.000000000000000e+00
3283 1155 -1.000000000000000e+00
3283 1882 -5.883484482765198e-01
3283 2760 -1.000000000000000e+00
3283 2783 -3.333333432674408e-01
3283 3281 -3.849001824855804e-01
3283 3283 4.306581974029541e+00
3284 5 -1.000000000000000e+00
3284 429 -1.000000000000000e+00
3284 1223 -2.357022762298584e-01
3284 1654 -1.000000000000000e+00
3284 3284 4.235702276229858e+00
3285 57 -1.000000000000000e+00
3285 297 -1.000000000000000e+00
3285 1760 -1.000000000000000e+00
3285 3285 3.000000000000000e+00
3286 370 -1.000000000000000e+00
3286 1619 -1.000000000000000e+00
3286 1869 -1.000000000000000e+00
3286 3286 3.000000000000000e+00
3287 9 -1.000000000000000e+00
3287 90 -1.000000000000000e+00
3287 1797 -1.000000000000000e+00
3287 2008 -1.601281613111496e-01
3287 3287 4.160128161311150e+00
3288 4 -1.000000000000000e+00
3288 302 -1.000000000000000e+00
3288 1552 -1.000000000000000e+00
3288 3288 4.230940088629723e+00
3289 5 -1.000000000000000e+00
3289 10 -1.000000000000000e+00
3289 951 -1.000000000000000e+00
3289 3289 4.000000000000000e+00
3290 407 -1.000000000000000e+00
3290 566 -1.000000000000000e+00
3290 2102 -1.000000000000000e+00
3290 3290 4.000000000000000e+00
3291 7 -1.000000000000000e+00
3291 1984 -2.182178795337677e-01
3291 2052 -1.000000000000000e+00
3291 2942 -1.000000000000000e+00
3291 3291 3.218217879533768e+00
3292 98 -1.000000000000000e+00
3292 123 -4.020151197910309e-01
3292 184 -1.000000000000000e+00
3292 2945 -1.000000000000000e+00
3292 3292 5.703526467084885e+00
3293 30 -1.000000000000000e+00
3293 656 -4.082482755184174e-01
3293 673 -1.000000000000000e+00
3293 833 -2.357022762298584e-01
3293 1506 -3.779644966125488e-01
3293 1562 -2.425356358289719e-01
3293 1931 -1.000000000000000e+00
3293 2200 -5.000000000000000e-01
3293 3293 5.211664274334908e+00
3294 1958 -1.000000000000000e+00
3294 2059 -1.000000000000000e+00
3294 3287 -1.000000000000000e+00
3294 3294 3.204124152660370e+00
3295 1 -1.000000000000000e+00
3295 171 -1.000000000000000e+00
3295 971 -1.000000000000000e+00
3295 3295 3.129099443554878e+00
3296 6 -1.000000000000000e+00
3296 19 -1.000000000000000e+00
3296 2530 -1.000000000000000e+00
3296 3296 3.000000000000000e+00
3297 1 -1.000000000000000e+00
3297 1057 -1.000000000000000e+00
3297 2431 -1.000000000000000e+00
3297 3297 3.000000000000000e+00
3298 57 -1.000000000000000e+00
3298 207 -1.000000014901161e-01
3298 1213 -1.000000000000000e+00
3298 1248 -1.000000000000000e+00
3298 3298 5.100000001490116e+00
3299 13 -1.000000000000000e+00
3299 844 -1.160128161311150e+00
3299 1049 -1.000000000000000e+00
3299 3294 -2.041241526603699e-01
3299 3299 3.364252313971519e+00
3300 600 -1.000000000000000e+00
3300 1211 -1.000000000000000e+00
3300 1659 -1.000000000000000e+00
3300 2073 -1.666666716337204e-01
3300 3300 4.574914976954460e+00
3301 7 -1.000000000000000e+00
3301 204 -1.136082753539085e+00
3301 820 -7.580979913473129e-02
3301 2700 -1.000000000000000e+00
3301 3301 3.211892552673817e+00
3302 101 -1.000000000000000e+00
3302 259 -9.534625709056854e-02
3302 1145 -1.000000000000000e+00
3302 2695 -1.000000000000000e+00
3302 3302 4.095346257090569e+00
3303 42 -1.000000000000000e+00
3303 571 -1.000000000000000e+00
3303 1074 -1.000000000000000e+00
3303 3303 4.000000000000000e+00
3304 203 -1.134839966893196e+00
3304 609 -1.000000000000000e+00
3304 1518 -1.000000000000000e+00
3304 3304 5.134839966893196e+00
3305 137 -1.000000000000000e+00
3305 1345 -1.000000000000000e+00
3305 2701 -1.000000000000000e+00
3305 3305 3.000000000000000e+00
3306 931 -1.000000000000000e+00
3306 1576 -1.000000000000000e+00
3306 3093 -1.000000000000000e+00
3306 3306 4.000000000000000e+00
3307 962 -1.000000000000000e+00
3307 1057 -1.000000000000000e+00
3307 2792 -1.000000000000000e+00
3307 3307 4.000000000000000e+00
3308 116 -1.000000000000000e+00
3308 231 -1.000000000000000e+00
3308 360 -1.000000000000000e+00
3308 3308 5.000000000000000e+00
3309 5 -1.000000000000000e+00
3309 699 -1.000000000000000e+00
3309 1421 -1.000000000000000e+00
3309 3309 3.000000000000000e+00
3310 1103 -1.000000000000000e+00
3310 1248 -1.000000000000000e+00
3310 2860 -1.000000000000000e+00
3310 3310 3.000000000000000e+00
3311 11 -1.000000000000000e+00
3311 95 -1.000000000000000e+00
3311 404 -2.041241377592087e-01
3311 644 -1.980295032262802e-01
3311 1051 -1.000000000000000e+00
3311 3311 3.402153640985489e+00
3312 484 -1.000000000000000e+00
3312 2914 -1.000000000000000e+00
3312 3062 -1.000000000000000e+00
3312 3312 4.000000000000000e+00
3313 14 -1.000000000000000e+00
3313 1889 -1.000000000000000e+00
3313 2336 -1.000000000000000e+00
3313 3313 4.000000000000000e+00
3314 52 -1.000000000000000e+00
3314 92 -1.000000000000000e+00
3314 1461 -1.000000000000000e+00
3314 3314 4.000000000000000e+00
3315 668 -1.000000000000000e+00
3315 1425 -1.000000000000000e+00
3315 1500 -1.000000000000000e+00
3315 3315 3.000000000000000e+00
3316 271 -1.000000000000000e+00
3316 1854 -1.000000000000000e+00
3316 2834 -1.000000000000000e+00
3316 3316 3.000000000000000e+00
3317 71 -1.000000000000000e+00
3317 369 -1.000000000000000e+00
3317 2828 -1.113227695226669e+00
3317 3317 4.317351832985878e+00
3318 6 -1.000000000000000e+00
3318 798 -1.000000000000000e+00
3318 1521 -1.000000000000000e+00
3318 1642 -2.500000298023224e-01
3318 3318 4.250000029802322e+00
3319 27 -1.000000000000000e+00
3319 1080 -1.000000000000000e+00
3319 2911 -1.000000000000000e+00
3319 3319 4.000000000000000e+00
3320 6 -1.000000000000000e+00
3320 41 -1.000000000000000e+00
3320 116 -1.000000000000000e+00
3320 692 -2.606430053710938e-01
3320 1878 -3.402069211006165e-01
3320 3320 3.600849926471710e+00
3321 450 -1.000000000000000e+00
3321 1066 -1.000000000000000e+00
3321 1831 -1.000000000000000e+00
3321 3321 4.223606795072556e+00
3322 142 -1.000000000000000e+00
3322 488 -1.000000000000000e+00
3322 3126 -1.000000000000000e+00
3322 3322 3.000000000000000e+00
3323 259 -1.000000000000000e+00
3323 410 -1.000000000000000e+00
3323 2318 -1.000000000000000e+00
3323 2634 -1.825741827487946e-01
3323 3323 5.182574182748795e+00
3324 348 -1.000000000000000e+00
3324 811 -1.000000000000000e+00
3324 863 -1.000000000000000e+00
3324 3324 4.000000000000000e+00
3325 29 -1.000000000000000e+00
3325 122 -1.000000000000000e+00
3325 123 -1.000000000000000e+00
3325 3325 3.000000000000000e+00
3326 42 -1.242535635828972e+00
3326 281 -1.000000000000000e+00
3326 445 -1.000000000000000e+00
3326 3326 3.242535635828972e+00
3327 7 -1.000000000000000e+00
3327 985 -1.000000000000000e+00
3327 1829 -1.000000000000000e+00
3327 3327 3.000000000000000e+00
3328 592 -1.000000000000000e+00
3328 1353 -1.084515422582626e+00
3328 1371 -1.000000000000000e+00
3328 3328 3.084515422582626e+00
3329 123 -1.000000000000000e+00
3329 305 -1.000000000000000e+00
3329 1305 -1.000000000000000e+00
3329 3329 3.000000000000000e+00
3330 284 -1.000000000000000e+00
3330 1728 -1.000000000000000e+00
3330 1825 -1.258198887109756e+00
3330 2119 -7.784989476203918e-02
3330 3330 3.336048781871796e+00
3331 47 -1.000000000000000e+00
3331 1066 -1.825741827487946e-01
3331 1296 -1.158113881945610e+00
3331 3280 -1.258198887109756e+00
3331 3321 -2.236067950725555e-01
3331 3331 4.022493749856949e+00
3332 97 -1.000000000000000e+00
3332 293 -1.360827535390854e-01
3332 1737 -1.622214168310165e-01
3332 2398 -1.000000000000000e+00
3332 2399 -1.000000000000000e+00
3332 3332 3.298304170370102e+00
3333 1 -1.000000000000000e+00
3333 685 -1.000000000000000e+00
3333 3165 -1.000000000000000e+00
3333 3333 3.000000000000000e+00
3334 7 -1.000000000000000e+00
3334 179 -1.000000000000000e+00
3334 367 -1.000000000000000e+00
3334 3334 3.000000000000000e+00
3335 305 -1.000000000000000e+00
3335 700 -1.000000000000000e+00
3335 1714 -1.000000000000000e+00
3335 3335 3.000000000000000e+00
3336 11 -1.000000000000000e+00
3336 16 -1.000000000000000e+00
3336 342 -1.000000000000000e+00
3336 2287 -1.709408611059189e-01
3336 3336 3.170940861105919e+00
3337 7 -1.000000000000000e+00
3337 1511 -1.000000000000000e+00
3337 2319 -1.000000000000000e+00
3337 3337 3.000000000000000e+00
3338 145 -1.000000000000000e+00
3338 308 -1.000000000000000e+00
3338 442 -1.000000000000000e+00
3338 3338 3.000000000000000e+00
3339 28 -1.000000000000000e+00
3339 219 -1.000000000000000e+00
3339 1614 -1.000000000000000e+00
3339 3339 5.000000000000000e+00
3340 16 -1.000000000000000e+00
3340 21 -8.838834613561630e-02
3340 141 -2.500000000000000e-01
3340 315 -1.000000000000000e+00
3340 2005 -9.805806726217270e-02
3340 2087 -1.443375647068024e-01
3340 2197 -1.000000000000000e+00
3340 3340 3.580783978104591e+00
3341 61 -1.000000000000000e+00
3341 151 -1.000000000000000e+00
3341 1004 -1.000000000000000e+00
3341 1436 -2.199706733226776e-01
3341 3341 3.219970673322678e+00
3342 99 -1.000000000000000e+00
3342 420 -1.000000000000000e+00
3342 2100 -1.134231194853783e+00
3342 3342 3.134231194853783e+00
3343 241 -8.304548263549805e-02
3343 353 -1.000000000000000e+00
3343 1858 -1.000000000000000e+00
3343 1929 -1.097590006887913e+00
3343 3343 4.180635489523411e+00
3344 145 -1.000000000000000e+00
3344 2483 -1.000000000000000e+00
3344 2828 -1.000000000000000e+00
3344 3317 -2.041241377592087e-01
3344 3344 3.204124137759209e+00
3345 606 -1.000000000000000e+00
3345 1031 -1.000000000000000e+00
3345 1064 -1.000000000000000e+00
3345 3345 3.000000000000000e+00
3346 57 -1.000000000000000e+00
3346 564 -1.000000000000000e+00
3346 593 -1.000000000000000e+00
3346 3346 3.000000000000000e+00
3347 199 -1.000000000000000e+00
3347 372 -1.000000000000000e+00
3347 3241 -1.000000000000000e+00
3347 3347 3.000000000000000e+00
3348 547 -1.000000000000000e+00
3348 1058 -1.000000000000000e+00
3348 1522 -2.135042101144791e-01
3348 3134 -1.000000000000000e+00
3348 3348 3.213504210114479e+00
3349 995 -6.711559742689133e-02
3349 1403 -1.000000000000000e+00
3349 1932 -1.000000000000000e+00
3349 1944 -1.227429404854774e+00
3349 3349 4.294545002281666e+00
3350 350 -1.000000000000000e+00
3350 1251 -1.000000000000000e+00
3350 2242 -1.000000000000000e+00
3350 3350 3.000000000000000e+00
3351 340 -1.000000000000000e+00
3351 755 -1.000000000000000e+00
3351 1331 -1.000000000000000e+00
3351 3351 4.000000000000000e+00
3352 20 -1.000000000000000e+00
3352 23 -1.000000000000000e+00
3352 244 -1.000000000000000e+00
3352 3352 3.000000000000000e+00
3353 8 -1.000000000000000e+00
3353 50 -1.000000000000000e+00
3353 150 -1.000000000000000e+00
3353 1226 -4.008918404579163e-01
3353 1691 -3.162277638912201e-01
3353 2668 -3.638034462928772e-01
3353 3353 4.080923050642014e+00
3354 765 -1.000000000000000e+00
3354 1703 -1.000000000000000e+00
3354 1957 -1.000000000000000e+00
3354 2718 -2.236067950725555e-01
3354 3354 3.223606795072556e+00
3355 11 -1.000000000000000e+00
3355 822 -1.000000000000000e+00
3355 3191 -1.000000000000000e+00
3355 3355 3.000000000000000e+00
3356 67 -1.000000000000000e+00
3356 1370 -5.954913049936295e-02
3356 1549 -1.000000000000000e+00
3356 1689 -1.000000000000000e+00
3356 3356 3.059549130499363e+00
3357 1593 -1.000000000000000e+00
3357 1876 -1.000000000000000e+00
3357 2094 -1.581138819456100e-01
3357 3298 -1.000000000000000e+00
3357 3357 3.158113881945610e+00
3358 26 -1.000000000000000e+00
3358 51 -1.000000000000000e+00
3358 2603 -1.000000000000000e+00
3358 3358 3.000000000000000e+00
3359 57 -1.000000000000000e+00
3359 793 -1.131876096129417e+00
3359 3206 -1.149071186780930e+00
3359 3359 3.280947282910347e+00
3360 209 -1.000000000000000e+00
3360 244 -1.158113881945610e+00
3360 2278 -1.000000000000000e+00
3360 3360 3.158113881945610e+00
3361 171 -1.000000000000000e+00
3361 431 -3.872983157634735e-01
3361 971 -6.250000000000000e-02
3361 1881 -1.000000000000000e+00
3361 2179 -1.000000000000000e+00
3361 3295 -1.290994435548782e-01
3361 3361 3.578897759318352e+00
3362 186 -1.000000000000000e+00
3362 263 -2.182179093360901e-01
3362 621 -1.000000000000000e+00
3362 788 -1.000000000000000e+00
3362 3362 3.218217909336090e+00
3363 377 -1.000000000000000e+00
3363 600 -1.000000000000000e+00
3363 602 -1.000000000000000e+00
3363 3363 3.000000000000000e+00
3364 1536 -1.132277101278305e-01
3364 1673 -1.164957225322723e+00
3364 2556 -1.000000000000000e+00
3364 3279 -1.166666671633720e+00
3364 3364 3.444851607084274e+00
3365 370 -1.000000000000000e+00
3365 3095 -1.000000000000000e+00
3365 3162 -1.000000000000000e+00
3365 3365 4.000000000000000e+00
3366 400 -1.000000000000000e+00
3366 1418 -1.000000000000000e+00
3366 2290 -1.000000000000000e+00
3366 3366 4.182574182748795e+00
3367 7 -1.000000000000000e+00
3367 576 -1.000000000000000e+00
3367 1470 -1.889822483062744e-01
3367 1708 -1.042572036385536e-01
3367 1798 -1.000000000000000e+00
3367 3367 3.293239451944828e+00
3368 209 -1.000000000000000e+00
3368 416 -1.000000000000000e+00
3368 432 -1.000000000000000e+00
3368 3368 3.000000000000000e+00
3369 21 -1.000000000000000e+00
3369 157 -1.000000000000000e+00
3369 330 -1.000000000000000e+00
3369 3369 4.000000000000000e+00
3370 10 -1.000000000000000e+00
3370 1261 -1.000000000000000e+00
3370 2551 -1.000000000000000e+00
3370 3370 4.000000000000000e+00
3371 557 -1.000000000000000e+00
3371 1814 -1.084515430033207e+00
3371 2629 -1.000000000000000e+00
3371 3371 3.084515430033207e+00
3372 10 -1.000000000000000e+00
3372 343 -1.000000000000000e+00
3372 2056 -1.000000000000000e+00
3372 3372 3.000000000000000e+00
3373 8 -1.000000000000000e+00
3373 40 -1.182574182748795e+00
3373 119 -1.000000000000000e+00
3373 3373 3.182574182748795e+00
3374 10 -1.000000000000000e+00
3374 17 -2.738612592220306e-01
3374 62 -2.236067950725555e-01
3374 406 -1.000000000000000e+00
3374 758 -3.333333432674408e-01
3374 853 -2.500000000000000e-01
3374 1044 -2.182178795337677e-01
3374 1958 -1.000000000000000e+00
3374 2147 -3.713906705379486e-01
3374 3374 5.023963332176208e+00
3375 167 -1.000000000000000e+00
3375 441 -1.000000000000000e+00
3375 983 -1.000000000000000e+00
3375 3375 3.000000000000000e+00
3376 37 -1.000000000000000e+00
3376 781 -1.000000000000000e+00
3376 1419 -1.132277101278305e-01
3376 1590 -1.000000000000000e+00
3376 3376 4.113227710127831e+00
3377 1065 -1.000000000000000e+00
3377 1969 -1.000000000000000e+00
3377 3202 -1.000000000000000e+00
3377 3377 5.000000000000000e+00
3378 1 -1.000000000000000e+00
3378 55 -1.000000000000000e+00
3378 243 -1.000000000000000e+00
3378 3378 3.000000000000000e+00
3379 33 -1.000000000000000e+00
3379 534 -1.000000000000000e+00
3379 1555 -1.000000000000000e+00
3379 3379 3.000000000000000e+00
3380 955 -1.000000000000000e+00
3380 1199 -1.000000000000000e+00
3380 1434 -1.000000000000000e+00
3380 3380 3.000000000000000e+00
3381 442 -1.000000000000000e+00
3381 1859 -1.000000000000000e+00
3381 2159 -1.000000000000000e+00
3381 3381 3.000000000000000e+00
3382 6 -1.000000000000000e+00
3382 48 -1.000000000000000e+00
3382 52 -1.000000000000000e+00
3382 3382 3.000000000000000e+00
3383 556 -1.000000000000000e+00
3383 664 -2.672612369060516e-01
3383 965 -1.000000000000000e+00
3383 1433 -1.000000000000000e+00
3383 3383 3.267261236906052e+00
3384 118 -1.000000000000000e+00
3384 309 -1.313064396381378e-01
3384 496 -1.000000000000000e+00
3384 753 -1.000000000000000e+00
3384 2057 -2.080125808715820e-01
3384 3384 5.339319020509720e+00
3385 132 -1.000000000000000e+00
3385 732 -1.000000000000000e+00
3385 908 -4.472135901451111e-01
3385 1115 -1.000000000000000e+00
3385 3385 3.447213590145111e+00
3386 49 -1.000000000000000e+00
3386 1315 -1.000000000000000e+00
3386 1464 -1.000000000000000e+00
3386 3386 3.000000000000000e+00
3387 939 -1.000000000000000e+00
3387 2022 -1.000000000000000e+00
3387 2037 -1.000000000000000e+00
3387 3387 3.000000000000000e+00
3388 218 -1.000000000000000e+00
3388 2372 -1.000000000000000e+00
3388 2881 -1.000000000000000e+00
3388 3388 4.000000000000000e+00
3389 114 -1.246182978153229e+00
3389 164 -1.000000000000000e+00
3389 792 -1.000000000000000e+00
3389 3389 3.246182978153229e+00
3390 342 -2.357022762298584e-01
3390 568 -1.000000000000000e+00
3390 1039 -1.000000000000000e+00
3390 1050 -1.000000000000000e+00
3390 3390 3.235702276229858e+00
3391 1477 -1.000000000000000e+00
3391 1869 -1.000000000000000e+00
3391 2047 -1.000000000000000e+00
3391 3391 3.000000000000000e+00
3392 151 -1.000000000000000e+00
3392 1339 -1.000000000000000e+00
3392 2349 -1.000000000000000e+00
3392 2618 -1.543033570051193e-01
3392 3392 3.154303357005119e+00
3393 2 -1.000000000000000e+00
3393 416 -1.117851123213768e+00
3393 3211 -1.000000000000000e+00
3393 3393 3.117851123213768e+00
3394 111 -1.000000000000000e+00
3394 1036 -1.000000000000000e+00
3394 1610 -1.000000000000000e+00
3394 1912 -4.082483053207397e-01
3394 2082 -1.767766922712326e-01
3394 3394 3.585024997591972e+00
3395 607 -1.000000000000000e+00
3395 1353 -1.000000000000000e+00
3395 1793 -1.000000000000000e+00
3395 3395 3.408248305320740e+00
3396 294 -1.000000000000000e+00
3396 694 -1.000000000000000e+00
3396 1533 -1.000000000000000e+00
3396 3396 3.000000000000000e+00
3397 2674 -1.000000000000000e+00
3397 2779 -1.000000000000000e+00
3397 3193 -1.000000000000000e+00
3397 3397 3.000000000000000e+00
3398 448 -1.000000000000000e+00
3398 1146 -1.000000000000000e+00
3398 2104 -1.000000000000000e+00
3398 3398 3.000000000000000e+00
3399 186 -1.000000000000000e+00
3399 357 -1.000000000000000e+00
3399 829 -1.000000000000000e+00
3399 3399 3.000000000000000e+00
3400 2123 -1.000000000000000e+00
3400 2781 -1.000000000000000e+00
3400 2784 -1.000000000000000e+00
3400 3400 3.000000000000000e+00
3401 2047 -1.000000000000000e+00
3401 2726 -1.000000000000000e+00
3401 2837 -1.000000000000000e+00
3401 3401 3.000000000000000e+00
3402 981 -1.000000000000000e+00
3402 1761 -1.000000000000000e+00
3402 2539 -1.000000000000000e+00
3402 3402 4.380900844931602e+00
3403 686 -1.000000000000000e+00
3403 2045 -1.000000000000000e+00
3403 2873 -1.000000000000000e+00
3403 3403 3.000000000000000e+00
3404 280 -1.000000000000000e+00
3404 546 -1.000000000000000e+00
3404 824 -1.000000000000000e+00
3404 3404 3.000000000000000e+00
3405 1650 -1.000000000000000e+00
3405 2193 -1.000000000000000e+00
3405 3092 -1.235702246427536e+00
3405 3405 3.235702246427536e+00
3406 203 -1.000000000000000e+00
3406 1135 -1.000000000000000e+00
3406 1202 -1.000000000000000e+00
3406 3406 3.000000000000000e+00
3407 1112 -1.000000000000000e+00
3407 1131 -1.353553384542465e+00
3407 2472 -1.000000000000000e+00
3407 3407 3.353553384542465e+00
3408 9 -1.000000000000000e+00
3408 669 -1.000000000000000e+00
3408 1197 -1.000000000000000e+00
3408 3408 3.000000000000000e+00
3409 158 -1.000000000000000e+00
3409 1299 -1.000000000000000e+00
3409 1728 -1.000000000000000e+00
3409 3409 3.000000000000000e+00
3410 333 -1.000000000000000e+00
3410 491 -1.000000000000000e+00
3410 862 -1.000000000000000e+00
3410 3410 3.000000000000000e+00
3411 466 -1.000000000000000e+00
3411 737 -1.000000000000000e+00
3411 3010 -1.000000000000000e+00
3411 3411 3.000000000000000e+00
3412 168 -1.000000000000000e+00
3412 462 -1.000000000000000e+00
3412 2431 -1.000000000000000e+00
3412 3412 3.000000000000000e+00
3413 20 -1.000000000000000e+00
3413 193 -1.000000000000000e+00
3413 399 -1.000000000000000e+00
3413 3413 3.000000000000000e+00
3414 228 -1.000000000000000e+00
3414 2544 -1.000000000000000e+00
3414 3092 -1.000000000000000e+00
3414 3414 3.000000000000000e+00
3415 3 -1.000000000000000e+00
3415 294 -1.000000000000000e+00
3415 2801 -1.000000000000000e+00
3415 3415 4.000000000000000e+00
3416 287 -1.000000000000000e+00
3416 1546 -1.000000000000000e+00
3416 2467 -1.000000000000000e+00
3416 3416 3.000000000000000e+00
3417 498 -1.000000000000000e+00
3417 581 -1.068041384220123e+00
3417 1844 -1.000000000000000e+00
3417 3402 -1.767766922712326e-01
3417 3417 3.244818076491356e+00
3418 57 -1.000000000000000e+00
3418 91 -1.000000000000000e+00
3418 1502 -1.000000000000000e+00
3418 3418 3.000000000000000e+00
3419 67 -1.000000000000000e+00
3419 138 -1.000000000000000e+00
3419 984 -1.000000000000000e+00
3419 3419 3.000000000000000e+00
3420 574 -1.000000000000000e+00
3420 1280 -1.000000000000000e+00
3420 1454 -1.000000000000000e+00
3420 3420 3.000000000000000e+00
3421 96 -1.000000000000000e+00
3421 153 -1.000000000000000e+00
3421 803 -1.000000000000000e+00
3421 3028 -2.357022762298584e-01
3421 3421 3.235702276229858e+00
3422 152 -1.000000000000000e+00
3422 261 -1.000000000000000e+00
3422 2804 -1.000000000000000e+00
3422 3422 4.000000000000000e+00
3423 430 -1.000000000000000e+00
3423 1152 -1.000000000000000e+00
3423 1513 -1.077151678502560e+00
3423 3423 3.077151678502560e+00
3424 5 -1.000000000000000e+00
3424 9 -2.886751294136047e-01
3424 107 -3.333333432674408e-01
3424 180 -5.773502588272095e-01
3424 626 -3.333333432674408e-01
3424 651 -1.000000000000000e+00
3424 759 -2.041241377592087e-01
3424 949 -3.333333432674408e-01
3424 1088 -2.886751294136047e-01
3424 1157 -2.357022762298584e-01
3424 1225 -3.535533845424652e-01
3424 1247 -1.000000000000000e+00
3424 1485 -2.182178795337677e-01
3424 1611 -2.500000000000000e-01
3424 1659 -3.535533845424652e-01
3424 2035 -3.779644966125488e-01
3424 2381 -3.015113472938538e-01
3424 2432 -3.535533845424652e-01
3424 2648 -3.015113472938538e-01
3424 3424 8.104392185807228e+00
3425 10 -1.000000000000000e+00
3425 335 -1.000000000000000e+00
3425 393 -1.000000000000000e+00
3425 3425 3.000000000000000e+00
3426 1097 -1.000000000000000e+00
3426 1826 -1.000000000000000e+00
3426 2145 -1.000000000000000e+00
3426 3426 3.000000000000000e+00
3427 135 -1.000000000000000e+00
3427 348 -1.248069465160370e+00
3427 1077 -1.000000000000000e+00
3427 1187 -3.380617201328278e-01
3427 3427 3.586131185293198e+00
3428 114 -1.000000000000000e+00
3428 204 -1.000000000000000e+00
3428 1502 -1.000000000000000e+00
3428 3428 3.000000000000000e+00
3429 38 -1.000000000000000e+00
3429 756 -1.000000000000000e+00
3429 3302 -1.000000000000000e+00
3429 3429 3.000000000000000e+00
3430 50 -1.000000000000000e+00
3430 1171 -1.000000000000000e+00
3430 1639 -1.000000000000000e+00
3430 3430 4.000000000000000e+00
3431 5 -1.000000000000000e+00
3431 390 -1.000000000000000e+00
3431 578 -1.000000000000000e+00
3431 3431 3.000000000000000e+00
3432 68 -1.000000000000000e+00
3432 734 -1.000000000000000e+00
3432 2219 -1.000000000000000e+00
3432 3432 3.000000000000000e+00
3433 330 -1.000000000000000e+00
3433 2581 -1.000000000000000e+00
3433 2803 -1.000000000000000e+00
3433 2832 -2.357022464275360e-01
3433 3433 3.235702246427536e+00
3434 62 -1.000000000000000e+00
3434 1246 -1.000000000000000e+00
3434 2174 -1.000000000000000e+00
3434 3434 3.000000000000000e+00
3435 118 -1.000000000000000e+00
3435 203 -1.000000000000000e+00
3435 1014 -2.122979462146759e-01
3435 1818 -1.000000000000000e+00
3435 3435 3.212297946214676e+00
3436 1019 -1.000000000000000e+00
3436 1433 -1.000000000000000e+00
3436 3209 -1.000000000000000e+00
3436 3436 3.000000000000000e+00
3437 15 -1.000000000000000e+00
3437 2523 -1.000000000000000e+00
3437 2563 -1.000000000000000e+00
3437 3437 3.000000000000000e+00
3438 472 -1.000000000000000e+00
3438 1029 -1.000000000000000e+00
3438 1713 -1.000000000000000e+00
3438 3438 4.000000000000000e+00
3439 987 -1.000000000000000e+00
3439 1148 -1.000000000000000e+00
3439 2345 -1.000000000000000e+00
3439 3439 3.000000000000000e+00
3440 403 -1.000000000000000e+00
3440 2399 -1.000000000000000e+00
3440 3053 -1.000000000000000e+00
3440 3440 3.000000000000000e+00
3441 23 -1.000000000000000e+00
3441 762 -1.129099443554878e+00
3441 888 -1.000000000000000e+00
3441 3441 3.129099443554878e+00
3442 704 -1.000000000000000e+00
3442 1672 -1.000000000000000e+00
3442 3157 -1.000000000000000e+00
3442 3442 3.000000000000000e+00
3443 56 -1.000000000000000e+00
3443 1940 -1.000000000000000e+00
3443 2733 -1.000000000000000e+00
3443 3443 7.000000000000000e+00
3444 74 -1.000000000000000e+00
3444 695 -1.000000000000000e+00
3444 1859 -1.000000000000000e+00
3444 3444 3.000000000000000e+00
3445 1627 -1.000000000000000e+00
3445 2206 -1.000000000000000e+00
3445 2328 -1.000000000000000e+00
3445 3445 3.000000000000000e+00
3446 400 -1.000000000000000e+00
3446 1784 -1.000000000000000e+00
3446 3209 -1.000000000000000e+00
3446 3446 3.000000000000000e+00
3447 130 -1.000000000000000e+00
3447 179 -1.000000000000000e+00
3447 3103 -1.000000000000000e+00
3447 3447 3.000000000000000e+00
3448 444 -1.000000000000000e+00
3448 763 -1.000000000000000e+00
3448 1807 -1.000000000000000e+00
3448 3448 3.000000000000000e+00
3449 1 -1.000000000000000e+00
3449 90 -1.000000000000000e+00
3449 3443 -1.000000000000000e+00
3449 3449 4.000000000000000e+00
3450 1757 -1.000000000000000e+00
3450 2138 -1.000000000000000e+00
3450 3323 -1.000000000000000e+00
3450 3450 4.000000000000000e+00
3451 212 -1.000000000000000e+00
3451 1686 -1.174077659845352e+00
3451 2086 -1.000000000000000e+00
3451 3451 3.174077659845352e+00
3452 351 -1.000000000000000e+00
3452 1220 -1.000000000000000e+00
3452 1955 -1.000000000000000e+00
3452 3452 3.000000000000000e+00
3453 61 -1.000000000000000e+00
3453 1032 -1.000000000000000e+00
3453 1188 -2.132007181644440e-01
3453 2596 -1.000000000000000e+00
3453 3453 3.213200718164444e+00
3454 333 -1.000000000000000e+00
3454 1799 -1.000000000000000e+00
3454 2469 -1.000000000000000e+00
3454 3454 3.000000000000000e+00
3455 60 -1.000000000000000e+00
3455 61 -1.000000000000000e+00
3455 1667 -1.000000000000000e+00
3455 3455 3.000000000000000e+00
3456 573 -1.000000000000000e+00
3456 777 -1.000000000000000e+00
3456 3023 -1.000000000000000e+00
3456 3456 3.000000000000000e+00
3457 23 -1.182574182748795e+00
3457 844 -1.000000000000000e+00
3457 2208 -1.000000000000000e+00
3457 3457 3.182574182748795e+00
3458 150 -1.000000000000000e+00
3458 1023 -1.000000000000000e+00
3458 1090 -1.000000000000000e+00
3458 2362 -3.779644966125488e-01
3458 3458 3.377964496612549e+00
3459 378 -1.000000000000000e+00
3459 383 -1.000000000000000e+00
3459 1375 -1.000000000000000e+00
3459 3459 3.000000000000000e+00
3460 8 -1.000000000000000e+00
3460 1276 -1.000000000000000e+00
3460 1593 -1.000000000000000e+00
3460 3460 3.000000000000000e+00
3461 324 -1.000000000000000e+00
3461 1273 -1.000000000000000e+00
3461 2867 -1.000000000000000e+00
3461 3461 4.000000000000000e+00
3462 317 -1.000000000000000e+00
3462 974 -1.000000000000000e+00
3462 2835 -1.000000000000000e+00
3462 3462 4.000000000000000e+00
3463 11 -1.000000000000000e+00
3463 670 -1.000000000000000e+00
3463 1788 -1.000000000000000e+00
3463 3463 3.000000000000000e+00
3464 861 -1.000000000000000e+00
3464 2139 -1.000000000000000e+00
3464 2247 -1.000000000000000e+00
3464 3464 3.000000000000000e+00
3465 30 -1.084652319550514e-01
3465 461 -1.000000000000000e+00
3465 608 -1.000000000000000e+00
3465 1858 -1.581138819456100e-01
3465 1983 -1.025978326797485e-01
3465 2933 -1.000000000000000e+00
3465 3465 3.369176946580410e+00
3466 233 -1.000000000000000e+00
3466 379 -1.000000000000000e+00
3466 2615 -1.000000000000000e+00
3466 3466 3.000000000000000e+00
3467 230 -1.000000000000000e+00
3467 713 -1.000000000000000e+00
3467 770 -1.690308451652527e-01
3467 1131 -1.000000000000000e+00
3467 3467 3.169030845165253e+00
3468 254 -1.000000000000000e+00
3468 749 -1.000000000000000e+00
3468 1695 -1.000000000000000e+00
3468 3468 3.000000000000000e+00
3469 33 -1.000000000000000e+00
3469 2596 -1.000000000000000e+00
3469 2700 -1.000000000000000e+00
3469 3469 3.000000000000000e+00
3470 71 -1.000000000000000e+00
3470 1698 -1.000000000000000e+00
3470 3144 -1.000000000000000e+00
3470 3470 4.000000000000000e+00
3471 1058 -1.000000000000000e+00
3471 1112 -1.000000000000000e+00
3471 2510 -1.000000000000000e+00
3471 3471 4.000000000000000e+00
3472 44 -1.000000000000000e+00
3472 982 -1.000000000000000e+00
3472 1105 -1.000000000000000e+00
3472 3472 3.000000000000000e+00
3473 6 -1.000000000000000e+00
3473 200 -1.000000000000000e+00
3473 627 -1.000000000000000e+00
3473 1535 -1.740776598453522e-01
3473 1726 -2.357022464275360e-01
3473 2622 -3.333333432674408e-01
3473 2817 -2.357022464275360e-01
3473 2906 -3.061862289905548e-01
3473 3473 5.618335068225861e+00
3474 274 -1.000000000000000e+00
3474 962 -1.000000000000000e+00
3474 1230 -1.000000000000000e+00
3474 3474 3.000000000000000e+00
3475 1450 -1.000000000000000e+00
3475 2875 -1.105409249663353e+00
3475 3112 -1.000000000000000e+00
3475 3475 3.272075906395912e+00
3476 17 -1.000000000000000e+00
3476 482 -1.000000000000000e+00
3476 2530 -1.000000000000000e+00
3476 3476 3.000000000000000e+00
3477 78 -1.000000000000000e+00
3477 350 -1.000000000000000e+00
3477 501 -1.000000000000000e+00
3477 3477 3.000000000000000e+00
3478 1096 -1.000000000000000e+00
3478 1403 -1.000000000000000e+00
3478 1897 -1.000000000000000e+00
3478 2266 -1.178511381149292e-01
3478 3478 3.117851138114929e+00
3479 1076 -1.000000000000000e+00
3479 2139 -1.000000000000000e+00
3479 3351 -1.000000000000000e+00
3479 3479 5.149071186780930e+00
3480 22 -1.000000000000000e+00
3480 1110 -2.465984672307968e-01
3480 1364 -1.000000000000000e+00
3480 1882 -2.941741943359375e-01
3480 2270 -1.000000000000000e+00
3480 3480 5.040772661566734e+00
3481 984 -1.000000000000000e+00
3481 2363 -1.000000000000000e+00
3481 3377 -1.000000000000000e+00
3481 3481 3.000000000000000e+00
3482 198 -1.192006140947342e+00
3482 709 -9.759000688791275e-02
3482 1005 -1.000000000000000e+00
3482 2104 -1.000000000000000e+00
3482 3482 3.289596147835255e+00
3483 440 -1.000000000000000e+00
3483 525 -1.000000000000000e+00
3483 1815 -1.000000000000000e+00
3483 3483 3.000000000000000e+00
3484 200 -1.000000000000000e+00
3484 713 -1.000000000000000e+00
3484 866 -1.000000000000000e+00
3484 3484 3.000000000000000e+00
3485 62 -1.000000000000000e+00
3485 190 -1.000000000000000e+00
3485 2940 -1.000000000000000e+00
3485 3485 3.000000000000000e+00
3486 368 -1.000000000000000e+00
3486 1190 -1.000000000000000e+00
3486 1257 -1.000000000000000e+00
3486 3486 3.000000000000000e+00
3487 1 -1.000000000000000e+00
3487 26 -1.000000000000000e+00
3487 129 -1.000000000000000e+00
3487 3020 -2.041241377592087e-01
3487 3487 3.204124137759209e+00
3488 369 -1.000000000000000e+00
3488 421 -1.000000000000000e+00
3488 1223 -3.162277638912201e-01
3488 2017 -1.000000000000000e+00
3488 3488 4.316227763891220e+00
3489 469 -1.000000000000000e+00
3489 578 -1.000000000000000e+00
3489 2758 -1.000000000000000e+00
3489 3489 3.000000000000000e+00
3490 48 -1.000000000000000e+00
3490 1630 -2.581988871097565e-01
3490 2243 -1.000000000000000e+00
3490 2466 -1.000000000000000e+00
3490 3490 3.258198887109756e+00
3491 1064 -1.000000000000000e+00
3491 1136 -1.000000000000000e+00
3491 2767 -1.000000000000000e+00
3491 3491 3.000000000000000e+00
3492 29 -1.000000000000000e+00
3492 149 -1.000000000000000e+00
3492 247 -1.000000000000000e+00
3492 3492 3.000000000000000e+00
3493 403 -1.000000000000000e+00
3493 2085 -1.000000000000000e+00
3493 2526 -1.000000000000000e+00
3493 3493 3.000000000000000e+00
3494 1065 -1.000000000000000e+00
3494 1880 -1.000000000000000e+00
3494 2184 -1.000000000000000e+00
3494 3494 4.000000000000000e+00
3495 19 -1.000000000000000e+00
3495 62 -1.000000000000000e+00
3495 1341 -1.000000000000000e+00
3495 3495 3.000000000000000e+00
3496 96 -1.000000000000000e+00
3496 114 -1.000000000000000e+00
3496 1372 -1.258198887109756e+00
3496 3496 3.258198887109756e+00
3497 1056 -1.000000000000000e+00
3497 1229 -1.000000000000000e+00
3497 2286 -1.000000000000000e+00
3497 3497 3.000000000000000e+00
3498 376 -1.000000000000000e+00
3498 454 -1.188982248306274e+00
3498 886 -2.041241377592087e-01
3498 2523 -1.000000000000000e+00
3498 3498 3.393106386065483e+00
3499 19 -1.000000000000000e+00
3499 189 -1.000000000000000e+00
3499 2394 -1.000000000000000e+00
3499 3499 3.000000000000000e+00
3500 8 -1.000000000000000e+00
3500 769 -1.000000000000000e+00
3500 1826 -1.070014007389545e+00
3500 3500 3.070014007389545e+00
3501 102 -1.000000000000000e+00
3501 156 -1.000000000000000e+00
3501 935 -1.195180013775826e+00
3501 3501 3.195180013775826e+00
3502 552 -1.000000000000000e+00
3502 971 -1.000000000000000e+00
3502 3318 -1.000000000000000e+00
3502 3502 3.000000000000000e+00
3503 7 -1.000000000000000e+00
3503 452 -1.000000000000000e+00
3503 2923 -1.000000000000000e+00
3503 3503 3.000000000000000e+00
3504 427 -1.000000000000000e+00
3504 923 -1.000000000000000e+00
3504 2138 -1.000000000000000e+00
3504 3504 5.000000000000000e+00
3505 7 -1.000000000000000e+00
3505 111 -1.000000000000000e+00
3505 707 -1.000000000000000e+00
3505 3505 3.000000000000000e+00
3506 975 -1.000000000000000e+00
3506 1788 -2.041241526603699e-01
3506 1959 -1.000000000000000e+00
3506 2410 -1.000000000000000e+00
3506 3506 4.204124152660370e+00
3507 4 -1.000000000000000e+00
3507 172 -1.000000000000000e+00
3507 200 -1.000000000000000e+00
3507 3288 -2.309400886297226e-01
3507 3507 3.230940088629723e+00
3508 264 -1.000000000000000e+00
3508 572 -1.000000000000000e+00
3508 1184 -1.108465231955051e+00
3508 3508 3.108465231955051e+00
3509 2859 -1.000000000000000e+00
3509 3470 -1.000000000000000e+00
3509 3504 -1.000000000000000e+00
3509 3509 4.000000000000000e+00
3510 40 -1.000000000000000e+00
3510 1211 -1.000000000000000e+00
3510 1687 -1.000000000000000e+00
3510 2847 -1.889822483062744e-01
3510 3510 4.188982248306274e+00
3511 26 -1.000000000000000e+00
3511 2428 -1.000000000000000e+00
3511 3270 -1.090909086167812e+00
3511 3511 3.090909086167812e+00
3512 7 -1.000000000000000e+00
3512 269 -1.000000000000000e+00
3512 367 -1.000000000000000e+00
3512 3512 4.000000000000000e+00
3513 98 -1.000000000000000e+00
3513 1105 -1.178174152970314e+00
3513 1367 -1.000000000000000e+00
3513 3513 3.178174152970314e+00
3514 17 -1.000000000000000e+00
3514 923 -1.000000000000000e+00
3514 1306 -1.000000000000000e+00
3514 3514 3.000000000000000e+00
3515 91 -1.000000000000000e+00
3515 156 -1.100000001490116e+00
3515 2306 -1.000000000000000e+00
3515 3515 3.100000001490116e+00
3516 30 -1.000000000000000e+00
3516 83 -1.000000000000000e+00
3516 1417 -1.000000000000000e+00
3516 2322 -1.212678179144859e-01
3516 3516 3.121267817914486e+00
3517 324 -1.000000000000000e+00
3517 531 -1.000000000000000e+00
3517 1208 -1.085125647485256e+00
3517 3517 3.085125647485256e+00
3518 11 -1.000000000000000e+00
3518 64 -2.357022464275360e-01
3518 239 -1.000000000000000e+00
3518 920 -1.000000000000000e+00
3518 1718 -3.849001824855804e-01
3518 3259 -3.651483654975891e-01
3518 3518 5.221453040838242e+00
3519 106 -1.000000000000000e+00
3519 570 -1.000000000000000e+00
3519 2802 -1.000000000000000e+00
3519 3519 3.000000000000000e+00
3520 2 -1.000000000000000e+00
3520 1790 -1.000000000000000e+00
3520 3073 -1.000000000000000e+00
3520 3520 3.000000000000000e+00
3521 348 -1.000000000000000e+00
3521 949 -1.000000000000000e+00
3521 3415 -1.000000000000000e+00
3521 3521 3.000000000000000e+00
3522 126 -1.000000000000000e+00
3522 993 -1.000000000000000e+00
3522 2161 -1.000000000000000e+00
3522 3522 3.000000000000000e+00
3523 350 -1.000000000000000e+00
3523 663 -1.000000000000000e+00
3523 2340 -1.000000000000000e+00
3523 3523 4.000000000000000e+00
3524 350 -1.000000000000000e+00
3524 1171 -1.000000000000000e+00
3524 1476 -1.224439591169357e+00
3524 3524 3.224439591169357e+00
3525 85 -1.000000000000000e+00
3525 292 -1.000000000000000e+00
3525 393 -1.000000000000000e+00
3525 3525 4.000000000000000e+00
3526 23 -1.000000000000000e+00
3526 116 -1.000000000000000e+00
3526 295 -1.129099443554878e+00
3526 2451 -2.041241377592087e-01
3526 3526 3.333223581314087e+00
3527 199 -1.000000000000000e+00
3527 1165 -1.000000000000000e+00
3527 2509 -1.000000000000000e+00
3527 2542 -2.182179093360901e-01
3527 3527 3.218217909336090e+00
3528 100 -1.000000000000000e+00
3528 364 -1.000000000000000e+00
3528 1524 -1.147754579782486e+00
3528 3528 3.147754579782486e+00
3529 243 -1.000000000000000e+00
3529 466 -1.000000000000000e+00
3529 1106 -1.000000000000000e+00
3529 3529 4.000000000000000e+00
3530 26 -1.000000000000000e+00
3530 371 -1.182574182748795e+00
3530 975 -1.509463787078857e-01
3530 1197 -1.000000000000000e+00
3530 2426 -1.414213627576828e-01
3530 3530 3.474941924214363e+00
3531 143 -1.000000000000000e+00
3531 1650 -1.000000000000000e+00
3531 3274 -1.109108939766884e+00
3531 3531 3.109108939766884e+00
3532 442 -1.000000000000000e+00
3532 1732 -1.000000000000000e+00
3532 1759 -1.543033570051193e-01
3532 3112 -1.000000000000000e+00
3532 3532 3.154303357005119e+00
3533 159 -1.000000000000000e+00
3533 673 -1.000000000000000e+00
3533 1379 -1.000000000000000e+00
3533 3533 3.000000000000000e+00
3534 192 -1.000000000000000e+00
3534 385 -1.074535593390465e+00
3534 439 -2.000000029802322e-01
3534 3443 -1.000000000000000e+00
3534 3534 3.274535596370697e+00
3535 393 -1.000000000000000e+00
3535 729 -1.000000000000000e+00
3535 1511 -1.144337564706802e+00
3535 1786 -4.082483053207397e-01
3535 2593 -2.672612369060516e-01
3535 3535 4.819847106933594e+00
3536 961 -1.000000000000000e+00
3536 1740 -1.000000000000000e+00
3536 3473 -1.000000000000000e+00
3536 3536 3.000000000000000e+00
3537 365 -2.222222387790680e-01
3537 372 -1.000000000000000e+00
3537 482 -1.222222238779068e+00
3537 1883 -1.000000000000000e+00
3537 3537 3.444444477558136e+00
3538 7 -1.000000000000000e+00
3538 82 -1.000000000000000e+00
3538 368 -2.371708154678345e-01
3538 1043 -2.760262191295624e-01
3538 1290 -2.696799337863922e-01
3538 1478 -2.666666805744171e-01
3538 1901 -3.077934980392456e-01
3538 2271 -3.721041977405548e-01
3538 2455 -1.000000000000000e+00
3538 3538 4.729441344738007e+00
3539 67 -1.000000000000000e+00
3539 552 -1.000000000000000e+00
3539 2794 -1.000000000000000e+00
3539 3539 3.000000000000000e+00
3540 7 -1.000000000000000e+00
3540 71 -1.000000000000000e+00
3540 784 -1.000000000000000e+00
3540 3540 4.000000000000000e+00
3541 23 -1.000000000000000e+00
3541 76 -1.000000000000000e+00
3541 119 -1.000000000000000e+00
3541 3137 -3.721041977405548e-01
3541 3541 4.372104197740555e+00
3542 10 -1.000000000000000e+00
3542 681 -1.000000000000000e+00
3542 1690 -1.000000000000000e+00
3542 3542 3.000000000000000e+00
3543 290 -1.000000000000000e+00
3543 418 -1.000000000000000e+00
3543 636 -1.000000000000000e+00
3543 3543 3.000000000000000e+00
3544 157 -1.000000000000000e+00
3544 437 -1.000000000000000e+00
3544 1816 -1.490712016820908e-01
3544 3388 -1.000000000000000e+00
3544 3544 3.149071201682091e+00
3545 38 -1.000000000000000e+00
3545 509 -1.000000000000000e+00
3545 2727 -1.000000000000000e+00
3545 3545 3.000000000000000e+00
3546 6 -1.000000000000000e+00
3546 231 -1.000000000000000e+00
3546 547 -3.162277638912201e-01
3546 1623 -1.000000000000000e+00
3546 3546 3.316227763891220e+00
3547 40 -1.000000000000000e+00
3547 1069 -1.000000000000000e+00
3547 1345 -1.077151678502560e+00
3547 2210 -6.900654733181000e-02
3547 3547 3.146158225834370e+00
3548 145 -1.000000000000000e+00
3548 1201 -1.000000000000000e+00
3548 2955 -1.083333343267441e+00
3548 3548 3.083333343267441e+00
3549 74 -1.000000000000000e+00
3549 173 -1.145095244050026e+00
3549 1519 -1.000000000000000e+00
3549 3549 3.145095244050026e+00
3550 5 -1.000000000000000e+00
3550 1522 -1.000000000000000e+00
3550 1609 -2.236067950725555e-01
3550 3518 -1.000000000000000e+00
3550 3550 3.223606795072556e+00
3551 35 -1.000000000000000e+00
3551 2269 -1.000000000000000e+00
3551 2848 -1.000000000000000e+00
3551 3551 3.000000000000000e+00
3552 8 -1.000000000000000e+00
3552 365 -1.000000000000000e+00
3552 636 -1.000000000000000e+00
3552 3552 4.000000000000000e+00
3553 5 -1.000000000000000e+00
3553 970 -2.132007181644440e-01
3553 1254 -1.000000000000000e+00
3553 1875 -1.000000000000000e+00
3553 3553 3.213200718164444e+00
3554 140 -1.000000000000000e+00
3554 1068 -1.000000000000000e+00
3554 1663 -1.000000000000000e+00
3554 3554 3.000000000000000e+00
3555 117 -1.000000000000000e+00
3555 1218 -1.000000000000000e+00
3555 1239 -1.000000000000000e+00
3555 3555 4.000000000000000e+00
3556 21 -1.000000000000000e+00
3556 2851 -1.000000000000000e+00
3556 3324 -1.000000000000000e+00
3556 3556 3.000000000000000e+00
3557 39 -1.000000000000000e+00
3557 461 -1.980295032262802e-01
3557 529 -3.086067140102386e-01
3557 633 -3.333333134651184e-01
3557 1343 -2.041241377592087e-01
3557 1760 -1.000000000000000e+00
3557 2058 -2.381965219974518e-01
3557 2419 -1.000000000000000e+00
3557 2600 -3.535533547401428e-01
3557 3557 4.635843545198441e+00
3558 26 -1.000000000000000e+00
3558 56 -1.000000000000000e+00
3558 356 -1.000000000000000e+00
3558 3558 4.000000000000000e+00
3559 148 -1.000000000000000e+00
3559 324 -1.000000000000000e+00
3559 591 -1.000000000000000e+00
3559 3559 3.000000000000000e+00
3560 288 -1.000000000000000e+00
3560 776 -1.000000000000000e+00
3560 964 -1.259881556034088e-01
3560 1695 -1.000000000000000e+00
3560 3560 5.125988155603409e+00
3561 11 -1.443375647068024e-01
3561 95 -1.360827684402466e-01
3561 212 -1.000000000000000e+00
3561 243 -1.000000000000000e+00
3561 346 -1.259881556034088e-01
3561 644 -1.400280147790909e-01
3561 682 -1.178511232137680e-01
3561 689 -1.174077659845352e+00
3561 1718 -1.360827684402466e-01
3561 2379 -1.400280147790909e-01
3561 2438 -1.091089546680450e-01
3561 3259 -2.581988871097565e-01
3561 3518 -2.357022464275360e-01
3561 3561 4.717486158013344e+00
3562 239 -1.000000000000000e+00
3562 952 -1.000000000000000e+00
3562 3240 -1.000000000000000e+00
3562 3562 3.000000000000000e+00
3563 98 -1.000000000000000e+00
3563 233 -1.000000000000000e+00
3563 1294 -1.000000000000000e+00
3563 3563 3.000000000000000e+00
3564 430 -1.000000000000000e+00
3564 2331 -1.000000000000000e+00
3564 2554 -1.000000000000000e+00
3564 3564 3.000000000000000e+00
3565 806 -1.182574182748795e+00
3565 900 -1.000000000000000e+00
3565 1082 -1.000000000000000e+00
3565 3565 3.182574182748795e+00
3566 322 -1.360827535390854e-01
3566 967 -1.000000000000000e+00
3566 1341 -1.000000000000000e+00
3566 2036 -9.365857392549515e-02
3566 2319 -1.000000000000000e+00
3566 3566 3.229741327464581e+00
3567 5 -1.000000000000000e+00
3567 136 -3.015113472938538e-01
3567 157 -2.425356358289719e-01
3567 195 -2.425356358289719e-01
3567 493 -2.581988871097565e-01
3567 1305 -3.162277638912201e-01
3567 1363 -1.000000000000000e+00
3567 1564 -2.357022762298584e-01
3567 2432 -3.535533845424652e-01
3567 3312 -1.000000000000000e+00
3567 3480 -5.000000000000000e-01
3567 3567 5.783598273992538e+00
3568 7 -1.000000000000000e+00
3568 11 -1.000000000000000e+00
3568 2355 -1.000000000000000e+00
3568 3568 4.000000000000000e+00
3569 1103 -1.000000000000000e+00
3569 1488 -1.000000000000000e+00
3569 2875 -1.000000000000000e+00
3569 3569 3.000000000000000e+00
3570 440 -1.000000000000000e+00
3570 1616 -3.333333432674408e-01
3570 1967 -1.000000000000000e+00
3570 2631 -1.000000000000000e+00
3570 2903 -1.796053051948547e-01
3570 3570 3.512938648462296e+00
3571 658 -1.000000000000000e+00
3571 1836 -1.961161345243454e-01
3571 2066 -1.000000000000000e+00
3571 2178 -1.127000123262405e+00
3571 2468 -2.886751294136047e-01
3571 3571 3.611791387200356e+00
3572 111 -1.000000000000000e+00
3572 2414 -1.000000000000000e+00
3572 2574 -1.000000000000000e+00
3572 3572 3.000000000000000e+00
3573 97 -1.000000000000000e+00
3573 1836 -1.000000000000000e+00
3573 2763 -1.000000000000000e+00
3573 3573 3.000000000000000e+00
3574 5 -1.000000000000000e+00
3574 132 -1.000000000000000e+00
3574 200 -1.000000000000000e+00
3574 3574 4.000000000000000e+00
3575 138 -1.000000000000000e+00
3575 458 -1.000000000000000e+00
3575 609 -1.185695335268974e+00
3575 3575 3.185695335268974e+00
3576 199 -1.072168782353401e+00
3576 1643 -1.000000000000000e+00
3576 2937 -1.000000000000000e+00
3576 3576 3.072168782353401e+00
3577 561 -1.450952440500259e-01
3577 630 -1.000000000000000e+00
3577 963 -1.000000000000000e+00
3577 2466 -1.000000000000000e+00
3577 3577 4.145095244050026e+00
3578 4 -1.000000000000000e+00
3578 26 -1.000000000000000e+00
3578 2081 -1.000000000000000e+00
3578 3055 -2.750095725059509e-01
3578 3578 4.463991820812225e+00
3579 103 -1.000000000000000e+00
3579 1220 -1.000000000000000e+00
3579 1550 -1.000000000000000e+00
3579 3579 3.000000000000000e+00
3580 1697 -1.000000000000000e+00
3580 2052 -1.000000000000000e+00
3580 3313 -1.000000000000000e+00
3580 3580 3.000000000000000e+00
3581 326 -1.000000000000000e+00
3581 396 -1.000000000000000e+00
3581 1823 -1.140028014779091e+00
3581 3581 3.140028014779091e+00
3582 85 -1.000000000000000e+00
3582 1072 -1.000000000000000e+00
3582 2566 -1.000000000000000e+00
3582 3582 3.000000000000000e+00
3583 26 -1.000000000000000e+00
3583 218 -1.000000000000000e+00
3583 1039 -1.000000000000000e+00
3583 3583 3.000000000000000e+00
3584 31 -1.000000000000000e+00
3584 50 -1.000000000000000e+00
3584 2047 -1.000000000000000e+00
3584 3584 3.000000000000000e+00
3585 740 -1.000000000000000e+00
3585 2274 -1.000000000000000e+00
3585 2687 -1.000000000000000e+00
3585 3585 4.000000000000000e+00
3586 23 -1.000000000000000e+00
3586 571 -1.000000000000000e+00
3586 2041 -1.000000000000000e+00
3586 3586 3.000000000000000e+00
3587 43 -1.000000000000000e+00
3587 2677 -1.000000000000000e+00
3587 3207 -2.886751294136047e-01
3587 3504 -1.000000000000000e+00
3587 3587 3.288675129413605e+00
3588 117 -1.000000000000000e+00
3588 2236 -1.000000000000000e+00
3588 3216 -1.000000000000000e+00
3588 3588 3.000000000000000e+00
3589 209 -1.000000000000000e+00
3589 683 -1.000000000000000e+00
3589 1063 -1.825741827487946e-01
3589 2105 -1.000000000000000e+00
3589 3589 3.182574182748795e+00
3590 890 -1.000000000000000e+00
3590 1064 -1.096225053071976e+00
3590 1378 -1.683587729930878e-01
3590 3092 -1.000000000000000e+00
3590 3590 3.264583826065063e+00
3591 282 -1.000000000000000e+00
3591 1907 -1.000000000000000e+00
3591 2386 -1.000000000000000e+00
3591 3186 -1.740776598453522e-01
3591 3591 3.174077659845352e+00
3592 324 -1.000000000000000e+00
3592 2001 -1.490712016820908e-01
3592 2672 -1.365148365497589e+00
3592 3471 -1.000000000000000e+00
3592 3592 3.514219567179680e+00
3593 4 -1.000000000000000e+00
3593 2014 -1.000000000000000e+00
3593 3558 -1.000000000000000e+00
3593 3593 5.000000000000000e+00
3594 151 -1.000000000000000e+00
3594 1351 -1.000000000000000e+00
3594 2319 -1.000000000000000e+00
3594 3594 3.000000000000000e+00
3595 7 -1.000000000000000e+00
3595 330 -1.000000000000000e+00
3595 1327 -1.000000000000000e+00
3595 2508 -2.906191051006317e-01
3595 2808 -1.767766922712326e-01
3595 3595 3.467395797371864e+00
3596 151 -1.000000000000000e+00
3596 1977 -1.000000000000000e+00
3596 3449 -1.000000000000000e+00
3596 3596 3.000000000000000e+00
3597 268 -1.000000000000000e+00
3597 811 -1.000000000000000e+00
3597 1524 -1.000000000000000e+00
3597 3597 3.000000000000000e+00
3598 808 -1.000000000000000e+00
3598 1248 -1.000000000000000e+00
3598 1871 -1.000000000000000e+00
3598 2026 -2.294157296419144e-01
3598 3598 3.229415729641914e+00
3599 118 -1.000000000000000e+00
3599 1392 -1.000000000000000e+00
3599 3292 -1.000000000000000e+00
3599 3599 3.000000000000000e+00
3600 30 -1.000000000000000e+00
3600 885 -1.000000000000000e+00
3600 3162 -1.000000000000000e+00
3600 3600 4.000000000000000e+00
3601 66 -1.000000000000000e+00
3601 350 -1.000000000000000e+00
3601 641 -1.000000000000000e+00
3601 3601 3.000000000000000e+00
3602 987 -1.000000000000000e+00
3602 1577 -1.000000000000000e+00
3602 2175 -1.000000000000000e+00
3602 3602 3.000000000000000e+00
3603 276 -1.000000000000000e+00
3603 442 -1.000000000000000e+00
3603 2835 -1.000000000000000e+00
3603 3603 4.000000000000000e+00
3604 649 -1.000000000000000e+00
3604 909 -1.000000000000000e+00
3604 2313 -1.000000000000000e+00
3604 3604 3.000000000000000e+00
3605 1218 -1.000000000000000e+00
3605 1654 -1.000000000000000e+00
3605 2915 -1.000000000000000e+00
3605 3605 3.000000000000000e+00
3606 885 -1.000000000000000e+00
3606 2094 -1.000000000000000e+00
3606 3204 -1.000000000000000e+00
3606 3606 3.000000000000000e+00
3607 239 -1.000000000000000e+00
3607 1685 -1.000000000000000e+00
3607 2251 -1.000000000000000e+00
3607 3607 3.000000000000000e+00
3608 286 -1.000000000000000e+00
3608 600 -1.000000000000000e+00
3608 1096 -1.000000000000000e+00
3608 3608 3.353553384542465e+00
3609 66 -1.000000000000000e+00
3609 236 -1.000000000000000e+00
3609 678 -9.622504562139511e-02
3609 1884 -1.000000000000000e+00
3609 3609 4.096225045621395e+00
3610 109 -1.000000000000000e+00
3610 287 -1.000000000000000e+00
3610 1686 -1.000000000000000e+00
3610 3610 4.000000000000000e+00
3611 24 -1.000000000000000e+00
3611 28 -1.000000000000000e+00
3611 923 -1.000000000000000e+00
3611 3611 3.000000000000000e+00
3612 12 -1.000000000000000e+00
3612 35 -1.000000000000000e+00
3612 48 -1.000000000000000e+00
3612 3612 3.000000000000000e+00
3613 2280 -1.000000000000000e+00
3613 2285 -1.000000000000000e+00
3613 2870 -1.000000000000000e+00
3613 3613 3.000000000000000e+00
3614 1155 -2.519763112068176e-01
3614 1578 -1.000000000000000e+00
3614 2357 -1.000000000000000e+00
3614 2769 -8.333333581686020e-02
3614 3578 -1.000000000000000e+00
3614 3614 4.335309647023678e+00
3615 98 -1.000000000000000e+00
3615 320 -1.000000000000000e+00
3615 935 -1.000000000000000e+00
3615 3615 3.000000000000000e+00
3616 737 -1.000000000000000e+00
3616 814 -1.000000000000000e+00
3616 1021 -1.000000000000000e+00
3616 3616 3.000000000000000e+00
3617 997 -1.000000000000000e+00
3617 2660 -1.000000000000000e+00
3617 2748 -1.000000000000000e+00
3617 3617 4.000000000000000e+00
3618 35 -1.000000000000000e+00
3618 201 -1.000000000000000e+00
3618 1414 -1.230914890766144e-01
3618 1973 -1.102062068879604e+00
3618 3618 3.225153557956219e+00
3619 950 -1.000000000000000e+00
3619 1017 -1.000000000000000e+00
3619 1164 -1.000000000000000e+00
3619 3619 3.000000000000000e+00
3620 35 -1.000000000000000e+00
3620 883 -1.767766922712326e-01
3620 1001 -1.000000000000000e+00
3620 1051 -1.000000000000000e+00
3620 3620 3.176776692271233e+00
3621 246 -1.000000000000000e+00
3621 2236 -1.000000000000000e+00
3621 2410 -1.000000000000000e+00
3621 3621 3.000000000000000e+00
3622 7 -1.000000000000000e+00
3622 135 -1.000000000000000e+00
3622 3092 -1.000000000000000e+00
3622 3622 5.000000000000000e+00
3623 439 -1.000000000000000e+00
3623 572 -1.000000000000000e+00
3623 3479 -1.000000000000000e+00
3623 3623 3.000000000000000e+00
3624 12 -1.000000000000000e+00
3624 1604 -1.000000000000000e+00
3624 2066 -1.000000000000000e+00
3624 3624 3.000000000000000e+00
3625 354 -1.000000000000000e+00
3625 684 -1.000000000000000e+00
3625 806 -1.000000000000000e+00
3625 3625 3.000000000000000e+00
3626 1 -1.000000000000000e+00
3626 1872 -1.000000000000000e+00
3626 2440 -1.000000000000000e+00
3626 3626 3.000000000000000e+00
3627 75 -1.000000000000000e+00
3627 2613 -1.000000000000000e+00
3627 2653 -1.000000000000000e+00
3627 3627 3.000000000000000e+00
3628 46 -1.000000000000000e+00
3628 55 -1.000000000000000e+00
3628 554 -1.000000000000000e+00
3628 3628 4.000000000000000e+00
3629 30 -1.000000000000000e+00
3629 412 -1.000000000000000e+00
3629 3184 -1.000000000000000e+00
3629 3629 3.000000000000000e+00
3630 232 -1.000000000000000e+00
3630 532 -1.000000000000000e+00
3630 1156 -1.000000000000000e+00
3630 3630 3.000000000000000e+00
3631 43 -1.000000000000000e+00
3631 2055 -1.000000000000000e+00
3631 2856 -1.000000000000000e+00
3631 3631 3.000000000000000e+00
3632 1057 -1.000000000000000e+00
3632 1289 -1.000000000000000e+00
3632 1455 -1.000000000000000e+00
3632 3632 3.000000000000000e+00
3633 1844 -1.000000000000000e+00
3633 1957 -1.000000000000000e+00
3633 2657 -1.000000000000000e+00
3633 3633 3.000000000000000e+00
3634 433 -1.000000000000000e+00
3634 2024 -1.000000000000000e+00
3634 3304 -1.000000000000000e+00
3634 3634 3.000000000000000e+00
3635 1725 -1.000000000000000e+00
3635 1877 -1.000000000000000e+00
3635 2028 -1.000000000000000e+00
3635 3635 3.000000000000000e+00
3636 798 -1.000000000000000e+00
3636 1312 -1.000000000000000e+00
3636 1976 -1.182574182748795e+00
3636 3636 3.182574182748795e+00
3637 316 -1.000000000000000e+00
3637 2070 -1.000000000000000e+00
3637 3339 -1.000000000000000e+00
3637 3637 4.000000000000000e+00
3638 48 -1.000000000000000e+00
3638 500 -1.000000000000000e+00
3638 1807 -1.000000000000000e+00
3638 3638 3.000000000000000e+00
3639 20 -1.084515422582626e+00
3639 808 -1.000000000000000e+00
3639 1528 -1.000000000000000e+00
3639 3639 3.084515422582626e+00
3640 7 -1.000000000000000e+00
3640 230 -1.000000000000000e+00
3640 2942 -1.000000000000000e+00
3640 3640 4.000000000000000e+00
3641 350 -1.000000000000000e+00
3641 1307 -1.000000000000000e+00
3641 2901 -1.000000000000000e+00
3641 3641 3.000000000000000e+00
3642 218 -1.000000000000000e+00
3642 306 -1.000000000000000e+00
3642 456 -1.000000000000000e+00
3642 3642 3.000000000000000e+00
3643 442 -1.000000000000000e+00
3643 1811 -1.000000000000000e+00
3643 2175 -1.000000000000000e+00
3643 3643 3.000000000000000e+00
3644 417 -1.000000000000000e+00
3644 1937 -2.357022464275360e-01
3644 1997 -1.204124152660370e+00
3644 3182 -1.616904139518738e-01
3644 3609 -1.000000000000000e+00
3644 3644 3.601516813039780e+00
3645 5 -1.000000000000000e+00
3645 760 -1.000000000000000e+00
3645 2369 -2.800560295581818e-01
3645 2783 -4.082482755184174e-01
3645 3488 -1.000000000000000e+00
3645 3645 4.159708797931671e+00
3646 94 -1.000000000000000e+00
3646 461 -1.000000000000000e+00
3646 1763 -1.000000000000000e+00
3646 3646 3.000000000000000e+00
3647 35 -1.000000000000000e+00
3647 253 -1.223606795072556e+00
3647 1781 -1.000000000000000e+00
3647 2015 -2.236067950725555e-01
3647 3647 3.447213590145111e+00
3648 1279 -1.000000000000000e+00
3648 2430 -1.144337564706802e+00
3648 3317 -1.000000000000000e+00
3648 3648 3.144337564706802e+00
3649 8 -1.000000000000000e+00
3649 1167 -1.000000000000000e+00
3649 1170 -9.534625709056854e-02
3649 2289 -1.118033975362778e-01
3649 3349 -1.000000000000000e+00
3649 3649 3.207149654626846e+00
3650 256 -1.000000000000000e+00
3650 1415 -1.000000000000000e+00
3650 2340 -1.073720976710320e+00
3650 3650 3.073720976710320e+00
3651 2 -1.000000000000000e+00
3651 552 -1.000000000000000e+00
3651 1392 -1.071066901087761e+00
3651 3651 3.071066901087761e+00
3652 1244 -1.894527077674866e-01
3652 1608 -1.194461107254028e+00
3652 2105 -1.000000000000000e+00
3652 3319 -1.000000000000000e+00
3652 3652 3.383913815021515e+00
3653 479 -1.000000000000000e+00
3653 785 -1.000000000000000e+00
3653 1289 -1.000000000000000e+00
3653 3653 3.000000000000000e+00
3654 46 -1.000000000000000e+00
3654 1631 -1.000000000000000e+00
3654 2759 -1.000000000000000e+00
3654 3654 3.000000000000000e+00
3655 11 -1.000000000000000e+00
3655 376 -1.000000000000000e+00
3655 479 -1.000000000000000e+00
3655 3655 3.000000000000000e+00
3656 1649 -1.000000000000000e+00
3656 1888 -1.000000000000000e+00
3656 3000 -1.000000000000000e+00
3656 3656 3.000000000000000e+00
3657 282 -1.000000000000000e+00
3657 635 -1.000000000000000e+00
3657 921 -1.000000000000000e+00
3657 3657 3.000000000000000e+00
3658 1173 -1.000000000000000e+00
3658 2956 -1.000000000000000e+00
3658 3622 -1.000000000000000e+00
3658 3658 3.000000000000000e+00
3659 420 -1.000000000000000e+00
3659 1159 -1.000000000000000e+00
3659 1319 -1.000000000000000e+00
3659 3659 3.000000000000000e+00
3660 7 -1.000000000000000e+00
3660 934 -1.000000000000000e+00
3660 2251 -1.000000000000000e+00
3660 3660 3.000000000000000e+00
3661 11 -1.000000000000000e+00
3661 121 -1.000000000000000e+00
3661 163 -1.000000000000000e+00
3661 3661 3.102062076330185e+00
3662 81 -1.000000000000000e+00
3662 214 -1.000000000000000e+00
3662 698 -1.000000000000000e+00
3662 3662 3.000000000000000e+00
3663 571 -1.000000000000000e+00
3663 895 -1.020620688796043e-01
3663 1207 -1.000000000000000e+00
3663 1410 -1.000000000000000e+00
3663 2132 -1.825741827487946e-01
3663 3663 3.413735695183277e+00
3664 270 -1.000000000000000e+00
3664 597 -1.000000000000000e+00
3664 3640 -1.000000000000000e+00
3664 3664 3.000000000000000e+00
3665 48 -1.000000000000000e+00
3665 464 -1.000000000000000e+00
3665 845 -1.000000000000000e+00
3665 3665 3.000000000000000e+00
3666 497 -1.000000000000000e+00
3666 2139 -1.000000000000000e+00
3666 2690 -1.000000000000000e+00
3666 3666 3.000000000000000e+00
3667 77 -1.000000000000000e+00
3667 1821 -1.000000000000000e+00
3667 3149 -1.000000000000000e+00
3667 3667 3.000000000000000e+00
3668 157 -1.000000000000000e+00
3668 271 -4.082483053207397e-01
3668 348 -1.000000000000000e+00
3668 3084 -3.202563226222992e-01
3668 3284 -1.000000000000000e+00
3668 3668 3.728504627943039e+00
3669 590 -1.000000000000000e+00
3669 1320 -1.000000000000000e+00
3669 2062 -1.000000000000000e+00
3669 3669 3.000000000000000e+00
3670 138 -1.000000000000000e+00
3670 3072 -1.000000000000000e+00
3670 3510 -1.000000000000000e+00
3670 3670 3.000000000000000e+00
3671 1174 -1.000000000000000e+00
3671 1224 -1.187317147850990e+00
3671 1950 -1.320256292819977e+00
3671 3671 3.507573440670967e+00
3672 404 -1.000000000000000e+00
3672 635 -1.000000000000000e+00
3672 1418 -1.000000000000000e+00
3672 3672 3.000000000000000e+00
3673 29 -1.000000000000000e+00
3673 482 -1.000000000000000e+00
3673 490 -1.000000000000000e+00
3673 3673 3.000000000000000e+00
3674 605 -1.000000000000000e+00
3674 884 -1.000000000000000e+00
3674 1031 -1.158113881945610e+00
3674 3674 3.327144742012024e+00
3675 310 -1.000000000000000e+00
3675 1301 -1.000000000000000e+00
3675 2135 -1.000000000000000e+00
3675 3675 3.000000000000000e+00
3676 152 -1.000000000000000e+00
3676 699 -1.000000000000000e+00
3676 871 -1.264906466007233e+00
3676 2300 -8.908708393573761e-02
3676 3676 3.353993549942970e+00
3677 5 -1.000000000000000e+00
3677 29 -1.000000000000000e+00
3677 195 -2.800560295581818e-01
3677 450 -3.333333432674408e-01
3677 1075 -3.333333432674408e-01
3677 1808 -3.333333432674408e-01
3677 2304 -2.981424033641815e-01
3677 2755 -4.082483053207397e-01
3677 3154 -1.000000000000000e+00
3677 3677 4.986446768045425e+00
3678 34 -1.000000000000000e+00
3678 341 -1.000000000000000e+00
3678 3226 -1.000000000000000e+00
3678 3678 3.000000000000000e+00
3679 1040 -1.000000000000000e+00
3679 1909 -1.767766922712326e-01
3679 2123 -1.000000000000000e+00
3679 2317 -1.000000000000000e+00
3679 3679 3.176776692271233e+00
3680 693 -1.000000000000000e+00
3680 1749 -1.000000000000000e+00
3680 1997 -1.000000000000000e+00
3680 3680 3.000000000000000e+00
3681 2842 -1.000000000000000e+00
3681 3289 -1.000000000000000e+00
3681 3628 -1.000000000000000e+00
3681 3681 3.000000000000000e+00
3682 43 -1.000000000000000e+00
3682 1062 -1.000000000000000e+00
3682 1199 -1.000000000000000e+00
3682 3682 3.000000000000000e+00
3683 1 -1.000000000000000e+00
3683 2162 -1.000000000000000e+00
3683 2943 -1.235702246427536e+00
3683 3683 3.235702246427536e+00
3684 205 -1.000000000000000e+00
3684 1314 -1.000000000000000e+00
3684 2519 -1.000000000000000e+00
3684 3684 3.000000000000000e+00
3685 1199 -1.000000000000000e+00
3685 1583 -1.000000000000000e+00
3685 2733 -1.000000000000000e+00
3685 3685 3.000000000000000e+00
3686 67 -1.000000000000000e+00
3686 1586 -1.000000000000000e+00
3686 3288 -1.000000000000000e+00
3686 3686 3.000000000000000e+00
3687 800 -1.000000000000000e+00
3687 1551 -1.000000000000000e+00
3687 3637 -1.000000000000000e+00
3687 3687 4.000000000000000e+00
3688 191 -1.000000000000000e+00
3688 725 -1.000000000000000e+00
3688 3274 -1.000000000000000e+00
3688 3688 3.000000000000000e+00
3689 437 -1.000000000000000e+00
3689 1690 -1.000000000000000e+00
3689 2747 -1.000000000000000e+00
3689 3689 3.000000000000000e+00
3690 321 -1.000000000000000e+00
3690 1025 -1.825741827487946e-01
3690 1400 -1.000000000000000e+00
3690 1497 -2.581988871097565e-01
3690 3138 -1.000000000000000e+00
3690 3690 3.440773069858551e+00
3691 294 -1.000000000000000e+00
3691 889 -1.000000000000000e+00
3691 3450 -1.000000000000000e+00
3691 3691 3.000000000000000e+00
3692 7 -1.000000000000000e+00
3692 11 -1.000000000000000e+00
3692 1595 -1.000000000000000e+00
3692 3692 3.123091489076614e+00
3693 370 -1.000000000000000e+00
3693 837 -1.000000000000000e+00
3693 1223 -1.000000000000000e+00
3693 3693 3.000000000000000e+00
3694 75 -1.000000000000000e+00
3694 298 -1.115470059216022e+00
3694 581 -1.571348458528519e-01
3694 981 -1.000000000000000e+00
3694 3402 -2.041241526603699e-01
3694 3694 3.476729057729244e+00
3695 661 -1.000000000000000e+00
3695 2127 -1.000000000000000e+00
3695 2143 -1.000000000000000e+00
3695 3692 -1.230914890766144e-01
3695 3695 3.123091489076614e+00
3696 103 -1.000000000000000e+00
3696 121 -1.000000000000000e+00
3696 649 -1.000000000000000e+00
3696 1385 -3.651483654975891e-01
3696 1709 -1.154700443148613e-01
3696 3696 3.480618409812450e+00
3697 26 -1.000000000000000e+00
3697 1846 -1.000000000000000e+00
3697 2302 -1.000000000000000e+00
3697 3697 3.000000000000000e+00
3698 579 -1.000000000000000e+00
3698 1173 -1.000000000000000e+00
3698 2589 -1.000000000000000e+00
3698 3698 4.000000000000000e+00
3699 35 -1.000000000000000e+00
3699 310 -1.000000000000000e+00
3699 2139 -1.000000000000000e+00
3699 2783 -3.333333432674408e-01
3699 3567 -3.333333432674408e-01
3699 3699 3.666666686534882e+00
3700 10 -1.000000000000000e+00
3700 1549 -1.000000000000000e+00
3700 2886 -1.107211254537106e+00
3700 3700 3.107211254537106e+00
3701 479 -1.000000000000000e+00
3701 1788 -2.041241526603699e-01
3701 2154 -1.000000000000000e+00
3701 2996 -1.000000000000000e+00
3701 3701 4.204124152660370e+00
3702 13 -1.000000000000000e+00
3702 16 -1.000000000000000e+00
3702 718 -1.000000000000000e+00
3702 3702 3.000000000000000e+00
3703 299 -1.000000000000000e+00
3703 1664 -1.000000000000000e+00
3703 3173 -1.000000000000000e+00
3703 3703 3.000000000000000e+00
3704 897 -1.000000000000000e+00
3704 1550 -1.000000000000000e+00
3704 2502 -1.000000000000000e+00
3704 3704 3.000000000000000e+00
3705 47 -1.000000000000000e+00
3705 509 -1.000000000000000e+00
3705 675 -1.000000000000000e+00
3705 2237 -2.738612592220306e-01
3705 3705 4.273861259222031e+00
3706 794 -1.000000000000000e+00
3706 1593 -1.000000000000000e+00
3706 2638 -1.000000000000000e+00
3706 3706 3.000000000000000e+00
3707 125 -1.000000000000000e+00
3707 1072 -1.000000000000000e+00
3707 1149 -1.000000000000000e+00
3707 3707 4.111111111938953e+00
3708 7 -1.000000000000000e+00
3708 53 -1.094491124153137e+00
3708 924 -1.543033570051193e-01
3708 3560 -1.000000000000000e+00
3708 3708 4.248794481158257e+00
3709 560 -1.000000000000000e+00
3709 829 -2.182179093360901e-01
3709 3147 -1.000000000000000e+00
3709 3708 -1.000000000000000e+00
3709 3709 3.218217909336090e+00
3710 396 -1.000000000000000e+00
3710 1688 -1.000000000000000e+00
3710 2336 -1.000000000000000e+00
3710 3710 3.000000000000000e+00
3711 311 -1.000000000000000e+00
3711 528 -1.000000000000000e+00
3711 922 -1.000000000000000e+00
3711 3711 3.000000000000000e+00
3712 43 -1.000000000000000e+00
3712 1945 -1.000000000000000e+00
3712 2591 -1.000000000000000e+00
3712 3712 4.000000000000000e+00
3713 290 -1.000000000000000e+00
3713 644 -1.000000000000000e+00
3713 2818 -1.000000000000000e+00
3713 3713 3.000000000000000e+00
3714 1663 -1.000000000000000e+00
3714 1852 -1.000000000000000e+00
3714 3244 -1.000000000000000e+00
3714 3714 4.000000000000000e+00
3715 45 -1.000000000000000e+00
3715 114 -1.000000000000000e+00
3715 607 -1.000000000000000e+00
3715 3395 -4.082483053207397e-01
3715 3715 3.408248305320740e+00
3716 9 -1.000000000000000e+00
3716 189 -1.000000000000000e+00
3716 1297 -1.204124137759209e+00
3716 3716 3.204124137759209e+00
3717 190 -1.000000000000000e+00
3717 652 -1.000000000000000e+00
3717 2036 -1.000000000000000e+00
3717 3717 3.000000000000000e+00
3718 329 -1.000000000000000e+00
3718 2672 -1.000000000000000e+00
3718 3259 -1.000000000000000e+00
3718 3718 3.000000000000000e+00
3719 12 -1.000000000000000e+00
3719 1658 -1.000000000000000e+00
3719 2875 -1.000000000000000e+00
3719 3475 -1.666666567325592e-01
3719 3719 3.166666656732559e+00
3720 5 -1.000000000000000e+00
3720 30 -1.000000000000000e+00
3720 1821 -1.218217909336090e+00
3720 3720 3.218217909336090e+00
3721 1299 -1.000000000000000e+00
3721 2090 -1.000000000000000e+00
3721 3555 -1.000000000000000e+00
3721 3721 3.000000000000000e+00
3722 233 -1.000000000000000e+00
3722 658 -1.000000000000000e+00
3722 2208 -1.000000000000000e+00
3722 3722 3.000000000000000e+00
3723 7 -1.000000000000000e+00
3723 468 -1.767766922712326e-01
3723 667 -1.000000000000000e+00
3723 1108 -2.886751294136047e-01
3723 1420 -2.236067950725555e-01
3723 2434 -1.000000000000000e+00
3723 3723 3.689058616757393e+00
3724 5 -1.000000000000000e+00
3724 79 -1.000000000000000e+00
3724 640 -1.000000000000000e+00
3724 3724 3.000000000000000e+00
3725 670 -1.000000000000000e+00
3725 2675 -1.000000000000000e+00
3725 3506 -1.000000000000000e+00
3725 3725 3.000000000000000e+00
3726 22 -1.000000000000000e+00
3726 2787 -1.144337564706802e+00
3726 3000 -1.000000000000000e+00
3726 3726 3.144337564706802e+00
3727 129 -1.000000000000000e+00
3727 335 -1.000000000000000e+00
3727 1351 -1.336306184530258e-01
3727 1987 -1.091089546680450e-01
3727 3208 -1.000000000000000e+00
3727 3727 3.242739573121071e+00
3728 286 -1.000000000000000e+00
3728 1498 -1.000000000000000e+00
3728 2622 -1.000000000000000e+00
3728 3608 -3.535533845424652e-01
3728 3728 3.353553384542465e+00
3729 239 -1.000000000000000e+00
3729 593 -1.000000000000000e+00
3729 2206 -2.236067950725555e-01
3729 3241 -1.000000000000000e+00
3729 3729 3.223606795072556e+00
3730 350 -1.000000000000000e+00
3730 1628 -1.000000000000000e+00
3730 2100 -1.000000000000000e+00
3730 3730 3.000000000000000e+00
3731 214 -1.000000000000000e+00
3731 552 -1.000000000000000e+00
3731 3124 -1.000000000000000e+00
3731 3731 3.000000000000000e+00
3732 34 -1.000000000000000e+00
3732 687 -1.000000000000000e+00
3732 1414 -1.000000000000000e+00
3732 3732 3.000000000000000e+00
3733 350 -1.000000000000000e+00
3733 1013 -1.000000000000000e+00
3733 2939 -1.000000000000000e+00
3733 3733 4.000000000000000e+00
3734 111 -1.000000000000000e+00
3734 1688 -1.414213627576828e-01
3734 2060 -3.380617201328278e-01
3734 2154 -1.000000000000000e+00
3734 2217 -1.000000000000000e+00
3734 3734 3.479483082890511e+00
3735 1764 -1.924500912427902e-01
3735 2898 -1.000000000000000e+00
3735 2933 -1.102062076330185e+00
3735 3040 -1.258198887109756e+00
3735 3735 3.552711054682732e+00
3736 17 -1.000000000000000e+00
3736 1254 -1.000000000000000e+00
3736 2837 -1.000000000000000e+00
3736 3736 3.000000000000000e+00
3737 233 -1.000000000000000e+00
3737 2824 -1.000000000000000e+00
3737 2947 -1.000000000000000e+00
3737 3737 3.000000000000000e+00
3738 681 -1.144337564706802e+00
3738 867 -1.000000000000000e+00
3738 1255 -9.622504562139511e-02
3738 3600 -1.000000000000000e+00
3738 3738 3.240562610328197e+00
3739 644 -1.000000000000000e+00
3739 990 -1.000000000000000e+00
3739 3275 -1.000000000000000e+00
3739 3739 4.000000000000000e+00
3740 2 -1.000000000000000e+00
3740 986 -1.000000000000000e+00
3740 1682 -4.008918404579163e-01
3740 2462 -5.000000000000000e-01
3740 3033 -1.000000000000000e+00
3740 3740 3.900891840457916e+00
3741 5 -1.000000000000000e+00
3741 7 -1.000000000000000e+00
3741 675 -1.000000000000000e+00
3741 3741 5.000000000000000e+00
3742 217 -1.000000000000000e+00
3742 707 -1.000000000000000e+00
3742 3144 -1.000000000000000e+00
3742 3742 3.000000000000000e+00
3743 6 -1.000000000000000e+00
3743 341 -1.000000000000000e+00
3743 2355 -1.000000000000000e+00
3743 3743 3.000000000000000e+00
3744 483 -1.000000000000000e+00
3744 653 -1.000000000000000e+00
3744 3075 -1.000000000000000e+00
3744 3744 3.000000000000000e+00
3745 1 -1.000000000000000e+00
3745 33 -1.000000000000000e+00
3745 180 -1.000000000000000e+00
3745 2820 -1.740776598453522e-01
3745 3745 5.174077659845352e+00
3746 1634 -1.000000000000000e+00
3746 1989 -1.000000000000000e+00
3746 2137 -1.000000000000000e+00
3746 3746 3.000000000000000e+00
3747 34 -1.000000000000000e+00
3747 568 -1.000000000000000e+00
3747 1157 -1.000000000000000e+00
3747 3747 3.000000000000000e+00
3748 1 -1.000000000000000e+00
3748 1239 -1.000000000000000e+00
3748 1248 -1.144337564706802e+00
3748 1489 -2.142857164144516e-01
3748 3748 3.358623281121254e+00
3749 187 -1.000000000000000e+00
3749 1645 -1.114707864820957e+00
3749 2840 -1.000000000000000e+00
3749 3749 3.114707864820957e+00
3750 568 -1.117851138114929e+00
3750 1873 -1.178511381149292e-01
3750 2920 -1.000000000000000e+00
3750 3603 -1.000000000000000e+00
3750 3750 3.235702276229858e+00
3751 767 -1.000000000000000e+00
3751 1804 -2.703690230846405e-01
3751 2433 -1.000000000000000e+00
3751 3155 -1.000000000000000e+00
3751 3751 3.559044152498245e+00
3752 5 -1.000000000000000e+00
3752 8 -1.000000000000000e+00
3752 2648 -1.000000000000000e+00
3752 3751 -2.886751294136047e-01
3752 3752 3.288675129413605e+00
3753 619 -1.000000000000000e+00
3753 2336 -1.000000000000000e+00
3753 3314 -1.000000000000000e+00
3753 3753 3.000000000000000e+00
3754 361 -8.006408065557480e-02
3754 443 -1.000000000000000e+00
3754 544 -1.000000000000000e+00
3754 2792 -1.000000000000000e+00
3754 3754 4.080064080655575e+00
3755 122 -1.000000000000000e+00
3755 1298 -1.000000000000000e+00
3755 2877 -2.800560295581818e-01
3755 3622 -1.000000000000000e+00
3755 3755 3.280056029558182e+00
3756 154 -1.000000000000000e+00
3756 204 -1.000000000000000e+00
3756 777 -1.000000000000000e+00
3756 3756 4.000000000000000e+00
3757 112 -1.000000000000000e+00
3757 736 -1.000000000000000e+00
3757 974 -1.581138819456100e-01
3757 1640 -1.000000000000000e+00
3757 3757 4.158113881945610e+00
3758 123 -1.333333343267441e+00
3758 530 -1.386750489473343e-01
3758 1132 -1.212678179144859e-01
3758 1183 -1.000000000000000e+00
3758 3292 -1.301511347293854e+00
3758 3758 3.894787557423115e+00
3759 1518 -1.000000000000000e+00
3759 1964 -1.000000000000000e+00
3759 3235 -1.316227763891220e+00
3759 3759 3.316227763891220e+00
3760 705 -1.000000000000000e+00
3760 2308 -1.000000000000000e+00
3760 3402 -1.000000000000000e+00
3760 3760 3.000000000000000e+00
3761 5 -1.000000000000000e+00
3761 18 -1.000000000000000e+00
3761 3006 -1.000000000000000e+00
3761 3761 3.000000000000000e+00
3762 715 -1.474419534206390e-01
3762 1427 -1.000000000000000e+00
3762 1515 -1.000000000000000e+00
3762 1576 -1.178511381149292e-01
3762 2449 -3.015113472938538e-01
3762 3128 -1.581138819456100e-01
3762 3552 -1.000000000000000e+00
3762 3762 3.724918320775032e+00
3763 131 -3.481553196907043e-01
3763 153 -3.651483654975891e-01
3763 895 -1.000000000000000e+00
3763 1388 -1.290994435548782e-01
3763 1965 -1.740776598453522e-01
3763 2188 -1.000000000000000e+00
3763 2494 -1.000000000000000e+00
3763 3763 4.016480788588524e+00
3764 458 -1.288675129413605e+00
3764 522 -1.000000000000000e+00
3764 3698 -1.000000000000000e+00
3764 3764 3.288675129413605e+00
3765 540 -1.000000000000000e+00
3765 960 -8.421519398689270e-02
3765 1806 -3.333333432674408e-01
3765 2326 -1.000000000000000e+00
3765 2889 -4.714044928550720e-01
3765 2930 -1.000000000000000e+00
3765 3765 3.888953030109406e+00
3766 207 -1.000000000000000e+00
3766 1116 -1.000000000000000e+00
3766 3157 -1.000000000000000e+00
3766 3766 3.000000000000000e+00
3767 1387 -1.000000000000000e+00
3767 3461 -1.000000000000000e+00
3767 3529 -1.000000000000000e+00
3767 3767 3.000000000000000e+00
3768 138 -1.000000000000000e+00
3768 576 -1.000000000000000e+00
3768 850 -1.000000000000000e+00
3768 3768 3.000000000000000e+00
3769 411 -1.000000000000000e+00
3769 3541 -1.000000000000000e+00
3769 3593 -1.000000000000000e+00
3769 3769 3.000000000000000e+00
3770 899 -1.000000000000000e+00
3770 1721 -1.000000000000000e+00
3770 3307 -1.000000000000000e+00
3770 3770 3.000000000000000e+00
3771 411 -1.075377836823463e+00
3771 707 -1.000000000000000e+00
3771 1731 -1.000000000000000e+00
3771 2506 -2.773500978946686e-01
3771 3771 3.352727934718132e+00
3772 145 -1.000000000000000e+00
3772 2073 -1.204124152660370e+00
3772 3300 -1.408248305320740e+00
3772 3772 3.612372457981110e+00
3773 35 -1.000000000000000e+00
3773 184 -1.000000000000000e+00
3773 1355 -1.109108954668045e+00
3773 3773 3.109108954668045e+00
3774 113 -1.792842894792557e-01
3774 150 -7.071068137884140e-02
3774 604 -1.000000000000000e+00
3774 684 -1.000000000000000e+00
3774 2906 -1.000000000000000e+00
3774 3774 3.249994970858097e+00
3775 990 -1.000000000000000e+00
3775 2152 -1.632993072271347e-01
3775 2225 -1.000000000000000e+00
3775 2998 -1.000000000000000e+00
3775 3775 3.163299307227135e+00
3776 67 -1.000000000000000e+00
3776 1802 -1.000000000000000e+00
3776 1826 -1.070014007389545e+00
3776 3776 3.070014007389545e+00
3777 8 -1.000000000000000e+00
3777 489 -1.000000000000000e+00
3777 1680 -1.000000000000000e+00
3777 3777 3.000000000000000e+00
3778 111 -1.000000000000000e+00
3778 731 -1.000000000000000e+00
3778 1236 -1.000000000000000e+00
3778 3778 3.000000000000000e+00
3779 57 -1.000000000000000e+00
3779 108 -1.091089546680450e-01
3779 538 -1.000000000000000e+00
3779 775 -1.000000000000000e+00
3779 2065 -9.901475906372070e-02
3779 3779 3.208123713731766e+00
3780 1217 -1.000000000000000e+00
3780 2063 -1.000000000000000e+00
3780 2071 -1.087705798447132e+00
3780 3780 3.087705798447132e+00
3781 13 -1.000000000000000e+00
3781 311 -1.160128161311150e+00
3781 963 -1.000000000000000e+00
3781 3781 3.160128161311150e+00
3782 30 -1.000000000000000e+00
3782 91 -1.924500912427902e-01
3782 2711 -1.000000000000000e+00
3782 3219 -1.000000000000000e+00
3782 3782 3.192450091242790e+00
3783 525 -1.000000000000000e+00
3783 2677 -1.000000000000000e+00
3783 2892 -1.000000000000000e+00
3783 3783 3.000000000000000e+00
3784 63 -1.000000000000000e+00
3784 1091 -1.000000000000000e+00
3784 3128 -1.000000000000000e+00
3784 3784 3.000000000000000e+00
3785 1044 -1.000000000000000e+00
3785 1299 -1.000000000000000e+00
3785 3321 -1.000000000000000e+00
3785 3785 4.000000000000000e+00
3786 9 -1.000000000000000e+00
3786 265 -1.000000000000000e+00
3786 936 -1.000000000000000e+00
3786 3786 3.000000000000000e+00
3787 990 -1.000000000000000e+00
3787 1740 -1.353553414344788e+00
3787 2131 -1.000000000000000e+00
3787 3787 3.353553414344788e+00
3788 393 -1.000000000000000e+00
3788 2907 -1.000000000000000e+00
3788 3705 -1.000000000000000e+00
3788 3788 3.000000000000000e+00
3789 185 -1.000000000000000e+00
3789 325 -1.000000000000000e+00
3789 1229 -1.240347325801849e-01
3789 3016 -1.000000000000000e+00
3789 3789 3.124034732580185e+00
3790 700 -1.000000000000000e+00
3790 1097 -1.000000000000000e+00
3790 3238 -1.000000000000000e+00
3790 3790 3.000000000000000e+00
3791 55 -1.000000000000000e+00
3791 58 -1.889822483062744e-01
3791 443 -1.000000000000000e+00
3791 1418 -1.125000000000000e+00
3791 1920 -9.622504562139511e-02
3791 3791 3.410207293927670e+00
3792 99 -1.000000000000000e+00
3792 1327 -1.000000000000000e+00
3792 2508 -1.898315995931625e-01
3792 2808 -1.000000000000000e+00
3792 2947 -1.740776598453522e-01
3792 3792 3.363909259438515e+00
3793 5 -1.000000000000000e+00
3793 627 -1.000000000000000e+00
3793 2015 -2.236067950725555e-01
3793 2072 -1.000000000000000e+00
3793 3793 3.223606795072556e+00
3794 292 -1.000000000000000e+00
3794 652 -1.000000000000000e+00
3794 750 -1.690308600664139e-01
3794 3103 -1.000000000000000e+00
3794 3794 3.169030860066414e+00
3795 480 -1.000000000000000e+00
3795 2025 -1.000000000000000e+00
3795 3494 -1.000000000000000e+00
3795 3795 3.000000000000000e+00
3796 188 -1.000000000000000e+00
3796 1371 -1.000000000000000e+00
3796 3707 -1.111111111938953e+00
3796 3796 3.111111111938953e+00
3797 465 -1.248069465160370e+00
3797 989 -1.000000000000000e+00
3797 1003 -1.000000000000000e+00
3797 3797 3.248069465160370e+00
3798 61 -1.000000000000000e+00
3798 2563 -1.000000000000000e+00
3798 2746 -1.000000000000000e+00
3798 3798 3.000000000000000e+00
3799 270 -1.000000000000000e+00
3799 444 -1.000000000000000e+00
3799 1067 -1.000000000000000e+00
3799 3799 3.000000000000000e+00
3800 85 -1.000000000000000e+00
3800 1211 -1.000000000000000e+00
3800 1670 -1.000000000000000e+00
3800 3800 4.000000000000000e+00
3801 478 -1.000000000000000e+00
3801 1300 -1.000000000000000e+00
3801 3112 -1.000000000000000e+00
3801 3801 3.000000000000000e+00
3802 77 -1.000000000000000e+00
3802 370 -1.000000000000000e+00
3802 1711 -1.000000000000000e+00
3802 3802 3.000000000000000e+00
3803 71 -1.000000000000000e+00
3803 313 -1.000000000000000e+00
3803 422 -1.000000000000000e+00
3803 438 -6.804137676954269e-02
3803 2367 -8.908707648515701e-02
3803 3803 4.157128453254700e+00
3804 59 -1.000000000000000e+00
3804 905 -1.000000000000000e+00
3804 1314 -1.000000000000000e+00
3804 3804 3.000000000000000e+00
3805 76 -1.360827684402466e-01
3805 155 -2.981424033641815e-01
3805 317 -1.000000000000000e+00
3805 465 -1.000000000000000e+00
3805 3145 -1.000000000000000e+00
3805 3805 4.434225171804428e+00
3806 15 -1.000000000000000e+00
3806 249 -1.000000000000000e+00
3806 2695 -1.000000000000000e+00
3806 3806 3.000000000000000e+00
3807 55 -1.000000000000000e+00
3807 2319 -1.000000000000000e+00
3807 3701 -1.000000000000000e+00
3807 3807 3.000000000000000e+00
3808 65 -1.000000000000000e+00
3808 717 -1.386750489473343e-01
3808 1577 -1.000000000000000e+00
3808 2623 -1.000000000000000e+00
3808 3808 4.138675048947334e+00
3809 2722 -1.000000000000000e+00
3809 2816 -1.000000000000000e+00
3809 3745 -1.000000000000000e+00
3809 3809 3.000000000000000e+00
3810 10 -1.000000000000000e+00
3810 113 -1.951800137758255e-01
3810 150 -1.154700592160225e-01
3810 684 -1.113227710127831e+00
3810 2911 -1.125988155603409e+00
3810 3810 3.549865938723087e+00
3811 23 -1.000000000000000e+00
3811 79 -1.000000000000000e+00
3811 3369 -1.000000000000000e+00
3811 3811 3.000000000000000e+00
3812 43 -1.000000000000000e+00
3812 336 -3.481553196907043e-01
3812 1042 -1.000000000000000e+00
3812 1164 -1.490712016820908e-01
3812 2324 -1.084215193986893e+00
3812 3812 3.581441715359688e+00
3813 278 -2.641352713108063e-01
3813 345 -1.490712016820908e-01
3813 517 -3.333333432674408e-01
3813 522 -1.000000000000000e+00
3813 865 -1.000000000000000e+00
3813 1278 -1.290994435548782e-01
3813 1337 -1.087038829922676e+00
3813 2091 -1.924500912427902e-01
3813 3155 -2.581988871097565e-01
3813 3211 -1.490712016820908e-01
3813 3813 4.562398269772530e+00
3814 45 -1.000000000000000e+00
3814 3614 -1.000000000000000e+00
3814 3739 -1.000000000000000e+00
3814 3814 3.000000000000000e+00
3815 4 -1.000000000000000e+00
3815 1066 -1.000000000000000e+00
3815 1296 -1.581138819456100e-01
3815 3280 -1.258198887109756e+00
3815 3331 -2.000000029802322e-01
3815 3815 3.616312772035599e+00
3816 69 -1.000000000000000e+00
3816 1182 -1.000000000000000e+00
3816 3687 -1.000000000000000e+00
3816 3816 3.000000000000000e+00
3817 44 -1.000000000000000e+00
3817 298 -1.000000000000000e+00
3817 958 -1.000000000000000e+00
3817 3817 3.000000000000000e+00
3818 52 -1.000000000000000e+00
3818 305 -1.000000000000000e+00
3818 2008 -1.000000000000000e+00
3818 3818 3.000000000000000e+00
3819 82 -1.000000000000000e+00
3819 1606 -1.124034732580185e+00
3819 2112 -1.000000000000000e+00
3819 2809 -1.240347325801849e-01
3819 3819 3.248069465160370e+00
3820 680 -1.000000000000000e+00
3820 2018 -1.000000000000000e+00
3820 2312 -1.000000000000000e+00
3820 3820 3.000000000000000e+00
3821 133 -1.000000000000000e+00
3821 137 -1.000000000000000e+00
3821 2042 -1.000000000000000e+00
3821 3821 3.000000000000000e+00
3822 89 -1.000000000000000e+00
3822 1849 -1.000000000000000e+00
3822 3712 -1.000000000000000e+00
3822 3822 3.000000000000000e+00
3823 27 -1.000000000000000e+00
3823 647 -1.000000000000000e+00
3823 858 -2.886751294136047e-01
3823 927 -2.500000000000000e-01
3823 1125 -1.000000000000000e+00
3823 3823 3.538675129413605e+00
3824 612 -1.000000000000000e+00
3824 902 -2.182179093360901e-01
3824 1199 -3.940551877021790e-01
3824 1637 -1.000000000000000e+00
3824 2642 -1.654653728008270e+00
3824 3824 4.266926825046539e+00
3825 6 -1.000000000000000e+00
3825 505 -2.309400886297226e-01
3825 528 -2.609312236309052e-01
3825 1167 -1.000000000000000e+00
3825 1282 -4.000000059604645e-01
3825 1449 -1.000000000000000e+00
3825 3825 3.891871318221092e+00
3826 212 -1.000000000000000e+00
3826 2153 -1.000000000000000e+00
3826 3110 -1.000000000000000e+00
3826 3826 3.000000000000000e+00
3827 156 -1.000000000000000e+00
3827 1191 -1.000000000000000e+00
3827 1668 -1.000000000000000e+00
3827 3827 5.000000000000000e+00
3828 159 -1.000000000000000e+00
3828 1496 -1.000000000000000e+00
3828 2532 -1.000000000000000e+00
3828 2669 -1.414213627576828e-01
3828 3828 3.141421362757683e+00
3829 5 -1.000000000000000e+00
3829 2670 -1.000000000000000e+00
3829 3377 -1.000000000000000e+00
3829 3829 3.000000000000000e+00
3830 35 -1.000000000000000e+00
3830 1568 -4.082483053207397e-01
3830 1946 -1.000000000000000e+00
3830 2548 -3.849001824855804e-01
3830 2869 -2.041241526603699e-01
3830 3365 -1.000000000000000e+00
3830 3830 3.997272640466690e+00
3831 552 -1.000000000000000e+00
3831 1476 -1.000000000000000e+00
3831 2140 -1.000000000000000e+00
3831 3831 3.000000000000000e+00
3832 2 -1.000000000000000e+00
3832 267 -1.000000000000000e+00
3832 1936 -1.000000000000000e+00
3832 3832 3.000000000000000e+00
3833 1020 -1.000000000000000e+00
3833 1913 -1.000000000000000e+00
3833 2199 -1.000000000000000e+00
3833 3833 3.000000000000000e+00
3834 7 -1.000000000000000e+00
3834 150 -1.000000000000000e+00
3834 206 -1.091089397668839e-01
3834 320 -1.000000000000000e+00
3834 3834 4.109108939766884e+00
3835 429 -1.000000000000000e+00
3835 1082 -1.000000000000000e+00
3835 1701 -1.543033570051193e-01
3835 2356 -1.000000000000000e+00
3835 3835 3.154303357005119e+00
3836 466 -1.000000000000000e+00
3836 2812 -1.000000000000000e+00
3836 2893 -1.384900182485580e+00
3836 3836 3.384900182485580e+00
3837 247 -1.000000000000000e+00
3837 378 -2.800560295581818e-01
3837 444 -1.000000000000000e+00
3837 1836 -3.202563226222992e-01
3837 2066 -1.825741827487946e-01
3837 2178 -1.000000000000000e+00
3837 3837 3.782886534929276e+00
3838 41 -1.000000000000000e+00
3838 617 -2.500000298023224e-01
3838 853 -1.000000000000000e+00
3838 2665 -1.000000000000000e+00
3838 3374 -3.535533845424652e-01
3838 3838 3.603553414344788e+00
3839 409 -1.000000000000000e+00
3839 890 -1.000000000000000e+00
3839 1238 -1.000000000000000e+00
3839 3839 3.000000000000000e+00
3840 525 -1.000000000000000e+00
3840 1941 -1.000000000000000e+00
3840 2574 -1.000000000000000e+00
3840 3840 3.000000000000000e+00
3841 784 -1.000000000000000e+00
3841 862 -1.000000000000000e+00
3841 1994 -1.384900182485580e+00
3841 2116 -8.421519398689270e-02
3841 3841 3.469115376472473e+00
3842 998 -1.000000000000000e+00
3842 1475 -1.000000000000000e+00
3842 2933 -1.000000000000000e+00
3842 3842 3.000000000000000e+00
3843 114 -1.000000000000000e+00
3843 597 -1.000000000000000e+00
3843 2236 -1.000000000000000e+00
3843 3843 4.000000000000000e+00
3844 767 -1.000000000000000e+00
3844 887 -1.000000000000000e+00
3844 890 -1.000000000000000e+00
3844 3844 3.000000000000000e+00
3845 35 -1.000000000000000e+00
3845 883 -1.000000000000000e+00
3845 1935 -1.000000000000000e+00
3845 3845 3.000000000000000e+00
3846 56 -1.000000000000000e+00
3846 326 -2.041241377592087e-01
3846 1087 -1.000000000000000e+00
3846 1965 -1.000000000000000e+00
3846 3846 3.204124137759209e+00
3847 223 -1.000000000000000e+00
3847 949 -1.000000000000000e+00
3847 1559 -1.000000000000000e+00
3847 3847 3.000000000000000e+00
3848 66 -1.000000000000000e+00
3848 2158 -1.000000000000000e+00
3848 2303 -1.000000000000000e+00
3848 3848 4.000000000000000e+00
3849 176 -1.000000000000000e+00
3849 250 -1.443375647068024e-01
3849 879 -1.000000000000000e+00
3849 1812 -1.000000000000000e+00
3849 3849 3.144337564706802e+00
3850 456 -1.250000029802322e+00
3850 1090 -1.000000000000000e+00
3850 2621 -1.158113881945610e+00
3850 3850 3.408113911747932e+00
3851 652 -1.000000000000000e+00
3851 1455 -1.000000000000000e+00
3851 3339 -1.000000000000000e+00
3851 3851 3.000000000000000e+00
3852 13 -1.000000000000000e+00
3852 2303 -1.000000000000000e+00
3852 2674 -1.250000029802322e+00
3852 3852 3.250000029802322e+00
3853 271 -1.000000000000000e+00
3853 335 -1.000000000000000e+00
3853 699 -1.000000000000000e+00
3853 3853 3.000000000000000e+00
3854 156 -1.000000000000000e+00
3854 2187 -1.000000000000000e+00
3854 2744 -1.000000000000000e+00
3854 3854 3.000000000000000e+00
3855 113 -1.000000000000000e+00
3855 721 -1.000000000000000e+00
3855 2127 -1.000000000000000e+00
3855 3855 3.000000000000000e+00
3856 119 -1.000000000000000e+00
3856 401 -1.000000000000000e+00
3856 692 -1.000000000000000e+00
3856 2265 -3.212877213954926e-01
3856 3293 -4.472135901451111e-01
3856 3856 4.768501311540604e+00
3857 151 -1.000000000000000e+00
3857 406 -1.000000000000000e+00
3857 2695 -1.601281613111496e-01
3857 2734 -1.000000000000000e+00
3857 3857 3.160128161311150e+00
3858 78 -1.000000000000000e+00
3858 483 -2.000000029802322e-01
3858 1295 -1.000000000000000e+00
3858 1567 -2.085144072771072e-01
3858 1834 -1.458649933338165e-01
3858 3741 -1.000000000000000e+00
3858 3858 3.554379403591156e+00
3859 118 -1.000000000000000e+00
3859 1872 -1.000000000000000e+00
3859 3560 -1.000000000000000e+00
3859 3859 3.000000000000000e+00
3860 47 -1.000000000000000e+00
3860 1215 -2.581988871097565e-01
3860 2256 -1.556997895240784e-01
3860 2350 -1.000000000000000e+00
3860 3264 -1.000000000000000e+00
3860 3860 3.413898676633835e+00
3861 69 -1.000000000000000e+00
3861 73 -1.000000000000000e+00
3861 1584 -1.000000000000000e+00
3861 3861 3.000000000000000e+00
3862 5 -1.000000000000000e+00
3862 1381 -1.136082753539085e+00
3862 1623 -1.666666567325592e-01
3862 2657 -1.235702246427536e+00
3862 3862 3.538451656699181e+00
3863 33 -1.000000000000000e+00
3863 2346 -1.000000000000000e+00
3863 3376 -1.000000000000000e+00
3863 3863 3.000000000000000e+00
3864 153 -1.000000000000000e+00
3864 836 -1.000000000000000e+00
3864 1024 -1.000000000000000e+00
3864 3864 3.000000000000000e+00
3865 14 -1.000000000000000e+00
3865 168 -1.000000000000000e+00
3865 579 -1.740776598453522e-01
3865 745 -1.601281613111496e-01
3865 1248 -1.000000000000000e+00
3865 2774 -1.601281613111496e-01
3865 3865 3.494333982467651e+00
3866 2 -1.000000000000000e+00
3866 170 -1.612372398376465e+00
3866 864 -2.132007181644440e-01
3866 1354 -1.223606795072556e+00
3866 3866 4.049179911613464e+00
3867 433 -1.740776598453522e-01
3867 442 -1.000000000000000e+00
3867 1087 -1.000000000000000e+00
3867 2347 -1.000000000000000e+00
3867 3867 4.174077659845352e+00
3868 566 -1.000000000000000e+00
3868 1381 -1.000000000000000e+00
3868 2355 -1.000000000000000e+00
3868 3868 3.000000000000000e+00
3869 151 -1.000000000000000e+00
3869 887 -1.000000000000000e+00
3869 1020 -1.000000000000000e+00
3869 3869 3.000000000000000e+00
3870 71 -1.000000000000000e+00
3870 993 -1.000000000000000e+00
3870 3232 -1.000000000000000e+00
3870 3870 3.000000000000000e+00
3871 28 -1.000000000000000e+00
3871 33 -1.000000000000000e+00
3871 472 -1.203858479857445e-01
3871 3438 -1.000000000000000e+00
3871 3871 3.120385847985744e+00
3872 661 -1.000000000000000e+00
3872 726 -1.000000000000000e+00
3872 1256 -1.000000000000000e+00
3872 3872 3.000000000000000e+00
3873 213 -1.000000000000000e+00
3873 1499 -1.000000000000000e+00
3873 1612 -1.581138819456100e-01
3873 2195 -1.000000000000000e+00
3873 3873 3.158113881945610e+00
3874 72 -1.188982248306274e+00
3874 865 -1.000000000000000e+00
3874 1053 -1.000000000000000e+00
3874 3874 3.188982248306274e+00
3875 7 -1.000000000000000e+00
3875 484 -1.000000000000000e+00
3875 3370 -1.000000000000000e+00
3875 3875 3.000000000000000e+00
3876 6 -1.000000000000000e+00
3876 92 -1.000000000000000e+00
3876 160 -1.825741827487946e-01
3876 500 -1.000000000000000e+00
3876 1535 -1.740776598453522e-01
3876 2817 -2.357022464275360e-01
3876 3473 -3.333333432674408e-01
3876 3876 3.925687432289124e+00
3877 162 -1.000000000000000e+00
3877 1472 -1.000000000000000e+00
3877 1677 -1.000000000000000e+00
3877 3877 3.000000000000000e+00
3878 1267 -1.000000000000000e+00
3878 3462 -1.000000000000000e+00
3878 3827 -1.000000000000000e+00
3878 3878 3.000000000000000e+00
3879 1067 -1.000000000000000e+00
3879 1839 -1.000000000000000e+00
3879 2330 -1.000000000000000e+00
3879 3879 3.000000000000000e+00
3880 34 -1.000000000000000e+00
3880 47 -1.000000000000000e+00
3880 2788 -1.000000000000000e+00
3880 3880 3.000000000000000e+00
3881 157 -1.000000000000000e+00
3881 184 -1.000000000000000e+00
3881 1790 -1.000000000000000e+00
3881 3881 3.000000000000000e+00
3882 17 -1.000000000000000e+00
3882 853 -1.176776692271233e+00
3882 1220 -1.961161345243454e-01
3882 1665 -1.000000000000000e+00
3882 2147 -2.626128792762756e-01
3882 3882 3.635505706071854e+00
3883 891 -1.000000000000000e+00
3883 1064 -1.000000000000000e+00
3883 1989 -1.000000000000000e+00
3883 3883 3.000000000000000e+00
3884 885 -1.000000000000000e+00
3884 1352 -1.000000000000000e+00
3884 1750 -1.000000000000000e+00
3884 2280 -3.872983157634735e-01
3884 2295 -4.082482755184174e-01
3884 2323 -2.357022464275360e-01
3884 3884 4.031248837709427e+00
3885 52 -1.000000000000000e+00
3885 263 -1.000000000000000e+00
3885 996 -1.000000000000000e+00
3885 1307 -1.543033570051193e-01
3885 3885 3.154303357005119e+00
3886 6 -1.000000000000000e+00
3886 288 -1.000000000000000e+00
3886 3610 -1.000000000000000e+00
3886 3886 3.000000000000000e+00
3887 1161 -1.000000000000000e+00
3887 1316 -1.000000000000000e+00
3887 1760 -1.000000000000000e+00
3887 2423 -1.386750489473343e-01
3887 2587 -2.500000000000000e-01
3887 3887 3.388675048947334e+00
3888 193 -1.000000000000000e+00
3888 271 -1.000000000000000e+00
3888 530 -1.000000000000000e+00
3888 3888 4.000000000000000e+00
3889 5 -1.000000000000000e+00
3889 32 -1.000000000000000e+00
3889 93 -1.000000000000000e+00
3889 3889 3.000000000000000e+00
3890 602 -1.000000000000000e+00
3890 1381 -1.000000000000000e+00
3890 1989 -1.000000000000000e+00
3890 3890 3.000000000000000e+00
3891 201 -1.000000000000000e+00
3891 1438 -1.000000000000000e+00
3891 1829 -1.000000000000000e+00
3891 3891 3.000000000000000e+00
3892 35 -1.000000000000000e+00
3892 78 -1.000000000000000e+00
3892 635 -1.000000000000000e+00
3892 3892 3.000000000000000e+00
3893 715 -1.000000000000000e+00
3893 1576 -1.000000000000000e+00
3893 3733 -1.000000000000000e+00
3893 3893 3.000000000000000e+00
3894 1414 -1.000000000000000e+00
3894 1812 -1.000000000000000e+00
3894 1977 -1.000000000000000e+00
3894 3894 3.000000000000000e+00
3895 6 -1.000000000000000e+00
3895 2211 -1.000000000000000e+00
3895 3093 -3.015113472938538e-01
3895 3306 -1.000000000000000e+00
3895 3895 3.301511347293854e+00
3896 7 -1.000000000000000e+00
3896 117 -1.000000000000000e+00
3896 1289 -1.000000000000000e+00
3896 3896 3.316227763891220e+00
3897 23 -1.000000000000000e+00
3897 679 -1.000000000000000e+00
3897 993 -1.000000000000000e+00
3897 3897 3.000000000000000e+00
3898 159 -1.000000000000000e+00
3898 584 -1.000000000000000e+00
3898 716 -1.000000000000000e+00
3898 3898 3.000000000000000e+00
3899 36 -1.000000000000000e+00
3899 3157 -1.000000000000000e+00
3899 3290 -1.000000000000000e+00
3899 3899 3.000000000000000e+00
3900 98 -1.000000000000000e+00
3900 2280 -1.000000000000000e+00
3900 3577 -1.000000000000000e+00
3900 3900 3.000000000000000e+00
3901 17 -1.000000000000000e+00
3901 1057 -1.000000000000000e+00
3901 2303 -1.000000000000000e+00
3901 3901 3.000000000000000e+00
3902 412 -1.000000000000000e+00
3902 542 -1.000000000000000e+00
3902 1547 -3.333333432674408e-01
3902 1808 -1.000000000000000e+00
3902 3902 3.333333343267441e+00
3903 169 -1.792842894792557e-01
3903 309 -1.313064396381378e-01
3903 1289 -1.000000000000000e+00
3903 1876 -1.000000000000000e+00
3903 3384 -1.000000000000000e+00
3903 3903 3.626818493008614e+00
3904 231 -1.000000000000000e+00
3904 1511 -1.000000000000000e+00
3904 2593 -1.000000000000000e+00
3904 3904 3.000000000000000e+00
3905 71 -1.150755673646927e+00
3905 99 -1.000000000000000e+00
3905 2917 -1.000000000000000e+00
3905 3905 3.150755673646927e+00
3906 342 -1.360827684402466e-01
3906 451 -1.000000000000000e+00
3906 1039 -1.666666716337204e-01
3906 1050 -1.000000000000000e+00
3906 2287 -1.000000000000000e+00
3906 3906 3.302749440073967e+00
3907 731 -1.000000000000000e+00
3907 1086 -1.000000000000000e+00
3907 1989 -1.000000000000000e+00
3907 3907 3.000000000000000e+00
3908 1900 -1.000000000000000e+00
3908 2002 -1.000000000000000e+00
3908 2478 -1.000000000000000e+00
3908 3908 3.000000000000000e+00
3909 164 -1.000000000000000e+00
3909 259 -1.000000000000000e+00
3909 3443 -1.000000000000000e+00
3909 3909 3.000000000000000e+00
3910 373 -1.000000000000000e+00
3910 2385 -1.000000000000000e+00
3910 2640 -1.176776692271233e+00
3910 3910 3.176776692271233e+00
3911 430 -1.000000000000000e+00
3911 967 -1.000000000000000e+00
3911 2755 -1.000000000000000e+00
3911 3911 3.000000000000000e+00
3912 23 -1.000000000000000e+00
3912 36 -1.000000000000000e+00
3912 915 -1.000000000000000e+00
3912 3912 3.000000000000000e+00
3913 24 -1.000000000000000e+00
3913 710 -1.000000000000000e+00
3913 3808 -1.000000000000000e+00
3913 3913 3.000000000000000e+00
3914 127 -1.000000000000000e+00
3914 1585 -1.092450030148029e+00
3914 1629 -1.000000000000000e+00
3914 3914 3.092450030148029e+00
3915 74 -1.000000000000000e+00
3915 87 -2.425356358289719e-01
3915 627 -1.000000000000000e+00
3915 1042 -1.000000000000000e+00
3915 2015 -4.472135901451111e-01
3915 3915 3.689749225974083e+00
3916 6 -1.000000000000000e+00
3916 2174 -1.000000000000000e+00
3916 2707 -1.000000000000000e+00
3916 3916 3.000000000000000e+00
3917 413 -1.000000000000000e+00
3917 811 -1.000000000000000e+00
3917 2911 -1.000000000000000e+00
3917 3917 3.000000000000000e+00
3918 535 -1.000000000000000e+00
3918 907 -1.000000000000000e+00
3918 2394 -1.158113881945610e+00
3918 3918 3.158113881945610e+00
3919 2 -1.000000000000000e+00
3919 2101 -1.000000000000000e+00
3919 3075 -1.000000000000000e+00
3919 3919 3.000000000000000e+00
3920 116 -1.000000000000000e+00
3920 942 -1.000000000000000e+00
3920 1486 -1.000000000000000e+00
3920 3920 3.000000000000000e+00
3921 20 -1.000000000000000e+00
3921 23 -1.000000000000000e+00
3921 290 -1.000000000000000e+00
3921 3921 3.000000000000000e+00
3922 877 -1.000000000000000e+00
3922 1193 -1.288675129413605e+00
3922 1631 -1.000000000000000e+00
3922 3922 3.577350258827209e+00
3923 7 -1.000000000000000e+00
3923 486 -1.324532330036163e-01
3923 3237 -1.000000000000000e+00
3923 3745 -1.000000000000000e+00
3923 3923 3.132453233003616e+00
3924 5 -1.000000000000000e+00
3924 1813 -3.162277638912201e-01
3924 2755 -1.000000000000000e+00
3924 2804 -1.000000000000000e+00
3924 3232 -2.236067950725555e-01
3924 3924 3.539834558963776e+00
3925 1020 -1.000000000000000e+00
3925 1417 -1.000000000000000e+00
3925 2871 -1.160128161311150e+00
3925 3925 3.437478259205818e+00
3926 300 -1.000000000000000e+00
3926 906 -1.000000000000000e+00
3926 1622 -1.000000000000000e+00
3926 3663 -1.290994435548782e-01
3926 3926 3.129099443554878e+00
3927 135 -1.000000000000000e+00
3927 247 -1.000000000000000e+00
3927 661 -1.000000000000000e+00
3927 3927 3.000000000000000e+00
3928 158 -1.000000000000000e+00
3928 386 -1.601281613111496e-01
3928 685 -1.000000000000000e+00
3928 1226 -1.000000000000000e+00
3928 3928 3.160128161311150e+00
3929 220 -1.000000000000000e+00
3929 1304 -1.000000000000000e+00
3929 2917 -1.000000000000000e+00
3929 3929 3.000000000000000e+00
3930 78 -1.000000000000000e+00
3930 1229 -1.000000000000000e+00
3930 1597 -1.000000000000000e+00
3930 3016 -3.162277638912201e-01
3930 3930 3.316227763891220e+00
3931 26 -1.000000000000000e+00
3931 156 -1.000000000000000e+00
3931 1520 -1.000000000000000e+00
3931 3931 3.000000000000000e+00
3932 7 -1.000000000000000e+00
3932 23 -1.000000000000000e+00
3932 1480 -1.000000000000000e+00
3932 3932 3.000000000000000e+00
3933 1150 -1.000000000000000e+00
3933 1363 -1.000000000000000e+00
3933 2923 -1.000000000000000e+00
3933 3933 3.000000000000000e+00
3934 11 -1.000000000000000e+00
3934 231 -1.149071186780930e+00
3934 638 -1.000000000000000e+00
3934 3934 3.149071186780930e+00
3935 41 -3.333333432674408e-01
3935 383 -1.000000000000000e+00
3935 1552 -2.581988871097565e-01
3935 1562 -2.800560295581818e-01
3935 1687 -3.202563226222992e-01
3935 1901 -1.000000000000000e+00
3935 2254 -3.202563226222992e-01
3935 3308 -1.000000000000000e+00
3935 3935 4.512100905179977e+00
3936 458 -1.000000000000000e+00
3936 1380 -3.244428336620331e-01
3936 1776 -1.000000000000000e+00
3936 2019 -1.000000000000000e+00
3936 3936 3.324442833662033e+00
3937 1010 -1.000000000000000e+00
3937 3003 -1.235702246427536e+00
3937 3856 -1.000000000000000e+00
3937 3937 3.235702246427536e+00
3938 458 -1.000000000000000e+00
3938 733 -1.119522862136364e+00
3938 1519 -1.250000149011612e-01
3938 3110 -1.178511381149292e-01
3938 3343 -1.000000000000000e+00
3938 3938 3.362374015152454e+00
3939 316 -1.000000000000000e+00
3939 1614 -1.000000000000000e+00
3939 1776 -1.000000000000000e+00
3939 3939 3.000000000000000e+00
3940 60 -1.000000000000000e+00
3940 988 -1.000000000000000e+00
3940 3422 -1.000000000000000e+00
3940 3940 3.000000000000000e+00
3941 103 -1.000000000000000e+00
3941 1201 -1.000000000000000e+00
3941 1461 -1.000000000000000e+00
3941 3941 3.000000000000000e+00
3942 27 -1.000000000000000e+00
3942 82 -1.000000000000000e+00
3942 332 -1.250000000000000e-01
3942 1439 -2.886751294136047e-01
3942 2871 -2.886751294136047e-01
3942 2938 -1.000000000000000e+00
3942 3925 -2.773500978946686e-01
3942 3942 3.979700356721878e+00
3943 264 -1.000000000000000e+00
3943 532 -1.000000000000000e+00
3943 3593 -1.000000000000000e+00
3943 3943 3.000000000000000e+00
3944 867 -1.000000000000000e+00
3944 1399 -2.847473919391632e-01
3944 1427 -1.000000000000000e+00
3944 1867 -2.886751294136047e-01
3944 2053 -2.981424033641815e-01
3944 2064 -2.800560295581818e-01
3944 2433 -2.144225090742111e-01
3944 2783 -5.773502588272095e-01
3944 2953 -4.714044928550720e-01
3944 3574 -1.000000000000000e+00
3944 3645 -4.714044928550720e-01
3944 3944 5.886202707886696e+00
3945 576 -1.000000000000000e+00
3945 651 -1.000000000000000e+00
3945 749 -1.000000000000000e+00
3945 3945 3.000000000000000e+00
3946 1129 -1.000000000000000e+00
3946 2257 -2.672612369060516e-01
3946 3012 -1.000000000000000e+00
3946 3304 -1.000000000000000e+00
3946 3946 3.267261236906052e+00
3947 423 -1.118033975362778e-01
3947 1208 -1.000000000000000e+00
3947 1774 -1.000000000000000e+00
3947 2258 -1.042572036385536e-01
3947 2418 -1.000000000000000e+00
3947 2838 -1.767766922712326e-01
3947 3947 3.392837293446064e+00
3948 1117 -1.140028014779091e+00
3948 1471 -1.000000000000000e+00
3948 3180 -1.000000000000000e+00
3948 3948 3.140028014779091e+00
3949 305 -1.000000000000000e+00
3949 2163 -1.000000000000000e+00
3949 3443 -1.000000000000000e+00
3949 3949 3.000000000000000e+00
3950 82 -1.000000000000000e+00
3950 1269 -1.000000000000000e+00
3950 2373 -1.223606795072556e+00
3950 3950 3.223606795072556e+00
3951 396 -1.000000000000000e+00
3951 974 -1.000000000000000e+00
3951 2011 -1.000000000000000e+00
3951 3951 3.204124137759209e+00
3952 76 -1.000000000000000e+00
3952 515 -1.000000000000000e+00
3952 2712 -1.000000000000000e+00
3952 3952 3.000000000000000e+00
3953 214 -1.000000000000000e+00
3953 965 -1.000000000000000e+00
3953 2512 -1.000000000000000e+00
3953 3953 3.000000000000000e+00
3954 304 -3.779644966125488e-01
3954 748 -1.000000000000000e+00
3954 2578 -1.000000000000000e+00
3954 2682 -1.000000000000000e+00
3954 3954 3.377964496612549e+00
3955 23 -1.000000000000000e+00
3955 374 -1.000000000000000e+00
3955 1703 -2.236067950725555e-01
3955 3540 -1.000000000000000e+00
3955 3955 3.223606795072556e+00
3956 118 -1.000000000000000e+00
3956 893 -1.000000000000000e+00
3956 1432 -2.500000298023224e-01
3956 1558 -2.500000298023224e-01
3956 1697 -1.000000000000000e+00
3956 1918 -2.301436513662338e-01
3956 3956 3.730143710970879e+00
3957 974 -1.000000000000000e+00
3957 2156 -1.000000000000000e+00
3957 3757 -1.000000000000000e+00
3957 3951 -2.041241377592087e-01
3957 3957 3.204124137759209e+00
3958 57 -1.000000000000000e+00
3958 1029 -1.000000000000000e+00
3958 3323 -1.000000000000000e+00
3958 3958 3.000000000000000e+00
3959 239 -1.000000000000000e+00
3959 787 -1.000000000000000e+00
3959 2332 -1.000000000000000e+00
3959 3959 4.158113881945610e+00
3960 673 -1.000000000000000e+00
3960 928 -1.000000000000000e+00
3960 1165 -1.000000000000000e+00
3960 3960 3.000000000000000e+00
3961 104 -1.000000000000000e+00
3961 732 -1.000000000000000e+00
3961 3959 -1.158113881945610e+00
3961 3961 3.158113881945610e+00
3962 32 -1.000000000000000e+00
3962 753 -1.000000000000000e+00
3962 2499 -2.581988871097565e-01
3962 2880 -1.000000000000000e+00
3962 3962 3.258198887109756e+00
3963 548 -1.000000000000000e+00
3963 2067 -1.000000000000000e+00
3963 3298 -1.000000000000000e+00
3963 3963 3.000000000000000e+00
3964 17 -1.000000000000000e+00
3964 604 -1.000000000000000e+00
3964 1757 -1.000000000000000e+00
3964 3964 3.000000000000000e+00
3965 70 -1.000000000000000e+00
3965 242 -1.000000000000000e+00
3965 337 -1.000000000000000e+00
3965 3523 -1.000000000000000e+00
3965 3965 4.000000000000000e+00
3966 460 -1.000000000000000e+00
3966 725 -1.000000000000000e+00
3966 1239 -1.000000000000000e+00
3966 1442 -1.348399817943573e-01
3966 3966 3.134839981794357e+00
3967 782 -1.000000000000000e+00
3967 1465 -1.000000000000000e+00
3967 1639 -1.000000000000000e+00
3967 1720 -1.666666865348816e-01
3967 3967 3.166666686534882e+00
3968 45 -1.000000000000000e+00
3968 77 -1.000000000000000e+00
3968 3278 -1.000000000000000e+00
3968 3968 3.000000000000000e+00
3969 2 -1.000000000000000e+00
3969 584 -1.117851138114929e+00
3969 1115 -1.000000000000000e+00
3969 3969 3.117851138114929e+00
3970 307 -1.000000000000000e+00
3970 1108 -1.000000000000000e+00
3970 3867 -1.000000000000000e+00
3970 3970 3.000000000000000e+00
3971 253 -1.000000000000000e+00
3971 2627 -1.308606714010239e+00
3971 3077 -1.000000000000000e+00
3971 3971 3.308606714010239e+00
3972 894 -1.000000000000000e+00
3972 1682 -1.000000000000000e+00
3972 2430 -1.000000000000000e+00
3972 3972 4.707106769084930e+00
3973 847 -1.000000000000000e+00
3973 1055 -1.000000000000000e+00
3973 1815 -1.000000000000000e+00
3973 3973 3.000000000000000e+00
3974 105 -1.000000000000000e+00
3974 496 -1.000000000000000e+00
3974 1335 -1.000000000000000e+00
3974 2972 -2.041241377592087e-01
3974 3974 3.204124137759209e+00
3975 525 -1.000000000000000e+00
3975 1464 -1.000000000000000e+00
3975 3430 -1.000000000000000e+00
3975 3975 3.000000000000000e+00
3976 17 -1.000000000000000e+00
3976 119 -1.000000000000000e+00
3976 1320 -4.472135901451111e-01
3976 2972 -1.000000000000000e+00
3976 3976 3.447213590145111e+00
3977 11 -1.000000000000000e+00
3977 31 -1.000000000000000e+00
3977 565 -1.000000000000000e+00
3977 3977 3.000000000000000e+00
3978 210 -1.000000000000000e+00
3978 1624 -1.000000000000000e+00
3978 2418 -1.556997895240784e-01
3978 2797 -1.000000000000000e+00
3978 3978 3.155699789524078e+00
3979 10 -1.000000000000000e+00
3979 778 -1.000000000000000e+00
3979 1720 -1.000000000000000e+00
3979 3979 3.000000000000000e+00
3980 121 -1.000000000000000e+00
3980 749 -1.000000000000000e+00
3980 1241 -1.000000000000000e+00
3980 1775 -1.250000149011612e-01
3980 3661 -1.020620763301849e-01
3980 3980 3.227062091231346e+00
3981 808 -1.000000000000000e+00
3981 2108 -1.000000000000000e+00
3981 2336 -1.000000000000000e+00
3981 3981 3.000000000000000e+00
3982 218 -1.000000000000000e+00
3982 1570 -1.000000000000000e+00
3982 1933 -1.000000000000000e+00
3982 3982 3.000000000000000e+00
3983 730 -1.000000000000000e+00
3983 1237 -1.000000000000000e+00
3983 1627 -2.581988871097565e-01
3983 2940 -9.016696363687515e-02
3983 3741 -1.000000000000000e+00
3983 3983 3.348365850746632e+00
3984 617 -1.000000000000000e+00
3984 2002 -1.000000000000000e+00
3984 3754 -1.000000000000000e+00
3984 3984 3.000000000000000e+00
3985 15 -1.000000000000000e+00
3985 138 -1.000000000000000e+00
3985 2338 -1.212678179144859e-01
3985 2689 -1.000000000000000e+00
3985 2731 -1.825741827487946e-01
3985 3985 3.303842000663280e+00
3986 559 -1.000000000000000e+00
3986 627 -1.000000000000000e+00
3986 798 -1.000000000000000e+00
3986 3986 3.000000000000000e+00
3987 16 -1.000000000000000e+00
3987 400 -1.178511232137680e-01
3987 420 -1.000000000000000e+00
3987 3366 -1.182574182748795e+00
3987 3987 3.300425305962563e+00
3988 103 -1.000000000000000e+00
3988 1826 -1.000000000000000e+00
3988 1972 -1.090166963636875e+00
3988 3988 3.090166963636875e+00
3989 137 -1.000000000000000e+00
3989 209 -1.000000000000000e+00
3989 240 -1.000000000000000e+00
3989 2492 -9.365857392549515e-02
3989 3989 3.093658573925495e+00
3990 53 -1.000000000000000e+00
3990 685 -1.000000000000000e+00
3990 2344 -1.000000000000000e+00
3990 3990 3.000000000000000e+00
3991 292 -1.000000000000000e+00
3991 1832 -1.000000000000000e+00
3991 3278 -1.000000000000000e+00
3991 3991 3.000000000000000e+00
3992 224 -1.000000000000000e+00
3992 374 -1.000000000000000e+00
3992 3714 -1.000000000000000e+00
3992 3992 3.000000000000000e+00
3993 559 -1.000000000000000e+00
3993 1315 -1.195228472352028e-01
3993 2430 -1.000000000000000e+00
3993 3756 -1.000000000000000e+00
3993 3993 3.119522847235203e+00
3994 206 -1.000000000000000e+00
3994 1546 -1.125988155603409e+00
3994 1650 -1.000000000000000e+00
3994 3994 3.125988155603409e+00
3995 571 -1.000000000000000e+00
3995 1484 -1.000000000000000e+00
3995 1906 -1.000000000000000e+00
3995 3995 3.000000000000000e+00
3996 2019 -1.000000000000000e+00
3996 2730 -1.000000000000000e+00
3996 3617 -1.000000000000000e+00
3996 3996 3.000000000000000e+00
3997 346 -1.000000000000000e+00
3997 1063 -1.000000000000000e+00
3997 3888 -1.000000000000000e+00
3997 3997 3.000000000000000e+00
3998 15 -1.000000000000000e+00
3998 815 -1.000000000000000e+00
3998 3585 -1.000000000000000e+00
3998 3998 3.000000000000000e+00
3999 12 -1.000000000000000e+00
3999 745 -1.000000000000000e+00
3999 804 -1.154303357005119e+00
3999 1418 -2.041241377592087e-01
3999 1920 -1.571348309516907e-01
3999 3999 3.515562325716019e+00
4000 264 -1.000000000000000e+00
4000 1211 -1.000000000000000e+00
4000 2443 -1.136082753539085e+00
4000 4000 3.136082753539085e+00
4001 82 -1.000000000000000e+00
4001 371 -1.000000000000000e+00
4001 2616 -1.000000000000000e+00
4001 4001 3.000000000000000e+00
4002 467 -1.825741827487946e-01
4002 1714 -1.000000000000000e+00
4002 3159 -1.000000000000000e+00
4002 3972 -1.000000000000000e+00
4002 4002 3.182574182748795e+00
4003 334 -1.000000000000000e+00
4003 497 -1.000000000000000e+00
4003 1524 -1.165805324912071e+00
4003 4003 3.165805324912071e+00
4004 26 -1.000000000000000e+00
4004 581 -1.000000000000000e+00
4004 700 -1.000000000000000e+00
4004 4004 3.000000000000000e+00
4005 1747 -1.000000000000000e+00
4005 1929 -1.000000000000000e+00
4005 2106 -1.000000000000000e+00
4005 4005 3.000000000000000e+00
4006 135 -1.543033570051193e-01
4006 348 -1.000000000000000e+00
4006 1034 -1.924500912427902e-01
4006 1255 -1.000000000000000e+00
4006 2318 -1.000000000000000e+00
4006 4006 3.346753448247910e+00
4007 1418 -1.000000000000000e+00
4007 2102 -1.076249286532402e+00
4007 2264 -1.000000000000000e+00
4007 4007 4.076249286532402e+00
4008 218 -1.000000000000000e+00
4008 758 -1.000000000000000e+00
4008 2092 -2.236067950725555e-01
4008 3480 -1.000000000000000e+00
4008 4008 3.223606795072556e+00
4009 458 -1.000000000000000e+00
4009 1346 -1.000000000000000e+00
4009 2096 -1.000000000000000e+00
4009 4009 3.000000000000000e+00
4010 803 -1.000000000000000e+00
4010 1427 -1.000000000000000e+00
4010 2718 -1.000000000000000e+00
4010 4010 3.000000000000000e+00
4011 1263 -1.000000000000000e+00
4011 1286 -1.000000000000000e+00
4011 2523 -1.000000000000000e+00
4011 4011 3.000000000000000e+00
4012 969 -1.000000000000000e+00
4012 1260 -1.000000000000000e+00
4012 2135 -1.000000000000000e+00
4012 4012 3.000000000000000e+00
4013 460 -1.000000000000000e+00
4013 2104 -1.000000000000000e+00
4013 3176 -1.000000000000000e+00
4013 4013 3.000000000000000e+00
4014 2307 -1.000000000000000e+00
4014 2478 -1.000000000000000e+00
4014 2881 -1.000000000000000e+00
4014 4014 3.000000000000000e+00
4015 55 -1.000000000000000e+00
4015 1201 -1.000000000000000e+00
4015 3159 -1.000000000000000e+00
4015 4015 3.000000000000000e+00
4016 104 -1.000000000000000e+00
4016 480 -1.000000000000000e+00
4016 1145 -1.386750489473343e-01
4016 3843 -1.000000000000000e+00
4016 4016 3.138675048947334e+00
4017 19 -1.000000000000000e+00
4017 136 -1.000000000000000e+00
4017 231 -1.000000000000000e+00
4017 4017 3.000000000000000e+00
4018 30 -1.000000000000000e+00
4018 97 -1.000000000000000e+00
4018 1116 -1.000000000000000e+00
4018 4018 3.000000000000000e+00
4019 605 -1.000000000000000e+00
4019 733 -1.000000000000000e+00
4019 1221 -1.000000000000000e+00
4019 3674 -1.690308600664139e-01
4019 4019 3.169030860066414e+00
4020 80 -1.000000000000000e+00
4020 1911 -1.000000000000000e+00
4020 1974 -1.000000000000000e+00
4020 4020 3.000000000000000e+00
4021 540 -1.000000000000000e+00
4021 648 -1.000000000000000e+00
4021 1024 -1.000000000000000e+00
4021 1806 -2.182179093360901e-01
4021 4021 3.218217909336090e+00
4022 651 -1.000000000000000e+00
4022 2303 -1.000000000000000e+00
4022 3015 -1.000000000000000e+00
4022 4022 3.000000000000000e+00
4023 152 -1.000000000000000e+00
4023 1154 -1.000000000000000e+00
4023 1230 -1.000000000000000e+00
4023 4023 3.000000000000000e+00
4024 105 -1.000000000000000e+00
4024 274 -1.000000000000000e+00
4024 756 -1.000000000000000e+00
4024 4024 3.000000000000000e+00
4025 438 -1.000000000000000e+00
4025 3803 -1.000000000000000e+00
4025 3848 -1.000000000000000e+00
4025 4025 3.000000000000000e+00
4026 147 -1.000000000000000e+00
4026 159 -1.000000000000000e+00
4026 4007 -1.000000000000000e+00
4026 4026 3.000000000000000e+00
4027 2033 -1.000000000000000e+00
4027 2280 -1.000000000000000e+00
4027 3805 -1.000000000000000e+00
4027 4027 3.204124137759209e+00
4028 21 -1.000000000000000e+00
4028 582 -1.000000000000000e+00
4028 3834 -1.000000000000000e+00
4028 4028 3.000000000000000e+00
4029 406 -1.000000000000000e+00
4029 1830 -1.000000000000000e+00
4029 3479 -1.149071186780930e+00
4029 4029 3.149071186780930e+00
4030 867 -1.000000000000000e+00
4030 1865 -1.000000000000000e+00
4030 3247 -1.000000000000000e+00
4030 4030 3.000000000000000e+00
4031 168 -1.000000000000000e+00
4031 765 -1.134231194853783e+00
4031 1998 -1.000000000000000e+00
4031 4031 3.134231194853783e+00
4032 7 -1.000000000000000e+00
4032 61 -1.000000000000000e+00
4032 146 -2.828427255153656e-01
4032 673 -4.082483053207397e-01
4032 775 -1.000000000000000e+00
4032 1290 -2.132007181644440e-01
4032 1336 -3.535533845424652e-01
4032 2062 -2.500000298023224e-01
4032 2275 -2.294157445430756e-01
4032 2455 -1.443375647068024e-01
4032 3896 -3.162277638912201e-01
4032 3972 -7.071067690849304e-01
4032 4032 5.904933005571365e+00
4033 9 -1.000000000000000e+00
4033 424 -1.000000000000000e+00
4033 2352 -1.091089546680450e-01
4033 2592 -1.000000000000000e+00
4033 2667 -1.020620763301849e-01
4033 4033 3.211171030998230e+00
4034 23 -1.000000000000000e+00
4034 821 -1.000000000000000e+00
4034 2176 -1.666666567325592e-01
4034 2278 -1.000000000000000e+00
4034 4034 3.166666656732559e+00
4035 5 -1.000000000000000e+00
4035 2569 -1.115470044314861e+00
4035 2884 -1.000000000000000e+00
4035 4035 3.115470044314861e+00
4036 82 -1.000000000000000e+00
4036 1639 -1.000000000000000e+00
4036 1684 -2.581988871097565e-01
4036 2571 -1.000000000000000e+00
4036 4036 3.258198887109756e+00
4037 7 -1.000000000000000e+00
4037 8 -1.000000000000000e+00
4037 82 -1.000000000000000e+00
4037 193 -2.500000298023224e-01
4037 200 -1.666666865348816e-01
4037 363 -1.889822483062744e-01
4037 1043 -2.182179093360901e-01
4037 1286 -2.886751294136047e-01
4037 1960 -2.672612369060516e-01
4037 2500 -2.948839068412781e-01
4037 2601 -1.889822483062744e-01
4037 3152 -2.236067950725555e-01
4037 4037 5.087276190519333e+00
4038 2428 -1.000000000000000e+00
4038 3525 -1.000000000000000e+00
4038 3800 -1.000000000000000e+00
4038 4038 3.000000000000000e+00
4039 65 -1.000000000000000e+00
4039 611 -1.000000000000000e+00
4039 857 -1.000000000000000e+00
4039 4039 3.000000000000000e+00
4040 331 -1.000000000000000e+00
4040 435 -1.000000000000000e+00
4040 656 -1.000000000000000e+00
4040 1346 -1.000000000000000e+00
4040 3512 -1.000000000000000e+00
4040 4040 5.000000000000000e+00
4041 104 -1.000000000000000e+00
4041 951 -1.000000000000000e+00
4041 1193 -5.000000596046448e-01
4041 3303 -1.000000000000000e+00
4041 3922 -2.886751294136047e-01
4041 4041 3.788675189018250e+00
4042 62 -1.000000000000000e+00
4042 879 -1.000000000000000e+00
4042 2752 -1.000000000000000e+00
4042 4042 3.000000000000000e+00
4043 190 -1.000000000000000e+00
4043 2168 -1.000000000000000e+00
4043 2317 -1.000000000000000e+00
4043 4043 3.000000000000000e+00
4044 15 -1.000000000000000e+00
4044 32 -1.000000000000000e+00
4044 416 -1.000000000000000e+00
4044 2024 -1.754115968942642e-01
4044 4044 3.175411596894264e+00
4045 117 -1.000000000000000e+00
4045 1134 -1.000000000000000e+00
4045 2744 -1.000000000000000e+00
4045 4045 3.000000000000000e+00
4046 112 -1.000000000000000e+00
4046 814 -1.000000000000000e+00
4046 3827 -1.000000000000000e+00
4046 4046 3.000000000000000e+00
4047 110 -1.000000000000000e+00
4047 1488 -1.000000000000000e+00
4047 2317 -1.062994077801704e+00
4047 4047 3.062994077801704e+00
4048 452 -1.000000000000000e+00
4048 2065 -1.000000000000000e+00
4048 2417 -1.000000000000000e+00
4048 4048 3.000000000000000e+00
4049 46 -1.000000000000000e+00
4049 545 -1.767766922712326e-01
4049 744 -1.581138819456100e-01
4049 1060 -1.000000000000000e+00
4049 1130 -2.236067950725555e-01
4049 2146 -1.581138819456100e-01
4049 2190 -1.000000000000000e+00
4049 3578 -1.889822483062744e-01
4049 4027 -2.041241377592087e-01
4049 4049 4.109717637300491e+00
4050 169 -1.511857807636261e-01
4050 309 -1.000000000000000e+00
4050 1199 -1.000000000000000e+00
4050 2057 -1.754115968942642e-01
4050 3384 -1.000000000000000e+00
4050 3903 -3.162277638912201e-01
4050 4050 3.642825141549110e+00
4051 5 -1.000000000000000e+00
4051 26 -1.000000000000000e+00
4051 1798 -1.000000000000000e+00
4051 2190 -1.767766922712326e-01
4051 4051 3.176776692271233e+00
4052 425 -1.000000000000000e+00
4052 856 -1.203858554363251e-01
4052 3308 -1.000000000000000e+00
4052 3785 -1.000000000000000e+00
4052 4052 3.120385855436325e+00
4053 128 -1.825741827487946e-01
4053 256 -1.200000002980232e+00
4053 852 -1.632993072271347e-01
4053 932 -1.000000000000000e+00
4053 1796 -1.000000000000000e+00
4053 1959 -2.860387861728668e-01
4053 2858 -2.236067950725555e-01
4053 4053 4.055519074201584e+00
4054 184 -1.000000000000000e+00
4054 3509 -1.000000000000000e+00
4054 3568 -1.000000000000000e+00
4054 4054 3.000000000000000e+00
4055 1 -1.000000000000000e+00
4055 302 -1.000000000000000e+00
4055 2081 -1.000000000000000e+00
4055 4055 3.000000000000000e+00
4056 2032 -1.000000000000000e+00
4056 2320 -1.000000000000000e+00
4056 3535 -1.000000000000000e+00
4056 4056 3.000000000000000e+00
4057 19 -1.000000000000000e+00
4057 48 -1.000000000000000e+00
4057 244 -1.000000000000000e+00
4057 4057 3.000000000000000e+00
