%%MatrixMarket matrix coordinate integer symmetric
%
5196 5196 16103
1 1 202
2 1 -1
2 2 171
3 1 -1
3 3 31
4 1 -1
4 2 -1
4 4 23
5 2 -1
5 3 -1
5 5 147
6 1 -1
6 5 -1
6 6 43
7 2 -1
7 5 -1
7 7 105
8 1 -1
8 2 -1
8 8 18
9 2 -1
9 4 -1
9 9 23
10 1 -1
10 7 -1
10 10 33
11 1 -1
11 9 -1
11 11 52
12 1 -1
12 6 -1
12 12 42
13 5 -1
13 6 -1
13 13 22
14 1 -1
14 5 -1
14 14 19
15 1 -1
15 9 -1
15 15 15
16 2 -1
16 5 -1
16 16 70
17 3 -1
17 5 -1
17 17 72
18 1 -1
18 2 -1
18 18 36
19 1 -1
19 5 -1
19 19 22
20 1 -1
20 5 -1
20 20 14
21 1 -1
21 9 -1
21 21 28
22 2 -1
22 17 -1
22 22 19
23 1 -1
23 6 -1
23 23 36
24 1 -1
24 5 -1
24 24 7
25 6 -1
25 20 -1
25 25 17
26 1 -1
26 22 -1
26 26 34
27 9 -1
27 14 -1
27 27 50
28 2 -1
28 25 -1
28 28 60
29 1 -1
29 2 -1
29 29 19
30 7 -1
30 27 -1
30 30 27
31 5 -1
31 6 -1
31 31 8
32 7 -1
32 30 -1
32 32 51
33 1 -1
33 11 -1
33 33 23
34 6 -1
34 17 -1
34 34 27
35 6 -1
35 22 -1
35 35 8
36 25 -1
36 26 -1
36 36 41
37 1 -1
37 5 -1
37 37 4
38 7 -1
38 13 -1
38 38 15
39 1 -1
39 18 -1
39 39 11
40 6 -1
40 32 -1
40 40 25
41 5 -1
41 14 -1
41 41 18
42 3 -1
42 38 -1
42 42 16
43 6 -1
43 23 -1
43 43 9
44 2 -1
44 17 -1
44 44 35
45 1 -1
45 28 -1
45 45 12
46 1 -1
46 2 -1
46 46 22
47 16 -1
47 18 -1
47 47 15
48 1 -1
48 16 -1
48 48 12
49 34 -1
49 44 -1
49 49 30
50 2 -1
50 17 -1
50 50 75
51 1 -1
51 7 -1
51 51 32
52 11 -1
52 19 -1
52 52 2
53 18 -1
53 50 -1
53 53 21
54 5 -1
54 38 -1
54 54 6
55 19 -1
55 50 -1
55 55 13
56 7 -1
56 32 -1
56 56 21
57 28 -1
57 32 -1
57 57 27
58 1 -1
58 3 -1
58 58 9
59 11 -1
59 35 -1
59 59 7
60 8 -1
60 34 -1
60 60 8
61 1 -1
61 7 -1
61 61 13
62 1 -1
62 12 -1
62 62 25
63 5 -1
63 6 -1
63 63 32
64 46 -1
64 53 -1
64 64 5
65 5 -1
65 27 -1
65 65 14
66 2 -1
66 27 -1
66 66 32
67 51 -1
67 62 -1
67 67 30
68 2 -1
68 6 -1
68 68 18
69 1 -1
69 17 -1
69 69 21
70 5 -1
70 46 -1
70 70 48
71 40 -1
71 58 -1
71 71 9
72 1 -1
72 36 -1
72 72 9
73 25 -1
73 51 -1
73 73 23
74 16 -1
74 67 -1
74 74 2
75 5 -1
75 67 -1
75 75 16
76 2 -1
76 22 -1
76 76 28
77 23 -1
77 50 -1
77 77 6
78 1 -1
78 70 -1
78 78 21
79 1 -1
79 2 -1
79 79 26
80 3 -1
80 65 -1
80 80 14
81 5 -1
81 44 -1
81 81 11
82 33 -1
82 38 -1
82 82 14
83 7 -1
83 33 -1
83 83 44
84 5 -1
84 75 -1
84 84 4
85 13 -1
85 27 -1
85 85 13
86 11 -1
86 58 -1
86 86 25
87 1 -1
87 5 -1
87 87 15
88 5 -1
88 63 -1
88 88 34
89 1 -1
89 51 -1
89 89 10
90 36 -1
90 70 -1
90 90 9
91 28 -1
91 80 -1
91 91 10
92 1 -1
92 27 -1
92 92 14
93 28 -1
93 80 -1
93 93 21
94 5 -1
94 42 -1
94 94 10
95 58 -1
95 88 -1
95 95 17
96 11 -1
96 50 -1
96 96 11
97 17 -1
97 60 -1
97 97 21
98 2 -1
98 34 -1
98 98 5
99 1 -1
99 31 -1
99 99 5
100 2 -1
100 5 -1
100 100 11
101 70 -1
101 73 -1
101 101 12
102 7 -1
102 70 -1
102 102 25
103 3 -1
103 5 -1
103 103 9
104 1 -1
104 93 -1
104 104 22
105 10 -1
105 83 -1
105 105 9
106 7 -1
106 11 -1
106 106 13
107 2 -1
107 28 -1
107 107 6
108 1 -1
108 68 -1
108 108 12
109 11 -1
109 38 -1
109 109 5
110 27 -1
110 88 -1
110 110 7
111 1 -1
111 7 -1
111 111 10
112 19 -1
112 95 -1
112 112 27
113 2 -1
113 76 -1
113 113 25
114 17 -1
114 63 -1
114 114 12
115 5 -1
115 63 -1
115 115 21
116 7 -1
116 50 -1
116 116 13
117 1 -1
117 14 -1
117 117 8
118 5 -1
118 9 -1
118 118 9
119 1 -1
119 16 -1
119 119 8
120 28 -1
120 55 -1
120 120 12
121 62 -1
121 113 -1
121 121 17
122 9 -1
122 11 -1
122 122 8
123 1 -1
123 86 -1
123 123 7
124 15 -1
124 85 -1
124 124 4
125 10 -1
125 54 -1
125 125 7
126 2 -1
126 50 -1
126 126 13
127 76 -1
127 83 -1
127 127 16
128 16 -1
128 34 -1
128 128 11
129 14 -1
129 27 -1
129 129 11
130 8 -1
130 71 -1
130 130 11
131 1 -1
131 38 -1
131 131 9
132 16 -1
132 49 -1
132 132 18
133 62 -1
133 66 -1
133 133 17
134 2 -1
134 7 -1
134 134 2
135 15 -1
135 25 -1
135 135 10
136 6 -1
136 26 -1
136 136 7
137 45 -1
137 63 -1
137 137 11
138 2 -1
138 76 -1
138 138 12
139 50 -1
139 57 -1
139 139 4
140 1 -1
140 105 -1
140 140 14
141 1 -1
141 2 -1
141 141 41
142 2 -1
142 102 -1
142 142 15
143 16 -1
143 70 -1
143 143 13
144 2 -1
144 7 -1
144 144 18
145 42 -1
145 127 -1
145 145 8
146 51 -1
146 78 -1
146 146 14
147 17 -1
147 58 -1
147 147 13
148 18 -1
148 141 -1
148 148 13
149 7 -1
149 17 -1
149 149 17
150 10 -1
150 15 -1
150 150 18
151 131 -1
151 138 -1
151 151 15
152 17 -1
152 23 -1
152 152 20
153 23 -1
153 66 -1
153 153 13
154 20 -1
154 50 -1
154 154 16
155 5 -1
155 7 -1
155 155 10
156 33 -1
156 148 -1
156 156 8
157 2 -1
157 138 -1
157 157 18
158 5 -1
158 23 -1
158 158 25
159 23 -1
159 88 -1
159 159 16
160 136 -1
160 147 -1
160 160 11
161 69 -1
161 83 -1
161 161 19
162 7 -1
162 19 -1
162 162 14
163 53 -1
163 70 -1
163 163 10
164 36 -1
164 93 -1
164 164 25
165 28 -1
165 79 -1
165 165 7
166 21 -1
166 83 -1
166 166 8
167 3 -1
167 55 -1
167 167 6
168 17 -1
168 19 -1
168 168 4
169 21 -1
169 28 -1
169 169 5
170 57 -1
170 140 -1
170 170 6
171 70 -1
171 132 -1
171 171 13
172 27 -1
172 36 -1
172 172 5
173 20 -1
173 65 -1
173 173 12
174 75 -1
174 97 -1
174 174 27
175 5 -1
175 23 -1
175 175 12
176 2 -1
176 3 -1
176 176 8
177 140 -1
177 159 -1
177 177 16
178 2 -1
178 76 -1
178 178 15
179 144 -1
179 173 -1
179 179 23
180 79 -1
180 172 -1
180 180 10
181 5 -1
181 29 -1
181 181 7
182 32 -1
182 70 -1
182 182 26
183 7 -1
183 144 -1
183 183 8
184 42 -1
184 72 -1
184 184 3
185 67 -1
185 157 -1
185 185 4
186 56 -1
186 90 -1
186 186 6
187 50 -1
187 178 -1
187 187 7
188 70 -1
188 79 -1
188 188 6
189 16 -1
189 34 -1
189 189 22
190 2 -1
190 62 -1
190 190 6
191 26 -1
191 79 -1
191 191 14
192 7 -1
192 73 -1
192 192 5
193 3 -1
193 5 -1
193 193 9
194 26 -1
194 63 -1
194 194 7
195 5 -1
195 83 -1
195 195 19
196 2 -1
196 192 -1
196 196 3
197 2 -1
197 50 -1
197 197 16
198 95 -1
198 183 -1
198 198 5
199 3 -1
199 146 -1
199 199 8
200 2 -1
200 31 -1
200 200 5
201 5 -1
201 179 -1
201 201 6
202 1 -1
202 142 -1
202 202 19
203 17 -1
203 97 -1
203 203 4
204 7 -1
204 40 -1
204 204 19
205 2 -1
205 35 -1
205 205 2
206 13 -1
206 81 -1
206 206 17
207 11 -1
207 206 -1
207 207 14
208 5 -1
208 94 -1
208 208 8
209 56 -1
209 177 -1
209 209 7
210 66 -1
210 173 -1
210 210 19
211 2 -1
211 93 -1
211 211 13
212 78 -1
212 202 -1
212 212 6
213 2 -1
213 161 -1
213 213 4
214 42 -1
214 194 -1
214 214 3
215 44 -1
215 63 -1
215 215 10
216 207 -1
216 210 -1
216 216 3
217 16 -1
217 108 -1
217 217 9
218 4 -1
218 48 -1
218 218 12
219 5 -1
219 34 -1
219 191 -1
219 219 4
220 17 -1
220 68 -1
220 220 16
221 75 -1
221 94 -1
221 221 3
222 26 -1
222 210 -1
222 222 16
223 40 -1
223 66 -1
223 223 6
224 43 -1
224 204 -1
224 224 6
225 30 -1
225 182 -1
225 225 7
226 12 -1
226 100 -1
226 226 10
227 86 -1
227 222 -1
227 227 7
228 5 -1
228 59 -1
228 228 11
229 120 -1
229 202 -1
229 229 18
230 44 -1
230 92 -1
230 230 3
231 161 -1
231 206 -1
231 231 2
232 7 -1
232 12 -1
232 232 9
233 2 -1
233 34 -1
233 233 13
234 11 -1
234 171 -1
234 234 13
235 1 -1
235 10 -1
235 235 11
236 16 -1
236 204 -1
236 236 9
237 20 -1
237 200 -1
237 237 2
238 16 -1
238 92 -1
238 238 18
239 3 -1
239 62 -1
239 239 7
240 83 -1
240 176 -1
240 240 35
241 1 -1
241 218 -1
241 241 15
242 1 -1
242 87 -1
242 242 19
243 32 -1
243 227 -1
243 243 8
244 48 -1
244 69 -1
244 244 10
245 70 -1
245 151 -1
245 245 5
246 12 -1
246 30 -1
246 246 13
247 17 -1
247 155 -1
247 247 12
248 80 -1
248 189 -1
248 248 7
249 7 -1
249 40 -1
249 249 11
250 5 -1
250 114 -1
250 250 10
251 32 -1
251 133 -1
251 251 17
252 2 -1
252 101 -1
252 252 15
253 51 -1
253 150 -1
253 253 13
254 2 -1
254 5 -1
254 254 9
255 72 -1
255 114 -1
255 255 6
256 1 -1
256 26 -1
256 256 5
257 56 -1
257 239 -1
257 257 4
258 140 -1
258 178 -1
258 258 5
259 16 -1
259 103 -1
259 259 6
260 38 -1
260 223 -1
260 260 2
261 27 -1
261 163 -1
261 261 5
262 66 -1
262 156 -1
262 262 6
263 69 -1
263 262 -1
263 263 4
264 57 -1
264 202 -1
264 264 15
265 20 -1
265 177 -1
265 265 4
266 2 -1
266 73 -1
266 266 7
267 48 -1
267 50 -1
267 267 3
268 1 -1
268 2 -1
268 268 4
269 1 -1
269 210 -1
269 269 3
270 149 -1
270 158 -1
270 270 11
271 66 -1
271 110 -1
271 271 8
272 1 -1
272 167 -1
272 272 2
273 120 -1
273 202 -1
273 273 7
274 95 -1
274 264 -1
274 274 16
275 89 -1
275 151 -1
275 275 8
276 2 -1
276 141 -1
276 239 -1
276 276 14
277 174 -1
277 266 -1
277 277 4
278 50 -1
278 86 -1
278 278 18
279 9 -1
279 161 -1
279 279 4
280 70 -1
280 104 -1
280 280 11
281 15 -1
281 26 -1
281 281 6
282 16 -1
282 30 -1
282 282 12
283 32 -1
283 204 -1
283 283 9
284 44 -1
284 102 -1
284 284 16
285 1 -1
285 199 -1
285 285 10
286 127 -1
286 207 -1
286 286 4
287 5 -1
287 78 -1
287 287 13
288 57 -1
288 220 -1
288 288 7
289 5 -1
289 28 -1
289 289 11
290 1 -1
290 240 -1
290 290 5
291 28 -1
291 220 -1
291 291 11
292 27 -1
292 130 -1
292 292 14
293 40 -1
293 236 -1
293 293 5
294 240 -1
294 274 -1
294 294 16
295 28 -1
295 79 -1
295 295 3
296 27 -1
296 229 -1
296 296 13
297 94 -1
297 283 -1
297 297 20
298 5 -1
298 206 -1
298 298 3
299 2 -1
299 12 -1
299 299 2
300 129 -1
300 135 -1
300 300 5
301 144 -1
301 269 -1
301 301 9
302 54 -1
302 133 -1
302 302 6
303 59 -1
303 143 -1
303 303 2
304 7 -1
304 42 -1
304 304 18
305 1 -1
305 2 -1
305 305 6
306 166 -1
306 174 -1
306 207 -1
306 306 11
307 2 -1
307 279 -1
307 307 6
308 65 -1
308 73 -1
308 308 6
309 62 -1
309 146 -1
309 309 6
310 44 -1
310 112 -1
310 310 2
311 35 -1
311 63 -1
311 311 16
312 36 -1
312 211 -1
312 312 2
313 241 -1
313 280 -1
313 313 10
314 34 -1
314 215 -1
314 314 9
315 4 -1
315 108 -1
315 315 3
316 133 -1
316 142 -1
316 316 6
317 5 -1
317 297 -1
317 317 3
318 17 -1
318 197 -1
318 318 16
319 1 -1
319 7 -1
319 319 6
320 155 -1
320 202 -1
320 320 15
321 217 -1
321 278 -1
321 321 5
322 282 -1
322 311 -1
322 322 4
323 115 -1
323 252 -1
323 323 4
324 63 -1
324 142 -1
324 324 3
325 12 -1
325 251 -1
325 325 7
326 1 -1
326 17 -1
326 186 -1
326 326 7
327 5 -1
327 66 -1
327 327 3
328 6 -1
328 87 -1
328 328 5
329 141 -1
329 321 -1
329 329 6
330 16 -1
330 204 -1
330 330 15
331 160 -1
331 174 -1
331 291 -1
331 331 8
332 16 -1
332 45 -1
332 332 8
333 45 -1
333 210 -1
333 333 13
334 36 -1
334 62 -1
334 334 16
335 28 -1
335 50 -1
335 335 15
336 26 -1
336 50 -1
336 336 7
337 7 -1
337 170 -1
337 337 4
338 140 -1
338 235 -1
338 338 13
339 50 -1
339 175 -1
339 339 8
340 127 -1
340 218 -1
340 340 18
341 44 -1
341 49 -1
341 341 12
342 12 -1
342 243 -1
342 342 6
343 29 -1
343 161 -1
343 343 5
344 70 -1
344 117 -1
344 344 12
345 13 -1
345 335 -1
345 345 10
346 23 -1
346 336 -1
346 346 3
347 18 -1
347 129 -1
347 347 8
348 6 -1
348 10 -1
348 348 7
349 44 -1
349 217 -1
349 349 15
350 10 -1
350 67 -1
350 350 9
351 151 -1
351 345 -1
351 351 3
352 61 -1
352 291 -1
352 352 5
353 1 -1
353 114 -1
353 353 8
354 2 -1
354 191 -1
354 354 6
355 88 -1
355 241 -1
355 355 7
356 61 -1
356 313 -1
356 356 19
357 7 -1
357 86 -1
357 357 6
358 3 -1
358 12 -1
358 358 4
359 2 -1
359 162 -1
359 359 8
360 297 -1
360 349 -1
360 360 7
361 81 -1
361 83 -1
361 361 11
362 41 -1
362 104 -1
362 362 16
363 174 -1
363 356 -1
363 363 17
364 76 -1
364 142 -1
364 364 8
365 50 -1
365 359 -1
365 365 5
366 114 -1
366 138 -1
366 366 4
367 64 -1
367 112 -1
367 367 3
368 1 -1
368 292 -1
368 368 10
369 180 -1
369 275 -1
369 369 13
370 210 -1
370 341 -1
370 370 5
371 7 -1
371 192 -1
371 371 18
372 66 -1
372 334 -1
372 372 6
373 4 -1
373 177 -1
373 373 11
374 4 -1
374 253 -1
374 374 3
375 28 -1
375 224 -1
375 375 6
376 79 -1
376 87 -1
376 376 7
377 16 -1
377 50 -1
377 377 12
378 5 -1
378 225 -1
378 378 13
379 28 -1
379 378 -1
379 379 18
380 26 -1
380 149 -1
380 380 5
381 2 -1
381 197 -1
381 381 5
382 250 -1
382 278 -1
382 382 4
383 1 -1
383 12 -1
383 383 5
384 16 -1
384 166 -1
384 384 17
385 1 -1
385 17 -1
385 283 -1
385 385 7
386 16 -1
386 128 -1
386 371 -1
386 386 7
387 145 -1
387 233 -1
387 387 4
388 127 -1
388 145 -1
388 388 8
389 240 -1
389 294 -1
389 389 2
390 13 -1
390 108 -1
390 390 3
391 5 -1
391 50 -1
391 391 5
392 1 -1
392 17 -1
392 392 2
393 21 -1
393 50 -1
393 393 16
394 111 -1
394 252 -1
394 394 4
395 15 -1
395 184 -1
395 395 9
396 51 -1
396 159 -1
396 396 6
397 41 -1
397 73 -1
397 397 5
398 7 -1
398 287 -1
398 398 4
399 1 -1
399 267 -1
399 399 4
400 46 -1
400 100 -1
400 400 8
401 126 -1
401 371 -1
401 401 9
402 2 -1
402 51 -1
402 402 8
403 50 -1
403 78 -1
403 403 2
404 50 -1
404 356 -1
404 404 6
405 246 -1
405 333 -1
405 405 3
406 5 -1
406 112 -1
406 406 10
407 7 -1
407 11 -1
407 407 6
408 50 -1
408 153 -1
408 408 7
409 7 -1
409 66 -1
409 409 6
410 86 -1
410 127 -1
410 410 10
411 159 -1
411 342 -1
411 411 6
412 191 -1
412 300 -1
412 412 6
413 151 -1
413 207 -1
413 413 4
414 173 -1
414 274 -1
414 414 8
415 220 -1
415 384 -1
415 415 4
416 36 -1
416 284 -1
416 416 11
417 7 -1
417 362 -1
417 417 6
418 10 -1
418 141 -1
418 418 2
419 131 -1
419 159 -1
419 419 2
420 64 -1
420 113 -1
420 420 7
421 101 -1
421 334 -1
421 421 5
422 53 -1
422 164 -1
422 422 5
423 12 -1
423 174 -1
423 423 26
424 50 -1
424 61 -1
424 424 8
425 73 -1
425 97 -1
425 425 4
426 2 -1
426 113 -1
426 426 5
427 144 -1
427 250 -1
427 427 14
428 304 -1
428 373 -1
428 428 8
429 17 -1
429 271 -1
429 429 6
430 147 -1
430 308 -1
430 430 7
431 38 -1
431 271 -1
431 431 5
432 7 -1
432 154 -1
432 432 6
433 16 -1
433 187 -1
433 433 3
434 94 -1
434 157 -1
434 434 3
435 1 -1
435 365 -1
435 435 7
436 67 -1
436 141 -1
436 436 14
437 16 -1
437 22 -1
437 437 4
438 30 -1
438 207 -1
438 438 4
439 152 -1
439 297 -1
439 439 6
440 67 -1
440 329 -1
440 440 2
441 5 -1
441 127 -1
441 441 2
442 4 -1
442 55 -1
442 442 9
443 148 -1
443 296 -1
443 443 15
444 32 -1
444 189 -1
444 444 5
445 159 -1
445 228 -1
445 445 5
446 2 -1
446 60 -1
446 446 2
447 16 -1
447 189 -1
447 447 5
448 7 -1
448 247 -1
448 448 5
449 26 -1
449 423 -1
449 449 3
450 5 -1
450 254 -1
450 450 15
451 40 -1
451 206 -1
451 451 6
452 12 -1
452 191 -1
452 452 5
453 7 -1
453 80 -1
453 453 5
454 2 -1
454 141 -1
454 454 4
455 28 -1
455 158 -1
455 455 12
456 46 -1
456 71 -1
456 456 3
457 63 -1
457 288 -1
457 457 5
458 111 -1
458 210 -1
458 458 7
459 73 -1
459 280 -1
459 459 4
460 319 -1
460 407 -1
460 460 2
461 100 -1
461 118 -1
461 461 2
462 197 -1
462 270 -1
462 462 6
463 229 -1
463 233 -1
463 463 17
464 5 -1
464 296 -1
464 464 8
465 7 -1
465 222 -1
465 465 14
466 88 -1
466 274 -1
466 466 4
467 33 -1
467 320 -1
467 467 7
468 4 -1
468 381 -1
468 468 8
469 53 -1
469 393 -1
469 469 4
470 38 -1
470 252 -1
470 470 22
471 1 -1
471 76 -1
471 471 4
472 44 -1
472 49 -1
472 472 5
473 7 -1
473 125 -1
473 473 7
474 91 -1
474 285 -1
474 474 4
475 14 -1
475 33 -1
475 475 13
476 2 -1
476 202 -1
476 476 5
477 233 -1
477 355 -1
477 477 4
478 2 -1
478 243 -1
478 478 4
479 17 -1
479 19 -1
479 479 5
480 121 -1
480 150 -1
480 480 2
481 147 -1
481 364 -1
481 481 3
482 148 -1
482 362 -1
482 482 10
483 10 -1
483 18 -1
483 483 3
484 122 -1
484 354 -1
484 484 8
485 2 -1
485 76 -1
485 485 9
486 112 -1
486 153 -1
486 486 5
487 115 -1
487 304 -1
487 487 7
488 341 -1
488 414 -1
488 488 6
489 93 -1
489 147 -1
489 489 3
490 61 -1
490 220 -1
490 490 6
491 9 -1
491 281 -1
491 491 5
492 2 -1
492 334 -1
492 492 2
493 4 -1
493 57 -1
493 493 5
494 75 -1
494 113 -1
494 494 2
495 33 -1
495 39 -1
495 495 6
496 87 -1
496 408 -1
496 496 11
497 136 -1
497 307 -1
497 497 17
498 97 -1
498 128 -1
498 498 7
499 240 -1
499 474 -1
499 499 10
500 150 -1
500 227 -1
500 500 5
501 66 -1
501 242 -1
501 501 5
502 158 -1
502 355 -1
502 502 7
503 83 -1
503 177 -1
503 503 5
504 102 -1
504 485 -1
504 504 7
505 9 -1
505 103 -1
505 505 2
506 86 -1
506 255 -1
506 506 5
507 17 -1
507 146 -1
507 507 8
508 6 -1
508 111 -1
508 508 7
509 43 -1
509 378 -1
509 509 9
510 17 -1
510 211 -1
510 510 5
511 1 -1
511 2 -1
511 511 4
512 28 -1
512 49 -1
512 512 6
513 10 -1
513 39 -1
513 513 2
514 38 -1
514 443 -1
514 514 5
515 1 -1
515 278 -1
515 515 4
516 17 -1
516 32 -1
516 516 10
517 455 -1
517 484 -1
517 517 9
518 188 -1
518 287 -1
518 518 7
519 423 -1
519 506 -1
519 519 9
520 11 -1
520 122 -1
520 520 8
521 101 -1
521 162 -1
521 521 7
522 70 -1
522 331 -1
522 522 20
523 27 -1
523 167 -1
523 523 5
524 340 -1
524 424 -1
524 524 6
525 5 -1
525 211 -1
525 525 8
526 40 -1
526 207 -1
526 526 5
527 28 -1
527 468 -1
527 527 8
528 27 -1
528 251 -1
528 528 7
529 36 -1
529 121 -1
529 529 9
530 416 -1
530 529 -1
530 530 4
531 1 -1
531 2 -1
531 531 2
532 58 -1
532 113 -1
532 532 3
533 4 -1
533 83 -1
533 533 4
534 39 -1
534 455 -1
534 534 3
535 55 -1
535 93 -1
535 535 8
536 45 -1
536 141 -1
536 536 8
537 297 -1
537 451 -1
537 537 4
538 76 -1
538 240 -1
538 538 11
539 32 -1
539 189 -1
539 539 11
540 28 -1
540 217 -1
540 540 6
541 3 -1
541 420 -1
541 541 15
542 1 -1
542 34 -1
542 542 14
543 86 -1
543 475 -1
543 543 3
544 39 -1
544 160 -1
544 544 6
545 301 -1
545 340 -1
545 545 8
546 282 -1
546 304 -1
546 546 15
547 307 -1
547 486 -1
547 547 2
548 252 -1
548 470 -1
548 548 3
549 138 -1
549 395 -1
549 549 8
550 95 -1
550 167 -1
550 550 12
551 16 -1
551 142 -1
551 551 13
552 285 -1
552 427 -1
552 552 8
553 345 -1
553 522 -1
553 553 7
554 5 -1
554 276 -1
554 554 10
555 292 -1
555 308 -1
555 555 4
556 5 -1
556 102 -1
556 556 3
557 220 -1
557 407 -1
557 554 -1
557 557 4
558 61 -1
558 498 -1
558 558 7
559 29 -1
559 240 -1
559 559 4
560 53 -1
560 332 -1
560 560 5
561 2 -1
561 247 -1
561 561 10
562 1 -1
562 15 -1
562 562 9
563 47 -1
563 423 -1
563 563 2
564 304 -1
564 328 -1
564 564 5
565 21 -1
565 287 -1
565 565 8
566 17 -1
566 158 -1
566 566 5
567 16 -1
567 40 -1
567 567 8
568 342 -1
568 455 -1
568 568 6
569 105 -1
569 453 -1
569 569 4
570 10 -1
570 541 -1
570 570 12
571 18 -1
571 470 -1
571 571 2
572 150 -1
572 422 -1
572 572 10
573 79 -1
573 83 -1
573 573 11
574 264 -1
574 483 -1
574 574 2
575 86 -1
575 349 -1
575 575 6
576 27 -1
576 175 -1
576 576 2
577 17 -1
577 395 -1
577 577 4
578 5 -1
578 502 -1
578 578 3
579 39 -1
579 554 -1
579 579 2
580 25 -1
580 32 -1
580 580 2
581 94 -1
581 235 -1
581 581 4
582 16 -1
582 95 -1
582 582 13
583 103 -1
583 105 -1
583 583 4
584 20 -1
584 288 -1
584 584 11
585 32 -1
585 309 -1
585 585 5
586 17 -1
586 50 -1
586 586 5
587 8 -1
587 143 -1
587 587 9
588 210 -1
588 386 -1
588 588 8
589 17 -1
589 189 -1
589 589 6
590 51 -1
590 546 -1
590 590 5
591 424 -1
591 582 -1
591 591 6
592 140 -1
592 178 -1
592 592 5
593 32 -1
593 83 -1
593 593 2
594 249 -1
594 394 -1
594 594 7
595 149 -1
595 512 -1
595 595 6
596 33 -1
596 240 -1
596 596 3
597 69 -1
597 473 -1
597 597 8
598 12 -1
598 202 -1
598 598 7
599 19 -1
599 297 -1
599 599 5
600 164 -1
600 562 -1
600 600 3
601 78 -1
601 158 -1
601 601 12
602 62 -1
602 356 -1
602 602 4
603 16 -1
603 103 -1
603 603 6
604 36 -1
604 470 -1
604 604 5
605 206 -1
605 396 -1
605 605 7
606 19 -1
606 497 -1
606 606 4
607 245 -1
607 393 -1
607 607 5
608 370 -1
608 588 -1
608 608 6
609 305 -1
609 591 -1
609 609 2
610 2 -1
610 6 -1
610 610 3
611 44 -1
611 50 -1
611 611 8
612 9 -1
612 582 -1
612 612 15
613 18 -1
613 511 -1
613 613 5
614 27 -1
614 238 -1
614 614 16
615 222 -1
615 363 -1
615 615 15
616 197 -1
616 259 -1
616 616 7
617 7 -1
617 70 -1
617 617 7
618 7 -1
618 23 -1
618 618 5
619 1 -1
619 141 -1
619 619 5
620 240 -1
620 376 -1
620 620 5
621 88 -1
621 137 -1
621 621 3
622 1 -1
622 337 -1
622 622 8
623 182 -1
623 304 -1
623 623 6
624 76 -1
624 208 -1
624 624 8
625 292 -1
625 377 -1
625 625 9
626 516 -1
626 546 -1
626 626 4
627 30 -1
627 70 -1
627 627 9
628 73 -1
628 408 -1
628 628 6
629 1 -1
629 349 -1
629 629 6
630 120 -1
630 482 -1
630 630 3
631 17 -1
631 65 -1
631 631 2
632 171 -1
632 409 -1
632 632 19
633 377 -1
633 573 -1
633 633 2
634 11 -1
634 88 -1
634 634 6
635 5 -1
635 273 -1
635 635 7
636 129 -1
636 285 -1
636 636 6
637 149 -1
637 468 -1
637 637 7
638 110 -1
638 601 -1
638 638 2
639 12 -1
639 50 -1
639 639 8
640 87 -1
640 113 -1
640 640 5
641 28 -1
641 485 -1
641 641 7
642 149 -1
642 577 -1
642 642 6
643 338 -1
643 627 -1
643 643 5
644 67 -1
644 229 -1
644 644 4
645 36 -1
645 243 -1
645 645 7
646 11 -1
646 101 -1
646 646 4
647 44 -1
647 51 -1
647 647 5
648 5 -1
648 314 -1
648 648 3
649 121 -1
649 146 -1
649 649 3
650 32 -1
650 102 -1
650 650 3
651 141 -1
651 522 -1
651 651 6
652 400 -1
652 467 -1
652 652 4
653 5 -1
653 382 -1
653 653 8
654 154 -1
654 470 -1
654 654 2
655 83 -1
655 427 -1
655 655 7
656 93 -1
656 485 -1
656 656 9
657 420 -1
657 573 -1
657 657 8
658 5 -1
658 36 -1
658 658 6
659 182 -1
659 278 -1
659 659 12
660 63 -1
660 111 -1
660 660 4
661 244 -1
661 253 -1
661 661 13
662 104 -1
662 378 -1
662 662 9
663 341 -1
663 560 -1
663 663 18
664 27 -1
664 410 -1
664 664 7
665 2 -1
665 285 -1
665 665 9
666 34 -1
666 468 -1
666 666 3
667 17 -1
667 96 -1
667 667 4
668 111 -1
668 657 -1
668 668 7
669 24 -1
669 238 -1
669 669 4
670 54 -1
670 344 -1
670 670 5
671 101 -1
671 131 -1
671 671 3
672 161 -1
672 235 -1
672 672 5
673 51 -1
673 570 -1
673 673 6
674 16 -1
674 44 -1
674 674 20
675 43 -1
675 241 -1
675 675 6
676 50 -1
676 175 -1
676 676 6
677 5 -1
677 511 -1
677 677 7
678 138 -1
678 286 -1
678 678 6
679 5 -1
679 26 -1
679 679 16
680 181 -1
680 259 -1
680 680 7
681 115 -1
681 679 -1
681 681 2
682 2 -1
682 137 -1
682 682 18
683 1 -1
683 369 -1
683 683 3
684 246 -1
684 605 -1
684 684 7
685 1 -1
685 334 -1
685 685 2
686 5 -1
686 274 -1
686 686 3
687 56 -1
687 132 -1
687 687 5
688 157 -1
688 541 -1
688 688 6
689 2 -1
689 16 -1
689 689 6
690 197 -1
690 490 -1
690 690 5
691 373 -1
691 528 -1
691 691 4
692 114 -1
692 610 -1
692 692 2
693 465 -1
693 518 -1
693 693 5
694 229 -1
694 632 -1
694 694 3
695 16 -1
695 677 -1
695 695 6
696 311 -1
696 536 -1
696 696 2
697 49 -1
697 661 -1
697 697 6
698 5 -1
698 34 -1
698 698 3
699 4 -1
699 173 -1
699 699 5
700 113 -1
700 439 -1
700 700 7
701 9 -1
701 63 -1
701 701 5
702 70 -1
702 85 -1
702 702 5
703 332 -1
703 625 -1
703 703 3
704 46 -1
704 154 -1
704 704 4
705 49 -1
705 284 -1
705 705 4
706 141 -1
706 149 -1
706 706 5
707 62 -1
707 564 -1
707 707 2
708 50 -1
708 335 -1
708 708 7
709 304 -1
709 614 -1
709 709 3
710 304 -1
710 467 -1
710 710 3
711 520 -1
711 622 -1
711 711 9
712 104 -1
712 443 -1
712 712 3
713 28 -1
713 51 -1
713 713 2
714 567 -1
714 669 -1
714 714 9
715 66 -1
715 296 -1
715 715 8
716 7 -1
716 236 -1
716 716 4
717 10 -1
717 426 -1
717 717 4
718 159 -1
718 320 -1
718 718 7
719 5 -1
719 428 -1
719 719 4
720 115 -1
720 329 -1
720 720 5
721 115 -1
721 605 -1
721 721 2
722 57 -1
722 128 -1
722 722 19
723 88 -1
723 149 -1
723 723 8
724 71 -1
724 488 -1
724 724 3
725 11 -1
725 70 -1
725 725 4
726 34 -1
726 228 -1
726 726 3
727 101 -1
727 384 -1
727 727 6
728 26 -1
728 572 -1
728 728 10
729 46 -1
729 603 -1
729 729 10
730 5 -1
730 340 -1
730 730 3
731 2 -1
731 34 -1
731 731 7
732 50 -1
732 423 -1
732 732 3
733 67 -1
733 246 -1
733 733 4
734 55 -1
734 297 -1
734 734 7
735 322 -1
735 617 -1
735 735 5
736 11 -1
736 356 -1
736 736 6
737 522 -1
737 594 -1
737 737 4
738 69 -1
738 220 -1
738 738 4
739 43 -1
739 496 -1
739 739 8
740 113 -1
740 232 -1
740 740 5
741 361 -1
741 572 -1
741 741 7
742 28 -1
742 120 -1
742 742 9
743 220 -1
743 590 -1
743 743 4
744 55 -1
744 234 -1
744 744 7
745 395 -1
745 526 -1
745 639 -1
745 745 5
746 17 -1
746 229 -1
746 746 4
747 83 -1
747 244 -1
747 747 9
748 29 -1
748 626 -1
748 748 4
749 51 -1
749 676 -1
749 749 2
750 32 -1
750 276 -1
750 750 3
751 187 -1
751 282 -1
751 751 5
752 7 -1
752 722 -1
752 752 3
753 104 -1
753 350 -1
753 753 4
754 4 -1
754 188 -1
754 754 3
755 149 -1
755 582 -1
755 755 6
756 50 -1
756 151 -1
756 756 5
757 16 -1
757 141 -1
757 757 3
758 6 -1
758 141 -1
758 758 10
759 96 -1
759 282 -1
759 759 10
760 40 -1
760 145 -1
760 760 4
761 432 -1
761 467 -1
761 761 4
762 36 -1
762 291 -1
762 762 8
763 282 -1
763 381 -1
763 763 2
764 50 -1
764 741 -1
764 764 6
765 20 -1
765 613 -1
765 765 3
766 56 -1
766 89 -1
766 766 9
767 7 -1
767 36 -1
767 767 5
768 53 -1
768 635 -1
768 768 5
769 86 -1
769 465 -1
769 769 7
770 281 -1
770 456 -1
770 770 3
771 22 -1
771 680 -1
771 771 3
772 150 -1
772 624 -1
772 772 8
773 250 -1
773 455 -1
773 773 7
774 223 -1
774 282 -1
774 774 7
775 119 -1
775 354 -1
775 527 -1
775 775 7
776 61 -1
776 148 -1
776 776 3
777 116 -1
777 236 -1
777 777 4
778 661 -1
778 697 -1
778 778 2
779 6 -1
779 242 -1
779 779 4
780 274 -1
780 542 -1
780 780 13
781 49 -1
781 318 -1
781 781 6
782 228 -1
782 407 -1
782 782 8
783 11 -1
783 616 -1
783 783 6
784 10 -1
784 78 -1
784 784 2
785 191 -1
785 311 -1
785 785 3
786 143 -1
786 785 -1
786 786 5
787 12 -1
787 264 -1
787 787 9
788 125 -1
788 338 -1
788 788 4
789 10 -1
789 28 -1
789 789 5
790 443 -1
790 767 -1
790 790 4
791 15 -1
791 182 -1
791 791 8
792 1 -1
792 470 -1
792 792 4
793 238 -1
793 723 -1
793 793 5
794 278 -1
794 349 -1
794 794 4
795 132 -1
795 365 -1
795 795 7
796 76 -1
796 409 -1
796 796 3
797 2 -1
797 762 -1
797 797 6
798 17 -1
798 449 -1
798 798 10
799 82 -1
799 473 -1
799 799 11
800 323 -1
800 592 -1
800 800 8
801 442 -1
801 546 -1
801 801 3
802 362 -1
802 729 -1
802 802 2
803 430 -1
803 658 -1
803 803 3
804 12 -1
804 120 -1
804 804 3
805 5 -1
805 417 -1
805 805 5
806 178 -1
806 335 -1
806 806 4
807 91 -1
807 635 -1
807 807 10
808 373 -1
808 614 -1
808 808 2
809 5 -1
809 28 -1
809 809 3
810 2 -1
810 7 -1
810 810 3
811 26 -1
811 497 -1
811 811 7
812 207 -1
812 539 -1
812 812 2
813 48 -1
813 50 -1
813 83 -1
813 813 7
814 320 -1
814 766 -1
814 814 11
815 229 -1
815 350 -1
815 815 4
816 117 -1
816 800 -1
816 816 6
817 5 -1
817 44 -1
817 817 7
818 141 -1
818 525 -1
818 818 11
819 119 -1
819 304 -1
819 819 7
820 201 -1
820 211 -1
820 820 7
821 212 -1
821 360 -1
821 797 -1
821 821 4
822 362 -1
822 747 -1
822 822 4
823 50 -1
823 663 -1
823 823 11
824 68 -1
824 244 -1
824 824 4
825 152 -1
825 177 -1
825 825 4
826 2 -1
826 180 -1
826 826 7
827 159 -1
827 619 -1
827 827 2
828 318 -1
828 542 -1
828 828 4
829 44 -1
829 65 -1
829 829 3
830 72 -1
830 278 -1
830 830 4
831 11 -1
831 508 -1
831 831 6
832 2 -1
832 775 -1
832 832 4
833 32 -1
833 49 -1
833 833 7
834 240 -1
834 462 -1
834 834 14
835 235 -1
835 439 -1
835 835 6
836 253 -1
836 653 -1
836 836 2
837 333 -1
837 642 -1
837 837 5
838 36 -1
838 326 -1
838 838 4
839 80 -1
839 157 -1
839 839 3
840 10 -1
840 72 -1
840 840 5
841 455 -1
841 649 -1
841 841 4
842 241 -1
842 525 -1
842 842 5
843 102 -1
843 608 -1
843 843 2
844 60 -1
844 174 -1
844 844 5
845 78 -1
845 522 -1
845 845 5
846 320 -1
846 475 -1
846 846 2
847 41 -1
847 465 -1
847 517 -1
847 847 6
848 7 -1
848 380 -1
848 848 4
849 81 -1
849 296 -1
849 849 11
850 17 -1
850 88 -1
850 341 -1
850 850 11
851 44 -1
851 632 -1
851 851 4
852 331 -1
852 396 -1
852 852 4
853 69 -1
853 476 -1
853 853 10
854 570 -1
854 813 -1
854 854 8
855 1 -1
855 759 -1
855 855 4
856 463 -1
856 775 -1
856 856 3
857 344 -1
857 386 -1
857 857 5
858 45 -1
858 195 -1
858 858 3
859 220 -1
859 622 -1
859 859 7
860 32 -1
860 138 -1
860 860 6
861 27 -1
861 296 -1
861 861 11
862 32 -1
862 108 -1
862 862 5
863 32 -1
863 354 -1
863 863 3
864 51 -1
864 55 -1
864 864 5
865 519 -1
865 664 -1
865 865 3
866 6 -1
866 179 -1
866 866 4
867 256 -1
867 727 -1
867 867 4
868 40 -1
868 452 -1
868 868 5
869 240 -1
869 539 -1
869 869 3
870 30 -1
870 165 -1
870 870 7
871 375 -1
871 384 -1
871 871 15
872 292 -1
872 399 -1
872 872 5
873 409 -1
873 421 -1
873 873 3
874 34 -1
874 44 -1
874 874 4
875 56 -1
875 363 -1
875 875 4
876 121 -1
876 497 -1
876 876 6
877 345 -1
877 665 -1
877 877 5
878 46 -1
878 340 -1
878 878 3
879 99 -1
879 264 -1
879 879 3
880 398 -1
880 697 -1
880 880 5
881 163 -1
881 293 -1
881 881 2
882 234 -1
882 363 -1
882 882 7
883 43 -1
883 376 -1
883 883 3
884 70 -1
884 156 -1
884 884 11
885 11 -1
885 599 -1
885 885 5
886 147 -1
886 682 -1
886 886 3
887 81 -1
887 320 -1
887 887 3
888 159 -1
888 674 -1
888 888 3
889 115 -1
889 356 -1
889 889 2
890 25 -1
890 582 -1
890 890 2
891 89 -1
891 728 -1
891 891 3
892 86 -1
892 202 -1
892 892 5
893 388 -1
893 661 -1
893 893 10
894 175 -1
894 813 -1
894 894 2
895 133 -1
895 835 -1
895 895 3
896 2 -1
896 722 -1
896 896 9
897 759 -1
897 851 -1
897 897 5
898 1 -1
898 43 -1
898 704 -1
898 898 5
899 98 -1
899 664 -1
899 899 2
900 436 -1
900 689 -1
900 900 6
901 373 -1
901 523 -1
901 901 7
902 21 -1
902 253 -1
902 902 2
903 7 -1
903 187 -1
903 903 7
904 210 -1
904 352 -1
904 904 5
905 500 -1
905 787 -1
905 905 3
906 199 -1
906 234 -1
906 906 15
907 143 -1
907 161 -1
907 907 9
908 33 -1
908 305 -1
908 908 11
909 2 -1
909 867 -1
909 909 3
910 106 -1
910 522 -1
910 910 3
911 470 -1
911 526 -1
911 555 -1
911 911 6
912 96 -1
912 195 -1
912 912 6
913 1 -1
913 907 -1
913 913 6
914 41 -1
914 680 -1
914 914 8
915 347 -1
915 436 -1
915 915 4
916 635 -1
916 787 -1
916 916 4
917 45 -1
917 614 -1
917 917 7
918 160 -1
918 388 -1
918 918 4
919 28 -1
919 70 -1
919 919 9
920 104 -1
920 813 -1
920 920 4
921 642 -1
921 792 -1
921 921 8
922 172 -1
922 508 -1
922 922 6
923 206 -1
923 572 -1
923 923 7
924 47 -1
924 423 -1
924 924 7
925 87 -1
925 695 -1
925 925 3
926 12 -1
926 739 -1
926 926 9
927 73 -1
927 457 -1
927 800 -1
927 927 5
928 294 -1
928 455 -1
928 928 6
929 769 -1
929 805 -1
929 929 11
930 242 -1
930 462 -1
930 930 3
931 247 -1
931 549 -1
931 931 10
932 11 -1
932 319 -1
932 932 2
933 18 -1
933 178 -1
933 933 7
934 195 -1
934 928 -1
934 934 5
935 201 -1
935 379 -1
935 935 7
936 143 -1
936 697 -1
936 936 6
937 2 -1
937 475 -1
937 937 5
938 291 -1
938 790 -1
938 938 8
939 252 -1
939 799 -1
939 939 3
940 475 -1
940 517 -1
940 940 7
941 168 -1
941 431 -1
941 941 6
942 80 -1
942 206 -1
942 942 4
943 1 -1
943 663 -1
943 943 4
944 144 -1
944 896 -1
944 944 3
945 32 -1
945 103 -1
945 945 4
946 33 -1
946 659 -1
946 946 6
947 1 -1
947 570 -1
947 947 3
948 1 -1
948 34 -1
948 948 4
949 2 -1
949 539 -1
949 949 6
950 130 -1
950 874 -1
950 950 4
951 88 -1
951 294 -1
951 951 7
952 3 -1
952 78 -1
952 583 -1
952 952 3
953 16 -1
953 233 -1
953 953 2
954 242 -1
954 528 -1
954 954 5
955 153 -1
955 853 -1
955 955 10
956 96 -1
956 450 -1
956 956 4
957 92 -1
957 379 -1
957 957 4
958 80 -1
958 464 -1
958 490 -1
958 958 4
959 360 -1
959 908 -1
959 959 2
960 7 -1
960 955 -1
960 960 4
961 57 -1
961 427 -1
961 961 4
962 408 -1
962 484 -1
962 962 2
963 48 -1
963 385 -1
963 963 4
964 86 -1
964 287 -1
964 964 4
965 232 -1
965 386 -1
965 965 5
966 31 -1
966 141 -1
966 966 5
967 93 -1
967 450 -1
967 967 4
968 32 -1
968 734 -1
968 968 8
969 336 -1
969 668 -1
969 969 6
970 83 -1
970 152 -1
970 970 2
971 3 -1
971 143 -1
971 971 3
972 80 -1
972 296 -1
972 972 10
973 486 -1
973 852 -1
973 973 4
974 570 -1
974 715 -1
974 974 4
975 42 -1
975 274 -1
975 975 7
976 18 -1
976 70 -1
976 976 6
977 270 -1
977 377 -1
977 977 8
978 2 -1
978 930 -1
978 978 4
979 2 -1
979 75 -1
979 979 6
980 177 -1
980 223 -1
980 980 7
981 33 -1
981 195 -1
981 981 2
982 564 -1
982 965 -1
982 982 6
983 516 -1
983 747 -1
983 983 3
984 86 -1
984 141 -1
984 984 4
985 116 -1
985 797 -1
985 985 4
986 5 -1
986 30 -1
986 986 4
987 63 -1
987 127 -1
987 987 3
988 17 -1
988 51 -1
988 988 6
989 432 -1
989 573 -1
989 989 3
990 640 -1
990 815 -1
990 990 5
991 1 -1
991 62 -1
991 991 6
992 116 -1
992 859 -1
992 992 4
993 514 -1
993 929 -1
993 993 4
994 27 -1
994 551 -1
994 994 9
995 19 -1
995 102 -1
995 995 3
996 530 -1
996 591 -1
996 996 4
997 250 -1
997 738 -1
997 997 2
998 10 -1
998 144 -1
998 998 4
999 4 -1
999 442 -1
999 999 3
1000 142 -1
1000 632 -1
1000 1000 3
1001 8 -1
1001 40 -1
1001 1001 3
1002 194 -1
1002 429 -1
1002 1002 4
1003 56 -1
1003 369 -1
1003 1003 5
1004 90 -1
1004 189 -1
1004 1004 3
1005 8 -1
1005 334 -1
1005 1005 5
1006 36 -1
1006 75 -1
1006 1006 2
1007 332 -1
1007 541 -1
1007 1007 15
1008 522 -1
1008 614 -1
1008 1008 10
1009 522 -1
1009 541 -1
1009 1009 4
1010 23 -1
1010 402 -1
1010 1010 3
1011 122 -1
1011 759 -1
1011 1011 3
1012 47 -1
1012 653 -1
1012 1012 4
1013 1 -1
1013 1007 -1
1013 1013 3
1014 17 -1
1014 262 -1
1014 1014 6
1015 19 -1
1015 53 -1
1015 1015 4
1016 7 -1
1016 368 -1
1016 1016 9
1017 1 -1
1017 313 -1
1017 565 -1
1017 1017 5
1018 249 -1
1018 753 -1
1018 1018 2
1019 101 -1
1019 675 -1
1019 1019 10
1020 11 -1
1020 723 -1
1020 1020 2
1021 598 -1
1021 755 -1
1021 1021 7
1022 29 -1
1022 777 -1
1022 1022 4
1023 16 -1
1023 139 -1
1023 1023 5
1024 1 -1
1024 363 -1
1024 1024 5
1025 349 -1
1025 653 -1
1025 1025 7
1026 32 -1
1026 244 -1
1026 1026 4
1027 747 -1
1027 954 -1
1027 1027 7
1028 79 -1
1028 161 -1
1028 1028 4
1029 49 -1
1029 517 -1
1029 1029 8
1030 78 -1
1030 603 -1
1030 1030 6
1031 92 -1
1031 415 -1
1031 916 -1
1031 1031 5
1032 88 -1
1032 411 -1
1032 1032 4
1033 146 -1
1033 601 -1
1033 1033 4
1034 818 -1
1034 972 -1
1034 1034 5
1035 77 -1
1035 521 -1
1035 1035 11
1036 111 -1
1036 588 -1
1036 1036 3
1037 100 -1
1037 297 -1
1037 1037 2
1038 562 -1
1038 682 -1
1038 1038 6
1039 257 -1
1039 756 -1
1039 1039 4
1040 362 -1
1040 897 -1
1040 1040 10
1041 794 -1
1041 903 -1
1041 1041 4
1042 385 -1
1042 661 -1
1042 1042 2
1043 675 -1
1043 1021 -1
1043 1043 3
1044 138 -1
1044 582 -1
1044 1044 6
1045 27 -1
1045 399 -1
1045 1045 6
1046 164 -1
1046 884 -1
1046 1046 8
1047 372 -1
1047 604 -1
1047 1047 4
1048 161 -1
1048 660 -1
1048 1048 5
1049 166 -1
1049 674 -1
1049 1049 3
1050 588 -1
1050 630 -1
1050 1050 5
1051 787 -1
1051 875 -1
1051 1051 2
1052 70 -1
1052 195 -1
1052 1052 4
1053 722 -1
1053 918 -1
1053 1053 9
1054 11 -1
1054 89 -1
1054 1054 3
1055 287 -1
1055 893 -1
1055 1055 2
1056 55 -1
1056 156 -1
1056 1056 3
1057 83 -1
1057 834 -1
1057 1057 4
1058 330 -1
1058 747 -1
1058 1053 -1
1058 1058 9
1059 66 -1
1059 79 -1
1059 1059 5
1060 16 -1
1060 436 -1
1060 1060 6
1061 140 -1
1061 261 -1
1061 1061 2
1062 112 -1
1062 350 -1
1062 1062 5
1063 12 -1
1063 744 -1
1063 1063 4
1064 1 -1
1064 297 -1
1064 1064 2
1065 47 -1
1065 762 -1
1065 1065 11
1066 195 -1
1066 764 -1
1066 1066 14
1067 136 -1
1067 284 -1
1067 1067 3
1068 141 -1
1068 754 -1
1068 1068 4
1069 573 -1
1069 646 -1
1069 1069 5
1070 10 -1
1070 443 -1
1070 1070 5
1071 7 -1
1071 166 -1
1071 1071 2
1072 653 -1
1072 744 -1
1072 1072 5
1073 69 -1
1073 795 -1
1073 1073 2
1074 141 -1
1074 189 -1
1074 1074 4
1075 55 -1
1075 916 -1
1075 1075 4
1076 587 -1
1076 1008 -1
1076 1076 9
1077 2 -1
1077 412 -1
1077 1077 2
1078 154 -1
1078 280 -1
1078 1078 4
1079 356 -1
1079 928 -1
1079 1079 5
1080 182 -1
1080 914 -1
1080 1080 3
1081 657 -1
1081 714 -1
1081 1081 10
1082 135 -1
1082 597 -1
1082 1082 2
1083 7 -1
1083 325 -1
1083 1083 7
1084 359 -1
1084 590 -1
1084 1084 13
1085 197 -1
1085 1044 -1
1085 1085 4
1086 251 -1
1086 414 -1
1086 1086 2
1087 78 -1
1087 487 -1
1087 1087 2
1088 56 -1
1088 1014 -1
1088 1088 3
1089 28 -1
1089 758 -1
1089 1089 6
1090 268 -1
1090 955 -1
1090 1090 4
1091 137 -1
1091 179 -1
1091 1091 5
1092 285 -1
1092 525 -1
1092 1092 4
1093 516 -1
1093 527 -1
1093 1079 -1
1093 1093 5
1094 174 -1
1094 841 -1
1094 1094 8
1095 50 -1
1095 259 -1
1095 1095 6
1096 154 -1
1096 400 -1
1096 1096 5
1097 379 -1
1097 924 -1
1097 1097 3
1098 708 -1
1098 1062 -1
1098 1098 4
1099 265 -1
1099 375 -1
1099 1099 4
1100 48 -1
1100 115 -1
1100 1100 4
1101 7 -1
1101 1032 -1
1101 1101 8
1102 1 -1
1102 56 -1
1102 128 -1
1102 1102 7
1103 142 -1
1103 625 -1
1103 1103 5
1104 218 -1
1104 334 -1
1104 1104 5
1105 464 -1
1105 663 -1
1105 1105 6
1106 711 -1
1106 1065 -1
1106 1106 4
1107 164 -1
1107 584 -1
1107 1107 3
1108 17 -1
1108 333 -1
1108 1108 6
1109 16 -1
1109 21 -1
1109 1109 4
1110 182 -1
1110 1095 -1
1110 1110 3
1111 63 -1
1111 88 -1
1111 1111 2
1112 6 -1
1112 318 -1
1112 1112 4
1113 353 -1
1113 632 -1
1113 1113 2
1114 1 -1
1114 5 -1
1114 1114 2
1115 21 -1
1115 50 -1
1115 1115 3
1116 340 -1
1116 434 -1
1116 1116 4
1117 27 -1
1117 463 -1
1117 1117 5
1118 33 -1
1118 1022 -1
1118 1118 4
1119 621 -1
1119 859 -1
1119 1119 4
1120 264 -1
1120 504 -1
1120 834 -1
1120 1120 5
1121 9 -1
1121 931 -1
1121 1121 5
1122 23 -1
1122 125 -1
1122 1122 3
1123 7 -1
1123 326 -1
1123 1123 8
1124 570 -1
1124 994 -1
1124 1124 7
1125 242 -1
1125 420 -1
1125 1125 3
1126 283 -1
1126 699 -1
1126 1126 2
1127 338 -1
1127 656 -1
1127 1127 3
1128 304 -1
1128 819 -1
1128 1128 4
1129 270 -1
1129 761 -1
1129 1129 4
1130 68 -1
1130 1057 -1
1130 1130 6
1131 97 -1
1131 656 -1
1131 1131 4
1132 80 -1
1132 253 -1
1132 1132 5
1133 550 -1
1133 923 -1
1133 1133 4
1134 291 -1
1134 510 -1
1134 1134 5
1135 5 -1
1135 106 -1
1135 1135 6
1136 69 -1
1136 789 -1
1136 1136 3
1137 2 -1
1137 622 -1
1137 1137 4
1138 204 -1
1138 673 -1
1138 1138 4
1139 391 -1
1139 627 -1
1139 1139 2
1140 16 -1
1140 141 -1
1140 1140 2
1141 834 -1
1141 908 -1
1141 1141 5
1142 363 -1
1142 634 -1
1142 1142 3
1143 2 -1
1143 1021 -1
1143 1143 4
1144 178 -1
1144 614 -1
1144 1144 2
1145 682 -1
1145 799 -1
1145 1145 6
1146 87 -1
1146 443 -1
1146 1146 3
1147 102 -1
1147 725 -1
1147 1147 4
1148 106 -1
1148 554 -1
1148 1148 7
1149 966 -1
1149 1016 -1
1149 1149 5
1150 1 -1
1150 210 -1
1150 1150 5
1151 19 -1
1151 66 -1
1151 1151 5
1152 174 -1
1152 885 -1
1152 1152 2
1153 544 -1
1153 722 -1
1153 1153 8
1154 7 -1
1154 828 -1
1154 1154 4
1155 95 -1
1155 663 -1
1155 1155 3
1156 107 -1
1156 1153 -1
1156 1156 4
1157 401 -1
1157 639 -1
1157 1157 9
1158 69 -1
1158 249 -1
1158 1158 6
1159 153 -1
1159 349 -1
1159 1159 2
1160 87 -1
1160 1035 -1
1160 1160 8
1161 575 -1
1161 761 -1
1161 1161 3
1162 30 -1
1162 266 -1
1162 1162 4
1163 179 -1
1163 809 -1
1163 1163 14
1164 7 -1
1164 661 -1
1164 1164 3
1165 751 -1
1165 799 -1
1165 1165 5
1166 206 -1
1166 410 -1
1166 1166 4
1167 177 -1
1167 1045 -1
1167 1167 5
1168 13 -1
1168 954 -1
1168 1168 3
1169 82 -1
1169 95 -1
1169 1169 5
1170 1 -1
1170 283 -1
1170 1170 9
1171 852 -1
1171 1066 -1
1171 1171 2
1172 73 -1
1172 938 -1
1172 1172 2
1173 5 -1
1173 1058 -1
1173 1173 3
1174 83 -1
1174 674 -1
1174 1174 3
1175 335 -1
1175 807 -1
1175 1175 8
1176 615 -1
1176 691 -1
1176 1176 7
1177 1041 -1
1177 1046 -1
1177 1177 5
1178 75 -1
1178 516 -1
1178 1178 7
1179 616 -1
1179 1155 -1
1179 1179 5
1180 1 -1
1180 975 -1
1180 1180 2
1181 16 -1
1181 679 -1
1181 1181 2
1182 222 -1
1182 463 -1
1182 1182 5
1183 57 -1
1183 377 -1
1183 1183 3
1184 546 -1
1184 974 -1
1184 1184 5
1185 1 -1
1185 393 -1
1185 1185 8
1186 291 -1
1186 986 -1
1186 1186 3
1187 781 -1
1187 1076 -1
1187 1187 5
1188 305 -1
1188 474 -1
1188 1188 2
1189 67 -1
1189 1175 -1
1189 1189 3
1190 59 -1
1190 393 -1
1190 1190 3
1191 41 -1
1191 234 -1
1191 1191 5
1192 36 -1
1192 860 -1
1192 1192 4
1193 241 -1
1193 848 -1
1193 1193 4
1194 420 -1
1194 566 -1
1194 608 -1
1194 1194 5
1195 968 -1
1195 1030 -1
1195 1195 7
1196 130 -1
1196 285 -1
1196 1196 3
1197 47 -1
1197 427 -1
1197 1197 2
1198 668 -1
1198 1151 -1
1198 1198 4
1199 356 -1
1199 982 -1
1199 1199 2
1200 645 -1
1200 774 -1
1200 1200 2
1201 144 -1
1201 357 -1
1201 1201 2
1202 154 -1
1202 1094 -1
1202 1202 4
1203 728 -1
1203 1121 -1
1203 1203 3
1204 160 -1
1204 994 -1
1204 1204 5
1205 396 -1
1205 507 -1
1205 1205 4
1206 264 -1
1206 1145 -1
1206 1206 4
1207 238 -1
1207 463 -1
1207 1207 6
1208 594 -1
1208 612 -1
1208 1208 3
1209 189 -1
1209 427 -1
1209 1209 4
1210 400 -1
1210 985 -1
1210 1210 5
1211 10 -1
1211 1150 -1
1211 1211 8
1212 47 -1
1212 140 -1
1212 1212 3
1213 252 -1
1213 1046 -1
1213 1213 3
1214 21 -1
1214 780 -1
1214 1214 12
1215 497 -1
1215 701 -1
1215 709 -1
1215 1215 7
1216 302 -1
1216 597 -1
1216 1216 4
1217 1 -1
1217 178 -1
1217 1217 2
1218 104 -1
1218 164 -1
1218 1218 3
1219 251 -1
1219 908 -1
1219 1219 2
1220 5 -1
1220 141 -1
1220 1220 3
1221 416 -1
1221 1065 -1
1221 1221 2
1222 61 -1
1222 828 -1
1222 1222 3
1223 44 -1
1223 240 -1
1223 1223 4
1224 226 -1
1224 1204 -1
1224 1224 2
1225 57 -1
1225 499 -1
1225 1225 8
1226 106 -1
1226 1090 -1
1226 1226 5
1227 222 -1
1227 479 -1
1227 1227 8
1228 5 -1
1228 110 -1
1228 1228 3
1229 5 -1
1229 296 -1
1229 1229 2
1230 152 -1
1230 208 -1
1230 1230 3
1231 13 -1
1231 284 -1
1231 1231 5
1232 1 -1
1232 1057 -1
1232 1232 4
1233 253 -1
1233 377 -1
1233 1233 6
1234 159 -1
1234 980 -1
1234 1234 2
1235 424 -1
1235 660 -1
1235 1235 4
1236 85 -1
1236 587 -1
1236 1236 4
1237 90 -1
1237 1178 -1
1237 1237 3
1238 478 -1
1238 1098 -1
1238 1238 5
1239 2 -1
1239 361 -1
1239 1239 3
1240 356 -1
1240 858 -1
1240 1240 4
1241 23 -1
1241 117 -1
1241 1241 3
1242 384 -1
1242 1017 -1
1242 1242 3
1243 79 -1
1243 595 -1
1243 1243 4
1244 21 -1
1244 27 -1
1244 1244 3
1245 255 -1
1245 410 -1
1245 1178 -1
1245 1245 5
1246 2 -1
1246 221 -1
1246 222 -1
1246 1246 3
1247 585 -1
1247 933 -1
1247 1247 4
1248 1076 -1
1248 1115 -1
1248 1248 2
1249 277 -1
1249 1014 -1
1249 1249 3
1250 961 -1
1250 1035 -1
1250 1250 3
1251 397 -1
1251 561 -1
1251 1251 7
1252 233 -1
1252 259 -1
1252 1252 9
1253 335 -1
1253 942 -1
1253 1253 2
1254 16 -1
1254 529 -1
1254 1254 3
1255 31 -1
1255 518 -1
1255 1255 2
1256 82 -1
1256 393 -1
1256 1165 -1
1256 1256 5
1257 104 -1
1257 398 -1
1257 1257 7
1258 32 -1
1258 529 -1
1258 1258 4
1259 878 -1
1259 1053 -1
1259 1259 4
1260 180 -1
1260 674 -1
1260 1260 4
1261 183 -1
1261 823 -1
1261 1261 6
1262 197 -1
1262 290 -1
1262 1262 4
1263 665 -1
1263 980 -1
1263 1263 3
1264 1 -1
1264 16 -1
1264 1264 10
1265 297 -1
1265 788 -1
1265 1265 9
1266 76 -1
1266 917 -1
1266 1266 3
1267 138 -1
1267 549 -1
1267 1267 2
1268 88 -1
1268 1195 -1
1268 1268 5
1269 22 -1
1269 615 -1
1269 1269 4
1270 179 -1
1270 496 -1
1270 538 -1
1270 1270 5
1271 71 -1
1271 486 -1
1271 1271 6
1272 70 -1
1272 450 -1
1272 1272 3
1273 17 -1
1273 204 -1
1273 1273 2
1274 32 -1
1274 411 -1
1274 1274 2
1275 32 -1
1275 639 -1
1275 1275 2
1276 393 -1
1276 755 -1
1276 1276 5
1277 158 -1
1277 1261 -1
1277 1277 2
1278 276 -1
1278 451 -1
1278 1278 2
1279 124 -1
1279 316 -1
1279 965 -1
1279 1279 3
1280 934 -1
1280 1243 -1
1280 1280 3
1281 635 -1
1281 854 -1
1281 1281 4
1282 93 -1
1282 1127 -1
1282 1282 8
1283 254 -1
1283 1103 -1
1283 1283 6
1284 44 -1
1284 509 -1
1284 1284 3
1285 170 -1
1285 356 -1
1285 1285 7
1286 917 -1
1286 1084 -1
1286 1286 3
1287 162 -1
1287 743 -1
1287 1287 3
1288 69 -1
1288 232 -1
1288 1288 6
1289 14 -1
1289 1124 -1
1289 1289 2
1290 362 -1
1290 682 -1
1290 1290 3
1291 1 -1
1291 1175 -1
1291 1291 2
1292 309 -1
1292 339 -1
1292 1292 5
1293 674 -1
1293 1068 -1
1293 1293 5
1294 1 -1
1294 907 -1
1294 1294 6
1295 47 -1
1295 423 -1
1295 1295 5
1296 34 -1
1296 90 -1
1296 1296 3
1297 161 -1
1297 436 -1
1297 1297 4
1298 116 -1
1298 931 -1
1298 1298 6
1299 89 -1
1299 202 -1
1299 1299 3
1300 853 -1
1300 938 -1
1300 1300 5
1301 113 -1
1301 1157 -1
1301 1301 4
1302 102 -1
1302 949 -1
1302 1302 4
1303 11 -1
1303 47 -1
1303 1303 4
1304 340 -1
1304 813 -1
1304 1304 6
1305 2 -1
1305 423 -1
1305 1305 3
1306 152 -1
1306 781 -1
1306 1306 2
1307 95 -1
1307 870 -1
1307 1307 3
1308 133 -1
1308 708 -1
1308 1308 2
1309 2 -1
1309 88 -1
1309 979 -1
1309 1309 9
1310 7 -1
1310 969 -1
1310 1310 3
1311 67 -1
1311 590 -1
1311 1311 5
1312 72 -1
1312 371 -1
1312 1312 4
1313 104 -1
1313 863 -1
1313 1313 3
1314 143 -1
1314 769 -1
1314 1314 7
1315 148 -1
1315 921 -1
1315 1315 3
1316 55 -1
1316 624 -1
1316 1316 9
1317 151 -1
1317 584 -1
1317 1317 4
1318 66 -1
1318 245 -1
1318 1318 4
1319 81 -1
1319 142 -1
1319 368 -1
1319 1319 4
1320 251 -1
1320 807 -1
1320 1320 3
1321 73 -1
1321 263 -1
1321 1321 2
1322 1 -1
1322 49 -1
1322 1322 3
1323 27 -1
1323 294 -1
1323 1323 4
1324 33 -1
1324 871 -1
1324 1324 3
1325 525 -1
1325 779 -1
1325 1325 4
1326 7 -1
1326 509 -1
1326 1326 2
1327 659 -1
1327 711 -1
1327 1327 7
1328 320 -1
1328 567 -1
1328 1328 3
1329 171 -1
1329 294 -1
1329 1329 3
1330 68 -1
1330 861 -1
1330 1330 2
1331 6 -1
1331 197 -1
1331 1331 10
1332 97 -1
1332 495 -1
1332 1243 -1
1332 1332 5
1333 140 -1
1333 209 -1
1333 1333 6
1334 71 -1
1334 908 -1
1334 1334 8
1335 479 -1
1335 614 -1
1335 1335 4
1336 102 -1
1336 485 -1
1336 1336 2
1337 93 -1
1337 826 -1
1337 1337 4
1338 482 -1
1338 901 -1
1338 1338 5
1339 333 -1
1339 447 -1
1339 1339 3
1340 118 -1
1340 289 -1
1340 1340 3
1341 512 -1
1341 1034 -1
1341 1341 6
1342 482 -1
1342 1182 -1
1342 1342 3
1343 93 -1
1343 1185 -1
1343 1343 5
1344 659 -1
1344 1227 -1
1344 1344 3
1345 137 -1
1345 341 -1
1345 1345 3
1346 229 -1
1346 1070 -1
1346 1346 2
1347 455 -1
1347 849 -1
1347 1347 5
1348 7 -1
1348 566 -1
1348 1348 2
1349 2 -1
1349 127 -1
1349 1349 4
1350 361 -1
1350 1214 -1
1350 1350 9
1351 170 -1
1351 877 -1
1351 1351 5
1352 249 -1
1352 908 -1
1352 1352 3
1353 1 -1
1353 335 -1
1353 1353 4
1354 783 -1
1354 1320 -1
1354 1354 3
1355 2 -1
1355 655 -1
1355 1355 4
1356 157 -1
1356 855 -1
1356 1356 7
1357 70 -1
1357 308 -1
1357 1357 2
1358 379 -1
1358 773 -1
1358 1358 3
1359 972 -1
1359 1104 -1
1359 1359 4
1360 464 -1
1360 496 -1
1360 1360 5
1361 298 -1
1361 618 -1
1361 1361 5
1362 88 -1
1362 113 -1
1362 1362 4
1363 380 -1
1363 1154 -1
1363 1363 4
1364 463 -1
1364 614 -1
1364 1364 2
1365 56 -1
1365 277 -1
1365 1365 4
1366 17 -1
1366 150 -1
1366 1366 2
1367 159 -1
1367 211 -1
1367 1367 2
1368 5 -1
1368 711 -1
1368 1368 6
1369 164 -1
1369 423 -1
1369 1369 2
1370 7 -1
1370 762 -1
1370 1370 2
1371 50 -1
1371 1038 -1
1371 1099 -1
1371 1371 4
1372 108 -1
1372 552 -1
1372 1372 3
1373 527 -1
1373 1241 -1
1373 1373 3
1374 83 -1
1374 1237 -1
1374 1374 3
1375 17 -1
1375 127 -1
1375 1375 4
1376 264 -1
1376 1147 -1
1376 1376 4
1377 16 -1
1377 984 -1
1377 1377 4
1378 430 -1
1378 684 -1
1378 1378 3
1379 6 -1
1379 623 -1
1379 1379 3
1380 17 -1
1380 436 -1
1380 1380 4
1381 32 -1
1381 983 -1
1381 1381 5
1382 499 -1
1382 1240 -1
1382 1382 3
1383 350 -1
1383 421 -1
1383 1383 3
1384 57 -1
1384 1133 -1
1384 1384 4
1385 582 -1
1385 661 -1
1385 1385 2
1386 782 -1
1386 957 -1
1386 1386 4
1387 1095 -1
1387 1331 -1
1387 1387 3
1388 634 -1
1388 738 -1
1388 1388 4
1389 538 -1
1389 739 -1
1389 1389 9
1390 598 -1
1390 722 -1
1390 1390 2
1391 92 -1
1391 204 -1
1391 1391 2
1392 658 -1
1392 964 -1
1392 1392 3
1393 131 -1
1393 291 -1
1393 1393 3
1394 643 -1
1394 850 -1
1394 1394 5
1395 96 -1
1395 663 -1
1395 1395 6
1396 46 -1
1396 301 -1
1396 1396 3
1397 25 -1
1397 297 -1
1397 1397 4
1398 69 -1
1398 356 -1
1398 1398 4
1399 67 -1
1399 195 -1
1399 1399 3
1400 4 -1
1400 607 -1
1400 1400 5
1401 404 -1
1401 678 -1
1401 1401 4
1402 91 -1
1402 780 -1
1402 1402 3
1403 255 -1
1403 1169 -1
1403 1403 6
1404 1025 -1
1404 1130 -1
1404 1404 6
1405 632 -1
1405 1343 -1
1405 1405 3
1406 529 -1
1406 1003 -1
1406 1406 8
1407 151 -1
1407 1007 -1
1407 1407 2
1408 347 -1
1408 946 -1
1408 1408 6
1409 349 -1
1409 488 -1
1409 1409 4
1410 23 -1
1410 289 -1
1410 1410 3
1411 369 -1
1411 379 -1
1411 1411 3
1412 584 -1
1412 632 -1
1412 1412 3
1413 86 -1
1413 587 -1
1413 1413 3
1414 5 -1
1414 36 -1
1414 1414 6
1415 7 -1
1415 1371 -1
1415 1415 2
1416 2 -1
1416 847 -1
1416 1416 2
1417 284 -1
1417 1294 -1
1417 1417 2
1418 2 -1
1418 476 -1
1418 1418 2
1419 21 -1
1419 36 -1
1419 1419 3
1420 450 -1
1420 1038 -1
1420 1420 5
1421 7 -1
1421 936 -1
1421 1421 6
1422 88 -1
1422 126 -1
1422 1422 3
1423 2 -1
1423 1368 -1
1423 1423 3
1424 992 -1
1424 1265 -1
1424 1424 3
1425 1 -1
1425 194 -1
1425 1425 4
1426 6 -1
1426 16 -1
1426 1426 3
1427 1092 -1
1427 1132 -1
1427 1427 5
1428 14 -1
1428 78 -1
1428 1428 3
1429 5 -1
1429 78 -1
1429 1429 5
1430 115 -1
1430 565 -1
1430 1430 6
1431 13 -1
1431 546 -1
1431 1431 2
1432 350 -1
1432 1031 -1
1432 1432 3
1433 210 -1
1433 884 -1
1433 1433 3
1434 26 -1
1434 31 -1
1434 1434 2
1435 307 -1
1435 1076 -1
1435 1435 4
1436 51 -1
1436 496 -1
1436 1436 2
1437 70 -1
1437 657 -1
1437 1437 4
1438 519 -1
1438 728 -1
1438 1438 6
1439 95 -1
1439 815 -1
1439 1439 8
1440 36 -1
1440 164 -1
1440 1440 3
1441 1 -1
1441 834 -1
1441 1319 -1
1441 1441 6
1442 66 -1
1442 1035 -1
1442 1442 4
1443 465 -1
1443 1430 -1
1443 1443 3
1444 7 -1
1444 1403 -1
1444 1444 4
1445 17 -1
1445 1341 -1
1445 1445 3
1446 67 -1
1446 1333 -1
1446 1446 2
1447 49 -1
1447 63 -1
1447 1447 2
1448 527 -1
1448 779 -1
1448 1448 5
1449 977 -1
1449 1134 -1
1449 1449 2
1450 117 -1
1450 870 -1
1450 1450 2
1451 2 -1
1451 1035 -1
1451 1451 3
1452 36 -1
1452 353 -1
1452 1452 3
1453 891 -1
1453 1026 -1
1453 1453 4
1454 679 -1
1454 1323 -1
1454 1454 3
1455 183 -1
1455 1161 -1
1455 1455 2
1456 36 -1
1456 1084 -1
1456 1456 3
1457 435 -1
1457 473 -1
1457 1457 4
1458 1163 -1
1458 1247 -1
1458 1420 -1
1458 1458 7
1459 498 -1
1459 976 -1
1459 1459 8
1460 7 -1
1460 34 -1
1460 1460 5
1461 17 -1
1461 1404 -1
1461 1461 3
1462 50 -1
1462 401 -1
1462 1462 4
1463 46 -1
1463 1350 -1
1463 1463 2
1464 51 -1
1464 341 -1
1464 1464 5
1465 6 -1
1465 30 -1
1465 144 -1
1465 1465 6
1466 206 -1
1466 507 -1
1466 723 -1
1466 1466 3
1467 818 -1
1467 1462 -1
1467 1467 6
1468 160 -1
1468 615 -1
1468 1468 2
1469 335 -1
1469 1157 -1
1469 1469 4
1470 39 -1
1470 1163 -1
1470 1470 2
1471 799 -1
1471 1389 -1
1471 1471 5
1472 2 -1
1472 182 -1
1472 1472 6
1473 10 -1
1473 289 -1
1473 1473 4
1474 163 -1
1474 1414 -1
1474 1474 5
1475 520 -1
1475 1028 -1
1475 1475 3
1476 97 -1
1476 112 -1
1476 1476 2
1477 1 -1
1477 243 -1
1477 1477 4
1478 158 -1
1478 700 -1
1478 1478 4
1479 384 -1
1479 674 -1
1479 1479 3
1480 350 -1
1480 1222 -1
1480 1480 5
1481 63 -1
1481 101 -1
1481 606 -1
1481 1481 6
1482 562 -1
1482 1301 -1
1482 1482 6
1483 925 -1
1483 1007 -1
1483 1483 2
1484 252 -1
1484 731 -1
1484 1484 3
1485 771 -1
1485 1135 -1
1485 1485 3
1486 12 -1
1486 320 -1
1486 1486 8
1487 663 -1
1487 1202 -1
1487 1487 2
1488 157 -1
1488 318 -1
1488 1488 2
1489 178 -1
1489 1269 -1
1489 1489 6
1490 507 -1
1490 607 -1
1490 1490 3
1491 153 -1
1491 1350 -1
1491 1491 4
1492 132 -1
1492 551 -1
1492 1492 2
1493 49 -1
1493 318 -1
1493 1493 2
1494 113 -1
1494 1460 -1
1494 1494 4
1495 318 -1
1495 800 -1
1495 1495 4
1496 651 -1
1496 741 -1
1496 1496 2
1497 62 -1
1497 75 -1
1497 1497 5
1498 13 -1
1498 88 -1
1498 1498 2
1499 113 -1
1499 913 -1
1499 1499 7
1500 78 -1
1500 292 -1
1500 1500 3
1501 181 -1
1501 264 -1
1501 1501 3
1502 386 -1
1502 885 -1
1502 1502 3
1503 508 -1
1503 1143 -1
1503 1503 6
1504 33 -1
1504 70 -1
1504 627 -1
1504 1504 4
1505 214 -1
1505 838 -1
1505 1505 3
1506 56 -1
1506 186 -1
1506 1506 5
1507 673 -1
1507 727 -1
1507 1507 2
1508 193 -1
1508 1225 -1
1508 1508 2
1509 96 -1
1509 723 -1
1509 1227 -1
1509 1509 3
1510 2 -1
1510 791 -1
1510 1510 2
1511 88 -1
1511 548 -1
1511 600 -1
1511 1511 4
1512 3 -1
1512 762 -1
1512 1512 4
1513 663 -1
1513 1148 -1
1513 1513 5
1514 83 -1
1514 227 -1
1514 1514 4
1515 10 -1
1515 67 -1
1515 1515 2
1516 782 -1
1516 1137 -1
1516 1406 -1
1516 1516 4
1517 10 -1
1517 78 -1
1517 1517 4
1518 553 -1
1518 619 -1
1518 1518 2
1519 552 -1
1519 1012 -1
1519 1519 8
1520 132 -1
1520 301 -1
1520 1520 2
1521 335 -1
1521 388 -1
1521 1521 6
1522 342 -1
1522 664 -1
1522 1522 3
1523 616 -1
1523 994 -1
1523 1523 3
1524 160 -1
1524 742 -1
1524 1524 2
1525 6 -1
1525 287 -1
1525 1525 3
1526 254 -1
1526 384 -1
1526 1526 3
1527 251 -1
1527 753 -1
1527 1527 3
1528 78 -1
1528 1265 -1
1528 1528 7
1529 26 -1
1529 940 -1
1529 1529 3
1530 104 -1
1530 626 -1
1530 1530 2
1531 16 -1
1531 83 -1
1531 1531 2
1532 17 -1
1532 369 -1
1532 1532 4
1533 49 -1
1533 677 -1
1533 1533 2
1534 688 -1
1534 904 -1
1534 1534 8
1535 102 -1
1535 884 -1
1535 1535 6
1536 5 -1
1536 281 -1
1536 1536 2
1537 7 -1
1537 659 -1
1537 1537 2
1538 478 -1
1538 1426 -1
1538 1538 13
1539 141 -1
1539 173 -1
1539 1539 5
1540 101 -1
1540 366 -1
1540 1540 3
1541 656 -1
1541 818 -1
1541 1541 4
1542 193 -1
1542 599 -1
1542 1542 3
1543 16 -1
1543 89 -1
1543 1543 5
1544 463 -1
1544 1008 -1
1544 1544 3
1545 240 -1
1545 344 -1
1545 1545 8
1546 17 -1
1546 250 -1
1546 1546 3
1547 750 -1
1547 807 -1
1547 1547 3
1548 204 -1
1548 1157 -1
1548 1548 3
1549 300 -1
1549 1215 -1
1549 1549 4
1550 192 -1
1550 504 -1
1550 1550 3
1551 195 -1
1551 1129 -1
1551 1551 5
1552 1 -1
1552 551 -1
1552 1552 5
1553 34 -1
1553 1453 -1
1553 1553 4
1554 7 -1
1554 443 -1
1554 900 -1
1554 1554 4
1555 599 -1
1555 1421 -1
1555 1555 3
1556 144 -1
1556 840 -1
1556 1556 3
1557 32 -1
1557 1025 -1
1557 1557 2
1558 57 -1
1558 938 -1
1558 1558 5
1559 182 -1
1559 498 -1
1559 1559 2
1560 11 -1
1560 1351 -1
1560 1560 3
1561 318 -1
1561 1467 -1
1561 1561 5
1562 119 -1
1562 869 -1
1562 1562 2
1563 20 -1
1563 922 -1
1563 1563 4
1564 86 -1
1564 1227 -1
1564 1564 4
1565 823 -1
1565 968 -1
1565 1565 8
1566 924 -1
1566 1040 -1
1566 1566 3
1567 567 -1
1567 800 -1
1567 859 -1
1567 1419 -1
1567 1567 5
1568 70 -1
1568 340 -1
1568 1568 4
1569 496 -1
1569 1439 -1
1569 1569 4
1570 251 -1
1570 1102 -1
1570 1570 4
1571 140 -1
1571 1309 -1
1571 1571 9
1572 2 -1
1572 226 -1
1572 1572 2
1573 463 -1
1573 1349 -1
1573 1573 2
1574 340 -1
1574 343 -1
1574 1574 3
1575 567 -1
1575 1257 -1
1575 1575 2
1576 93 -1
1576 107 -1
1576 1576 3
1577 33 -1
1577 598 -1
1577 1577 5
1578 360 -1
1578 1327 -1
1578 1578 5
1579 137 -1
1579 1008 -1
1579 1579 3
1580 219 -1
1580 884 -1
1580 1580 4
1581 24 -1
1581 204 -1
1581 1581 4
1582 457 -1
1582 532 -1
1582 1582 4
1583 1048 -1
1583 1532 -1
1583 1583 7
1584 47 -1
1584 1145 -1
1584 1584 3
1585 379 -1
1585 1191 -1
1585 1585 2
1586 455 -1
1586 679 -1
1586 1586 3
1587 465 -1
1587 915 -1
1587 1587 2
1588 12 -1
1588 88 -1
1588 1588 4
1589 1394 -1
1589 1584 -1
1589 1589 8
1590 284 -1
1590 612 -1
1590 1590 5
1591 311 -1
1591 1027 -1
1591 1591 2
1592 50 -1
1592 304 -1
1592 1592 4
1593 108 -1
1593 991 -1
1593 1593 5
1594 370 -1
1594 854 -1
1594 1594 6
1595 178 -1
1595 240 -1
1595 1595 5
1596 88 -1
1596 236 -1
1596 1596 6
1597 7 -1
1597 641 -1
1597 1597 2
1598 705 -1
1598 935 -1
1598 1598 3
1599 10 -1
1599 426 -1
1599 684 -1
1599 1599 4
1600 7 -1
1600 859 -1
1600 1600 4
1601 2 -1
1601 202 -1
1601 1601 4
1602 436 -1
1602 1481 -1
1602 1602 3
1603 929 -1
1603 1429 -1
1603 1603 3
1604 93 -1
1604 140 -1
1604 1604 3
1605 94 -1
1605 617 -1
1605 1605 3
1606 238 -1
1606 1458 -1
1606 1606 4
1607 44 -1
1607 705 -1
1607 1607 3
1608 68 -1
1608 226 -1
1608 1608 4
1609 339 -1
1609 1389 -1
1609 1609 5
1610 502 -1
1610 1519 -1
1610 1610 3
1611 349 -1
1611 1059 -1
1611 1611 3
1612 330 -1
1612 550 -1
1612 1612 2
1613 680 -1
1613 1149 -1
1613 1613 3
1614 497 -1
1614 539 -1
1614 1614 2
1615 477 -1
1615 832 -1
1615 1615 6
1616 380 -1
1616 1292 -1
1616 1616 2
1617 384 -1
1617 1314 -1
1617 1617 4
1618 2 -1
1618 674 -1
1618 1618 2
1619 50 -1
1619 62 -1
1619 1619 3
1620 1148 -1
1620 1260 -1
1620 1620 2
1621 11 -1
1621 923 -1
1621 1621 4
1622 882 -1
1622 1215 -1
1622 1622 3
1623 1 -1
1623 82 -1
1623 1623 3
1624 45 -1
1624 442 -1
1624 1333 -1
1624 1624 3
1625 61 -1
1625 83 -1
1625 1625 2
1626 7 -1
1626 1543 -1
1626 1626 2
1627 1 -1
1627 93 -1
1627 1627 3
1628 385 -1
1628 1102 -1
1628 1628 11
1629 670 -1
1629 722 -1
1629 1629 3
1630 406 -1
1630 475 -1
1630 1630 5
1631 16 -1
1631 28 -1
1631 1631 2
1632 8 -1
1632 1146 -1
1632 1376 -1
1632 1632 7
1633 1083 -1
1633 1311 -1
1633 1633 4
1634 644 -1
1634 1225 -1
1634 1634 3
1635 798 -1
1635 1254 -1
1635 1635 2
1636 507 -1
1636 806 -1
1636 1636 2
1637 236 -1
1637 715 -1
1637 1637 2
1638 723 -1
1638 940 -1
1638 1638 2
1639 61 -1
1639 549 -1
1639 1639 2
1640 1382 -1
1640 1448 -1
1640 1640 4
1641 9 -1
1641 823 -1
1641 1641 3
1642 176 -1
1642 1211 -1
1642 1642 2
1643 174 -1
1643 623 -1
1643 1643 8
1644 48 -1
1644 229 -1
1644 1644 5
1645 408 -1
1645 491 -1
1645 1645 2
1646 242 -1
1646 248 -1
1646 377 -1
1646 1646 4
1647 2 -1
1647 767 -1
1647 1647 4
1648 292 -1
1648 674 -1
1648 1648 2
1649 798 -1
1649 859 -1
1649 1649 3
1650 199 -1
1650 1204 -1
1650 1650 2
1651 1 -1
1651 788 -1
1651 1651 4
1652 12 -1
1652 240 -1
1652 1652 4
1653 999 -1
1653 1304 -1
1653 1653 7
1654 2 -1
1654 1103 -1
1654 1654 3
1655 357 -1
1655 871 -1
1655 1655 4
1656 344 -1
1656 391 -1
1656 1656 4
1657 594 -1
1657 1005 -1
1657 1657 7
1658 16 -1
1658 240 -1
1658 1658 3
1659 44 -1
1659 926 -1
1659 1659 5
1660 112 -1
1660 1271 -1
1660 1660 3
1661 22 -1
1661 69 -1
1661 1661 2
1662 102 -1
1662 282 -1
1662 758 -1
1662 1662 3
1663 28 -1
1663 402 -1
1663 1663 8
1664 682 -1
1664 722 -1
1664 1664 3
1665 118 -1
1665 1016 -1
1665 1665 4
1666 632 -1
1666 840 -1
1666 1666 2
1667 402 -1
1667 570 -1
1667 1667 3
1668 195 -1
1668 435 -1
1668 1668 4
1669 105 -1
1669 345 -1
1669 1003 -1
1669 1669 4
1670 36 -1
1670 1160 -1
1670 1670 6
1671 2 -1
1671 1632 -1
1671 1671 3
1672 454 -1
1672 1561 -1
1672 1672 6
1673 69 -1
1673 78 -1
1673 1673 2
1674 229 -1
1674 565 -1
1674 1674 2
1675 218 -1
1675 249 -1
1675 1675 5
1676 18 -1
1676 1601 -1
1676 1676 4
1677 575 -1
1677 939 -1
1677 1677 3
1678 379 -1
1678 1523 -1
1678 1678 2
1679 313 -1
1679 347 -1
1679 1571 -1
1679 1679 3
1680 674 -1
1680 1128 -1
1680 1680 2
1681 234 -1
1681 1175 -1
1681 1681 4
1682 236 -1
1682 551 -1
1682 1682 4
1683 21 -1
1683 612 -1
1683 1683 4
1684 188 -1
1684 353 -1
1684 1684 3
1685 5 -1
1685 1552 -1
1685 1685 7
1686 182 -1
1686 520 -1
1686 1686 2
1687 906 -1
1687 1121 -1
1687 1687 3
1688 450 -1
1688 873 -1
1688 1688 3
1689 212 -1
1689 791 -1
1689 1689 8
1690 1341 -1
1690 1541 -1
1690 1690 5
1691 509 -1
1691 612 -1
1691 1691 4
1692 17 -1
1692 423 -1
1692 1692 4
1693 3 -1
1693 716 -1
1693 1693 5
1694 29 -1
1694 1675 -1
1694 1694 5
1695 21 -1
1695 32 -1
1695 1695 4
1696 311 -1
1696 1665 -1
1696 1696 3
1697 414 -1
1697 432 -1
1697 1697 4
1698 28 -1
1698 1513 -1
1698 1698 9
1699 5 -1
1699 238 -1
1699 1699 5
1700 115 -1
1700 1458 -1
1700 1700 6
1701 118 -1
1701 1252 -1
1701 1298 -1
1701 1701 4
1702 342 -1
1702 879 -1
1702 1702 2
1703 57 -1
1703 1264 -1
1703 1703 5
1704 113 -1
1704 1519 -1
1704 1704 2
1705 345 -1
1705 426 -1
1705 1705 2
1706 124 -1
1706 1652 -1
1706 1706 6
1707 605 -1
1707 1170 -1
1707 1707 3
1708 516 -1
1708 578 -1
1708 1708 3
1709 499 -1
1709 711 -1
1709 1709 2
1710 347 -1
1710 665 -1
1710 1710 3
1711 62 -1
1711 1444 -1
1711 1711 4
1712 595 -1
1712 1175 -1
1712 1712 4
1713 550 -1
1713 1056 -1
1713 1713 2
1714 454 -1
1714 850 -1
1714 1714 3
1715 95 -1
1715 280 -1
1715 500 -1
1715 1715 4
1716 141 -1
1716 330 -1
1716 1716 4
1717 15 -1
1717 845 -1
1717 1717 4
1718 144 -1
1718 570 -1
1718 1070 -1
1718 1718 6
1719 262 -1
1719 1439 -1
1719 1719 5
1720 38 -1
1720 274 -1
1720 1720 2
1721 302 -1
1721 1459 -1
1721 1721 8
1722 662 -1
1722 1699 -1
1722 1722 2
1723 119 -1
1723 509 -1
1723 1723 3
1724 91 -1
1724 1387 -1
1724 1663 -1
1724 1724 3
1725 8 -1
1725 274 -1
1725 1725 2
1726 931 -1
1726 1185 -1
1726 1726 4
1727 522 -1
1727 1288 -1
1727 1727 2
1728 632 -1
1728 680 -1
1728 1728 2
1729 157 -1
1729 928 -1
1729 1729 3
1730 406 -1
1730 1300 -1
1730 1730 3
1731 193 -1
1731 1577 -1
1731 1731 2
1732 542 -1
1732 1058 -1
1732 1732 3
1733 572 -1
1733 1538 -1
1733 1733 2
1734 758 -1
1734 1425 -1
1734 1734 7
1735 195 -1
1735 1002 -1
1735 1735 2
1736 51 -1
1736 1194 -1
1736 1736 4
1737 1 -1
1737 88 -1
1737 1737 12
1738 1503 -1
1738 1737 -1
1738 1738 3
1739 193 -1
1739 1499 -1
1739 1739 2
1740 11 -1
1740 941 -1
1740 1740 3
1741 546 -1
1741 1154 -1
1741 1741 3
1742 132 -1
1742 736 -1
1742 1742 4
1743 1097 -1
1743 1632 -1
1743 1743 2
1744 26 -1
1744 817 -1
1744 1744 3
1745 423 -1
1745 882 -1
1745 1745 13
1746 7 -1
1746 436 -1
1746 1746 4
1747 410 -1
1747 552 -1
1747 1747 4
1748 238 -1
1748 583 -1
1748 1748 5
1749 694 -1
1749 1123 -1
1749 1749 5
1750 158 -1
1750 1186 -1
1750 1750 2
1751 30 -1
1751 1748 -1
1751 1751 4
1752 384 -1
1752 996 -1
1752 1752 2
1753 706 -1
1753 1400 -1
1753 1753 4
1754 70 -1
1754 1227 -1
1754 1754 2
1755 17 -1
1755 206 -1
1755 1755 2
1756 68 -1
1756 116 -1
1756 356 -1
1756 1756 5
1757 896 -1
1757 1716 -1
1757 1757 2
1758 26 -1
1758 56 -1
1758 1758 2
1759 326 -1
1759 906 -1
1759 1759 2
1760 2 -1
1760 937 -1
1760 1760 3
1761 7 -1
1761 99 -1
1761 1761 6
1762 202 -1
1762 587 -1
1762 1762 4
1763 137 -1
1763 908 -1
1763 1763 2
1764 304 -1
1764 328 -1
1764 1764 6
1765 26 -1
1765 540 -1
1765 1343 -1
1765 1765 4
1766 361 -1
1766 393 -1
1766 515 -1
1766 1766 4
1767 171 -1
1767 764 -1
1767 1767 2
1768 1331 -1
1768 1363 -1
1768 1768 4
1769 11 -1
1769 341 -1
1769 1769 4
1770 44 -1
1770 814 -1
1770 1770 2
1771 628 -1
1771 1489 -1
1771 1771 3
1772 1076 -1
1772 1549 -1
1772 1772 2
1773 234 -1
1773 482 -1
1773 1773 2
1774 189 -1
1774 341 -1
1774 1774 3
1775 197 -1
1775 1403 -1
1775 1775 4
1776 2 -1
1776 329 -1
1776 1776 8
1777 162 -1
1777 979 -1
1777 1777 2
1778 274 -1
1778 1218 -1
1778 1778 3
1779 274 -1
1779 1066 -1
1779 1779 2
1780 680 -1
1780 1395 -1
1780 1780 3
1781 17 -1
1781 19 -1
1781 1781 6
1782 706 -1
1782 837 -1
1782 1427 -1
1782 1782 5
1783 18 -1
1783 249 -1
1783 1783 4
1784 867 -1
1784 1764 -1
1784 1784 3
1785 273 -1
1785 992 -1
1785 1785 7
1786 18 -1
1786 195 -1
1786 1786 2
1787 471 -1
1787 787 -1
1787 1787 3
1788 185 -1
1788 1499 -1
1788 1788 6
1789 212 -1
1789 1653 -1
1789 1789 2
1790 42 -1
1790 644 -1
1790 1790 2
1791 615 -1
1791 755 -1
1791 1791 5
1792 283 -1
1792 786 -1
1792 1792 2
1793 465 -1
1793 1668 -1
1793 1793 5
1794 240 -1
1794 1793 -1
1794 1794 2
1795 275 -1
1795 1316 -1
1795 1795 5
1796 295 -1
1796 1389 -1
1796 1796 6
1797 70 -1
1797 758 -1
1797 1797 6
1798 5 -1
1798 1156 -1
1798 1798 3
1799 908 -1
1799 1252 -1
1799 1799 6
1800 50 -1
1800 352 -1
1800 1800 3
1801 57 -1
1801 1482 -1
1801 1801 2
1802 14 -1
1802 152 -1
1802 1802 3
1803 102 -1
1803 241 -1
1803 1803 2
1804 475 -1
1804 1264 -1
1804 1804 3
1805 2 -1
1805 349 -1
1805 1805 3
1806 304 -1
1806 447 -1
1806 1806 2
1807 180 -1
1807 208 -1
1807 1807 3
1808 289 -1
1808 463 -1
1808 1808 2
1809 114 -1
1809 400 -1
1809 1809 3
1810 13 -1
1810 28 -1
1810 1810 2
1811 363 -1
1811 722 -1
1811 1811 3
1812 1 -1
1812 51 -1
1812 1812 5
1813 5 -1
1813 211 -1
1813 1813 2
1814 10 -1
1814 27 -1
1814 1814 3
1815 1 -1
1815 175 -1
1815 500 -1
1815 1815 4
1816 190 -1
1816 789 -1
1816 1233 -1
1816 1816 5
1817 1231 -1
1817 1479 -1
1817 1817 9
1818 586 -1
1818 933 -1
1818 1818 2
1819 284 -1
1819 935 -1
1819 1819 2
1820 57 -1
1820 1499 -1
1820 1820 3
1821 877 -1
1821 1737 -1
1821 1821 2
1822 620 -1
1822 1796 -1
1822 1822 4
1823 423 -1
1823 744 -1
1823 1823 2
1824 1046 -1
1824 1245 -1
1824 1824 5
1825 240 -1
1825 1534 -1
1825 1825 2
1826 5 -1
1826 588 -1
1826 1826 4
1827 7 -1
1827 114 -1
1827 1827 2
1828 226 -1
1828 1628 -1
1828 1828 3
1829 57 -1
1829 1016 -1
1829 1829 3
1830 233 -1
1830 238 -1
1830 901 -1
1830 1830 5
1831 244 -1
1831 496 -1
1831 849 -1
1831 1831 3
1832 908 -1
1832 1309 -1
1832 1832 2
1833 141 -1
1833 1084 -1
1833 1833 3
1834 27 -1
1834 423 -1
1834 1834 4
1835 522 -1
1835 742 -1
1835 1835 4
1836 120 -1
1836 132 -1
1836 1836 2
1837 1459 -1
1837 1765 -1
1837 1837 2
1838 177 -1
1838 864 -1
1838 1838 3
1839 187 -1
1839 1121 -1
1839 1839 3
1840 356 -1
1840 1401 -1
1840 1840 5
1841 823 -1
1841 967 -1
1841 1841 4
1842 23 -1
1842 1580 -1
1842 1842 4
1843 1 -1
1843 1205 -1
1843 1843 4
1844 2 -1
1844 5 -1
1844 1844 3
1845 444 -1
1845 539 -1
1845 1845 4
1846 84 -1
1846 126 -1
1846 1846 2
1847 62 -1
1847 141 -1
1847 1847 3
1848 589 -1
1848 1040 -1
1848 1848 4
1849 50 -1
1849 362 -1
1849 1849 5
1850 49 -1
1850 340 -1
1850 1850 3
1851 30 -1
1851 853 -1
1851 1851 2
1852 164 -1
1852 826 -1
1852 1852 3
1853 171 -1
1853 1314 -1
1853 1849 -1
1853 1853 3
1854 218 -1
1854 1101 -1
1854 1854 4
1855 315 -1
1855 1264 -1
1855 1855 2
1856 97 -1
1856 470 -1
1856 1486 -1
1856 1856 7
1857 164 -1
1857 637 -1
1857 1857 6
1858 131 -1
1858 588 -1
1858 1858 2
1859 217 -1
1859 1657 -1
1859 1859 3
1860 161 -1
1860 1101 -1
1860 1148 -1
1860 1860 5
1861 658 -1
1861 994 -1
1861 1861 5
1862 924 -1
1862 949 -1
1862 1862 6
1863 595 -1
1863 1333 -1
1863 1863 2
1864 251 -1
1864 1397 -1
1864 1864 2
1865 76 -1
1865 601 -1
1865 1865 5
1866 898 -1
1866 1433 -1
1866 1866 4
1867 1497 -1
1867 1736 -1
1867 1867 2
1868 121 -1
1868 491 -1
1868 1848 -1
1868 1868 4
1869 179 -1
1869 503 -1
1869 1869 2
1870 240 -1
1870 892 -1
1870 1870 3
1871 931 -1
1871 1256 -1
1871 1871 4
1872 115 -1
1872 1249 -1
1872 1872 6
1873 211 -1
1873 285 -1
1873 1873 3
1874 1350 -1
1874 1521 -1
1874 1874 3
1875 362 -1
1875 1519 -1
1875 1875 3
1876 28 -1
1876 247 -1
1876 1876 3
1877 44 -1
1877 1452 -1
1877 1877 3
1878 1 -1
1878 1439 -1
1878 1878 4
1879 338 -1
1879 1019 -1
1879 1879 3
1880 51 -1
1880 141 -1
1880 1880 2
1881 112 -1
1881 1606 -1
1881 1881 5
1882 674 -1
1882 906 -1
1882 1882 3
1883 344 -1
1883 533 -1
1883 1883 3
1884 262 -1
1884 764 -1
1884 1884 3
1885 1538 -1
1885 1602 -1
1885 1885 3
1886 522 -1
1886 1791 -1
1886 1886 3
1887 627 -1
1887 933 -1
1887 1887 3
1888 244 -1
1888 1582 -1
1888 1888 5
1889 5 -1
1889 1845 -1
1889 1889 6
1890 2 -1
1890 1655 -1
1890 1890 3
1891 332 -1
1891 363 -1
1891 1891 3
1892 133 -1
1892 1075 -1
1892 1892 3
1893 541 -1
1893 1461 -1
1893 1893 3
1894 69 -1
1894 1183 -1
1894 1894 2
1895 160 -1
1895 675 -1
1895 1895 4
1896 201 -1
1896 674 -1
1896 1896 2
1897 116 -1
1897 740 -1
1897 1897 3
1898 244 -1
1898 1762 -1
1898 1898 8
1899 344 -1
1899 1163 -1
1899 1899 4
1900 50 -1
1900 251 -1
1900 1900 2
1901 5 -1
1901 1586 -1
1901 1901 3
1902 213 -1
1902 423 -1
1902 1902 6
1903 516 -1
1903 801 -1
1903 1383 -1
1903 1903 4
1904 3 -1
1904 1007 -1
1904 1904 4
1905 132 -1
1905 470 -1
1905 1905 2
1906 2 -1
1906 27 -1
1906 1906 3
1907 28 -1
1907 1761 -1
1907 1907 3
1908 25 -1
1908 814 -1
1908 1908 3
1909 17 -1
1909 503 -1
1909 1909 4
1910 29 -1
1910 668 -1
1910 1910 3
1911 264 -1
1911 1887 -1
1911 1911 2
1912 112 -1
1912 369 -1
1912 1912 4
1913 668 -1
1913 906 -1
1913 1187 -1
1913 1913 3
1914 5 -1
1914 1647 -1
1914 1914 3
1915 144 -1
1915 1874 -1
1915 1915 3
1916 1345 -1
1916 1519 -1
1916 1916 3
1917 462 -1
1917 861 -1
1917 1917 4
1918 2 -1
1918 378 -1
1918 1918 3
1919 759 -1
1919 1878 -1
1919 1919 2
1920 36 -1
1920 700 -1
1920 1920 2
1921 558 -1
1921 1694 -1
1921 1921 4
1922 162 -1
1922 1173 -1
1922 1922 2
1923 247 -1
1923 288 -1
1923 766 -1
1923 1923 3
1924 92 -1
1924 1381 -1
1924 1924 4
1925 49 -1
1925 110 -1
1925 1925 3
1926 319 -1
1926 341 -1
1926 1926 5
1927 79 -1
1927 199 -1
1927 1854 -1
1927 1927 3
1928 17 -1
1928 68 -1
1928 1928 3
1929 2 -1
1929 1252 -1
1929 1929 2
1930 955 -1
1930 1615 -1
1930 1776 -1
1930 1930 3
1931 235 -1
1931 465 -1
1931 1931 4
1932 12 -1
1932 1538 -1
1932 1932 4
1933 51 -1
1933 179 -1
1933 1933 7
1934 790 -1
1934 1135 -1
1934 1934 3
1935 5 -1
1935 758 -1
1935 1935 3
1936 413 -1
1936 562 -1
1936 1936 6
1937 1157 -1
1937 1609 -1
1937 1937 2
1938 292 -1
1938 1517 -1
1938 1938 3
1939 276 -1
1939 499 -1
1939 1939 3
1940 141 -1
1940 233 -1
1940 1940 7
1941 1007 -1
1941 1214 -1
1941 1941 2
1942 50 -1
1942 1191 -1
1942 1942 4
1943 50 -1
1943 508 -1
1943 1943 4
1944 23 -1
1944 141 -1
1944 1944 3
1945 1083 -1
1945 1351 -1
1945 1945 2
1946 9 -1
1946 63 -1
1946 1946 5
1947 2 -1
1947 1912 -1
1947 1947 4
1948 51 -1
1948 842 -1
1948 1948 2
1949 121 -1
1949 318 -1
1949 1949 4
1950 104 -1
1950 423 -1
1950 1950 7
1951 2 -1
1951 662 -1
1951 1951 6
1952 22 -1
1952 1799 -1
1952 1952 6
1953 2 -1
1953 1950 -1
1953 1953 8
1954 5 -1
1954 32 -1
1954 1954 4
1955 2 -1
1955 773 -1
1955 1955 3
1956 1514 -1
1956 1741 -1
1956 1956 3
1957 551 -1
1957 632 -1
1957 1957 3
1958 12 -1
1958 215 -1
1958 1300 -1
1958 1958 3
1959 490 -1
1959 1014 -1
1959 1959 2
1960 862 -1
1960 1010 -1
1960 1960 3
1961 125 -1
1961 294 -1
1961 1961 4
1962 7 -1
1962 27 -1
1962 1962 2
1963 92 -1
1963 193 -1
1963 1963 3
1964 233 -1
1964 1889 -1
1964 1964 2
1965 1734 -1
1965 1840 -1
1965 1965 4
1966 136 -1
1966 848 -1
1966 1966 5
1967 728 -1
1967 1459 -1
1967 1967 3
1968 765 -1
1968 941 -1
1968 1968 5
1969 176 -1
1969 1534 -1
1969 1969 3
1970 36 -1
1970 198 -1
1970 1122 -1
1970 1970 4
1971 141 -1
1971 682 -1
1971 1971 3
1972 551 -1
1972 708 -1
1972 1972 4
1973 148 -1
1973 810 -1
1973 1973 2
1974 497 -1
1974 1165 -1
1974 1974 2
1975 130 -1
1975 893 -1
1975 1975 4
1976 270 -1
1976 1359 -1
1976 1976 4
1977 164 -1
1977 487 -1
1977 1977 5
1978 537 -1
1978 1745 -1
1978 1978 4
1979 314 -1
1979 1899 -1
1979 1979 3
1980 174 -1
1980 807 -1
1980 1980 3
1981 519 -1
1981 740 -1
1981 1706 -1
1981 1981 8
1982 131 -1
1982 1227 -1
1982 1982 2
1983 242 -1
1983 470 -1
1983 1983 4
1984 364 -1
1984 559 -1
1984 1984 3
1985 155 -1
1985 758 -1
1985 1985 2
1986 10 -1
1986 281 -1
1986 1986 3
1987 7 -1
1987 884 -1
1987 1987 2
1988 12 -1
1988 774 -1
1988 1988 4
1989 191 -1
1989 278 -1
1989 1989 4
1990 339 -1
1990 923 -1
1990 1990 4
1991 11 -1
1991 92 -1
1991 1991 3
1992 5 -1
1992 835 -1
1992 1992 2
1993 736 -1
1993 1100 -1
1993 1993 2
1994 1580 -1
1994 1978 -1
1994 1994 3
1995 373 -1
1995 928 -1
1995 1995 3
1996 88 -1
1996 951 -1
1996 1996 5
1997 545 -1
1997 1748 -1
1997 1997 4
1998 70 -1
1998 248 -1
1998 1206 -1
1998 1998 5
1999 325 -1
1999 1656 -1
1999 1999 5
2000 546 -1
2000 946 -1
2000 2000 2
2001 32 -1
2001 67 -1
2001 2001 2
2002 115 -1
2002 1238 -1
2002 2002 4
2003 85 -1
2003 296 -1
2003 2003 3
2004 896 -1
2004 1714 -1
2004 2004 2
2005 16 -1
2005 306 -1
2005 2005 4
2006 189 -1
2006 976 -1
2006 2006 5
2007 2 -1
2007 10 -1
2007 1788 -1
2007 2007 4
2008 731 -1
2008 814 -1
2008 2008 2
2009 5 -1
2009 1054 -1
2009 2009 6
2010 363 -1
2010 1389 -1
2010 2010 3
2011 535 -1
2011 1682 -1
2011 1753 -1
2011 2011 4
2012 2 -1
2012 66 -1
2012 2012 4
2013 11 -1
2013 1952 -1
2013 2013 5
2014 706 -1
2014 769 -1
2014 2014 3
2015 884 -1
2015 1141 -1
2015 2015 5
2016 514 -1
2016 1129 -1
2016 2016 6
2017 196 -1
2017 539 -1
2017 2017 5
2018 211 -1
2018 798 -1
2018 2018 2
2019 5 -1
2019 1628 -1
2019 2019 5
2020 14 -1
2020 251 -1
2020 2020 5
2021 14 -1
2021 1703 -1
2021 2021 2
2022 436 -1
2022 1141 -1
2022 2022 3
2023 210 -1
2023 270 -1
2023 2023 3
2024 408 -1
2024 1689 -1
2024 2024 3
2025 613 -1
2025 663 -1
2025 2025 2
2026 1293 -1
2026 1408 -1
2026 2026 3
2027 294 -1
2027 766 -1
2027 2027 6
2028 5 -1
2028 1195 -1
2028 2028 2
2029 83 -1
2029 728 -1
2029 2029 3
2030 1667 -1
2030 1881 -1
2030 2030 2
2031 47 -1
2031 156 -1
2031 2031 4
2032 25 -1
2032 407 -1
2032 2032 2
2033 30 -1
2033 1325 -1
2033 2033 4
2034 112 -1
2034 555 -1
2034 2034 2
2035 79 -1
2035 266 -1
2035 2035 2
2036 1339 -1
2036 1737 -1
2036 1856 -1
2036 2036 3
2037 1659 -1
2037 1701 -1
2037 2037 2
2038 137 -1
2038 253 -1
2038 2038 3
2039 70 -1
2039 1932 -1
2039 2039 4
2040 1 -1
2040 106 -1
2040 2040 5
2041 129 -1
2041 1895 -1
2041 2041 6
2042 25 -1
2042 516 -1
2042 2042 2
2043 1486 -1
2043 1685 -1
2043 2043 2
2044 675 -1
2044 811 -1
2044 2044 4
2045 6 -1
2045 786 -1
2045 2045 3
2046 91 -1
2046 876 -1
2046 2046 3
2047 356 -1
2047 727 -1
2047 2047 3
2048 442 -1
2048 595 -1
2048 2048 3
2049 17 -1
2049 128 -1
2049 2049 3
2050 27 -1
2050 635 -1
2050 2050 5
2051 144 -1
2051 611 -1
2051 2051 2
2052 1009 -1
2052 1211 -1
2052 2052 3
2053 876 -1
2053 1690 -1
2053 2053 5
2054 252 -1
2054 1734 -1
2054 2054 2
2055 104 -1
2055 1148 -1
2055 2055 3
2056 21 -1
2056 1571 -1
2056 2056 3
2057 274 -1
2057 819 -1
2057 2057 3
2058 82 -1
2058 1023 -1
2058 2058 4
2059 1473 -1
2059 1569 -1
2059 2059 4
2060 12 -1
2060 1737 -1
2060 1967 -1
2060 2060 7
2061 584 -1
2061 2060 -1
2061 2061 2
2062 807 -1
2062 1593 -1
2062 2062 6
2063 739 -1
2063 1110 -1
2063 2063 3
2064 2 -1
2064 109 -1
2064 2064 4
2065 1 -1
2065 689 -1
2065 2065 3
2066 242 -1
2066 1153 -1
2066 2066 3
2067 5 -1
2067 818 -1
2067 2067 3
2068 96 -1
2068 656 -1
2068 1980 -1
2068 2068 4
2069 207 -1
2069 249 -1
2069 2069 3
2070 990 -1
2070 1094 -1
2070 2070 2
2071 12 -1
2071 901 -1
2071 2071 4
2072 1084 -1
2072 1593 -1
2072 2072 2
2073 488 -1
2073 714 -1
2073 2073 5
2074 971 -1
2074 1305 -1
2074 2074 4
2075 118 -1
2075 1472 -1
2075 2075 4
2076 309 -1
2076 1430 -1
2076 2076 3
2077 282 -1
2077 1628 -1
2077 1989 -1
2077 2077 3
2078 57 -1
2078 1268 -1
2078 2078 4
2079 23 -1
2079 2011 -1
2079 2079 2
2080 34 -1
2080 372 -1
2080 2080 4
2081 98 -1
2081 955 -1
2081 2081 3
2082 84 -1
2082 1960 -1
2082 2082 2
2083 5 -1
2083 1361 -1
2083 2083 3
2084 451 -1
2084 542 -1
2084 2084 2
2085 729 -1
2085 1398 -1
2085 2085 3
2086 246 -1
2086 320 -1
2086 2086 3
2087 92 -1
2087 370 -1
2087 2087 2
2088 105 -1
2088 288 -1
2088 2088 3
2089 129 -1
2089 1497 -1
2089 2089 3
2090 49 -1
2090 82 -1
2090 2090 3
2091 416 -1
2091 1381 -1
2091 2091 2
2092 361 -1
2092 871 -1
2092 2092 2
2093 314 -1
2093 561 -1
2093 2093 5
2094 283 -1
2094 1998 -1
2094 2094 2
2095 716 -1
2095 1302 -1
2095 2095 3
2096 614 -1
2096 1464 -1
2096 2096 5
2097 115 -1
2097 1552 -1
2097 2097 2
2098 189 -1
2098 1259 -1
2098 2098 7
2099 524 -1
2099 730 -1
2099 2099 2
2100 7 -1
2100 1606 -1
2100 2100 3
2101 135 -1
2101 748 -1
2101 2101 2
2102 152 -1
2102 907 -1
2102 2102 5
2103 79 -1
2103 271 -1
2103 512 -1
2103 2103 4
2104 554 -1
2104 1104 -1
2104 2104 2
2105 321 -1
2105 977 -1
2105 2105 3
2106 1311 -1
2106 1423 -1
2106 2106 2
2107 114 -1
2107 690 -1
2107 2107 6
2108 684 -1
2108 1309 -1
2108 2108 6
2109 49 -1
2109 758 -1
2109 2109 5
2110 653 -1
2110 861 -1
2110 2110 3
2111 280 -1
2111 1438 -1
2111 2111 2
2112 11 -1
2112 445 -1
2112 2112 3
2113 1 -1
2113 2 -1
2113 2113 4
2114 1283 -1
2114 1583 -1
2114 1797 -1
2114 2114 3
2115 246 -1
2115 1721 -1
2115 2115 7
2116 1698 -1
2116 2022 -1
2116 2116 2
2117 900 -1
2117 1441 -1
2117 2117 2
2118 141 -1
2118 366 -1
2118 2118 5
2119 926 -1
2119 1966 -1
2119 2119 4
2120 30 -1
2120 238 -1
2120 2120 6
2121 139 -1
2121 304 -1
2121 2121 3
2122 27 -1
2122 1210 -1
2122 2122 2
2123 133 -1
2123 1072 -1
2123 2123 3
2124 306 -1
2124 431 -1
2124 2124 2
2125 699 -1
2125 1169 -1
2125 2125 4
2126 378 -1
2126 1540 -1
2126 2126 2
2127 16 -1
2127 44 -1
2127 2127 3
2128 807 -1
2128 1331 -1
2128 2128 2
2129 129 -1
2129 1769 -1
2129 2129 3
2130 19 -1
2130 678 -1
2130 2130 4
2131 101 -1
2131 210 -1
2131 2131 8
2132 356 -1
2132 417 -1
2132 972 -1
2132 2132 6
2133 49 -1
2133 844 -1
2133 2133 2
2134 1089 -1
2134 1571 -1
2134 2134 3
2135 1065 -1
2135 1153 -1
2135 2135 9
2136 395 -1
2136 975 -1
2136 2136 5
2137 13 -1
2137 550 -1
2137 2137 3
2138 409 -1
2138 2013 -1
2138 2138 3
2139 100 -1
2139 1480 -1
2139 2139 3
2140 18 -1
2140 70 -1
2140 2140 3
2141 189 -1
2141 361 -1
2141 2141 2
2142 198 -1
2142 820 -1
2142 2142 3
2143 46 -1
2143 68 -1
2143 2143 2
2144 702 -1
2144 850 -1
2144 2144 2
2145 338 -1
2145 1151 -1
2145 2145 7
2146 2 -1
2146 45 -1
2146 1942 -1
2146 2146 7
2147 28 -1
2147 76 -1
2147 2147 7
2148 976 -1
2148 1931 -1
2148 2148 4
2149 56 -1
2149 79 -1
2149 2149 4
2150 40 -1
2150 612 -1
2150 2150 3
2151 968 -1
2151 1522 -1
2151 2151 3
2152 36 -1
2152 782 -1
2152 2152 4
2153 185 -1
2153 1828 -1
2153 2153 3
2154 475 -1
2154 714 -1
2154 2154 4
2155 1081 -1
2155 1907 -1
2155 2155 2
2156 625 -1
2156 929 -1
2156 2156 3
2157 1 -1
2157 72 -1
2157 2157 2
2158 1 -1
2158 2 -1
2158 2158 2
2159 369 -1
2159 1698 -1
2159 2159 2
2160 252 -1
2160 934 -1
2160 2160 5
2161 46 -1
2161 1588 -1
2161 2161 3
2162 1717 -1
2162 1947 -1
2162 2162 2
2163 734 -1
2163 1953 -1
2163 2163 3
2164 1 -1
2164 222 -1
2164 2164 2
2165 42 -1
2165 804 -1
2165 1148 -1
2165 2165 3
2166 2059 -1
2166 2119 -1
2166 2166 2
2167 495 -1
2167 606 -1
2167 2167 2
2168 23 -1
2168 622 -1
2168 2168 2
2169 687 -1
2169 870 -1
2169 2169 4
2170 470 -1
2170 519 -1
2170 2170 2
2171 1 -1
2171 177 -1
2171 2171 2
2172 195 -1
2172 323 -1
2172 2172 2
2173 278 -1
2173 608 -1
2173 2173 2
2174 79 -1
2174 1312 -1
2174 2174 4
2175 162 -1
2175 174 -1
2175 2175 5
2176 1592 -1
2176 1630 -1
2176 2176 3
2177 510 -1
2177 1338 -1
2177 2177 3
2178 1879 -1
2178 2131 -1
2178 2178 4
2179 46 -1
2179 53 -1
2179 2179 3
2180 463 -1
2180 1721 -1
2180 2180 3
2181 615 -1
2181 1700 -1
2181 2181 3
2182 2 -1
2182 151 -1
2182 2182 2
2183 416 -1
2183 435 -1
2183 2183 3
2184 379 -1
2184 1016 -1
2184 1174 -1
2184 2184 3
2185 182 -1
2185 1084 -1
2185 2185 2
2186 1571 -1
2186 1991 -1
2186 2186 2
2187 148 -1
2187 1940 -1
2187 2187 2
2188 97 -1
2188 335 -1
2188 1095 -1
2188 2188 3
2189 178 -1
2189 1653 -1
2189 2189 11
2190 161 -1
2190 292 -1
2190 2190 2
2191 442 -1
2191 1360 -1
2191 2191 2
2192 18 -1
2192 204 -1
2192 2192 4
2193 318 -1
2193 625 -1
2193 2193 3
2194 85 -1
2194 1528 -1
2194 2194 3
2195 21 -1
2195 1386 -1
2195 2195 3
2196 19 -1
2196 1276 -1
2196 2196 2
2197 246 -1
2197 2016 -1
2197 2197 4
2198 522 -1
2198 936 -1
2198 2198 3
2199 1233 -1
2199 1817 -1
2199 2199 4
2200 584 -1
2200 1106 -1
2200 2200 3
2201 368 -1
2201 665 -1
2201 2201 2
2202 51 -1
2202 772 -1
2202 2202 5
2203 868 -1
2203 1670 -1
2203 2203 2
2204 7 -1
2204 2118 -1
2204 2204 2
2205 34 -1
2205 1534 -1
2205 2205 5
2206 154 -1
2206 2113 -1
2206 2206 6
2207 158 -1
2207 271 -1
2207 391 -1
2207 2207 4
2208 871 -1
2208 2078 -1
2208 2208 2
2209 40 -1
2209 558 -1
2209 2209 2
2210 121 -1
2210 714 -1
2210 2210 3
2211 177 -1
2211 792 -1
2211 2211 6
2212 3 -1
2212 1024 -1
2212 2212 2
2213 76 -1
2213 1872 -1
2213 2213 5
2214 66 -1
2214 674 -1
2214 776 -1
2214 2214 6
2215 242 -1
2215 818 -1
2215 2215 3
2216 1007 -1
2216 1511 -1
2216 2216 4
2217 1628 -1
2217 2071 -1
2217 2217 4
2218 34 -1
2218 211 -1
2218 2218 2
2219 993 -1
2219 1528 -1
2219 2219 3
2220 233 -1
2220 306 -1
2220 2220 3
2221 5 -1
2221 1946 -1
2221 1986 -1
2221 2221 3
2222 587 -1
2222 1435 -1
2222 2222 2
2223 112 -1
2223 672 -1
2223 2223 3
2224 177 -1
2224 1170 -1
2224 2224 2
2225 63 -1
2225 679 -1
2225 2225 2
2226 13 -1
2226 344 -1
2226 2226 3
2227 880 -1
2227 909 -1
2227 2227 3
2228 695 -1
2228 849 -1
2228 2228 2
2229 663 -1
2229 1128 -1
2229 2229 3
2230 27 -1
2230 977 -1
2230 2230 2
2231 18 -1
2231 1944 -1
2231 2231 2
2232 104 -1
2232 544 -1
2232 2232 3
2233 37 -1
2233 919 -1
2233 2233 2
2234 529 -1
2234 1036 -1
2234 2234 2
2235 1130 -1
2235 1738 -1
2235 2235 3
2236 13 -1
2236 344 -1
2236 2236 3
2237 521 -1
2237 533 -1
2237 2237 5
2238 896 -1
2238 1914 -1
2238 2238 4
2239 1240 -1
2239 2135 -1
2239 2239 4
2240 164 -1
2240 1629 -1
2240 2240 3
2241 1 -1
2241 1259 -1
2241 2241 6
2242 1160 -1
2242 1535 -1
2242 2242 2
2243 445 -1
2243 1225 -1
2243 2243 2
2244 202 -1
2244 270 -1
2244 2244 5
2245 5 -1
2245 436 -1
2245 2245 3
2246 2 -1
2246 1334 -1
2246 2246 7
2247 1072 -1
2247 1226 -1
2247 2244 -1
2247 2247 6
2248 70 -1
2248 774 -1
2248 2248 2
2249 63 -1
2249 2121 -1
2249 2249 5
2250 16 -1
2250 235 -1
2250 2250 3
2251 27 -1
2251 371 -1
2251 2251 2
2252 1 -1
2252 28 -1
2252 2252 2
2253 1065 -1
2253 1213 -1
2253 2253 2
2254 15 -1
2254 1271 -1
2254 2254 2
2255 147 -1
2255 991 -1
2255 2255 4
2256 780 -1
2256 1408 -1
2256 2256 3
2257 913 -1
2257 2192 -1
2257 2257 5
2258 799 -1
2258 1951 -1
2258 2258 2
2259 1232 -1
2259 2080 -1
2259 2259 2
2260 173 -1
2260 744 -1
2260 2260 2
2261 264 -1
2261 402 -1
2261 2261 6
2262 28 -1
2262 235 -1
2262 2262 4
2263 112 -1
2263 752 -1
2263 2263 4
2264 368 -1
2264 1377 -1
2264 2264 3
2265 907 -1
2265 1163 -1
2265 2265 2
2266 917 -1
2266 1260 -1
2266 2266 2
2267 8 -1
2267 464 -1
2267 2267 2
2268 287 -1
2268 443 -1
2268 2268 2
2269 463 -1
2269 542 -1
2269 1902 -1
2269 2269 4
2270 76 -1
2270 1776 -1
2270 2270 3
2271 222 -1
2271 294 -1
2271 2271 2
2272 799 -1
2272 1609 -1
2272 2272 2
2273 493 -1
2273 2052 -1
2273 2273 4
2274 278 -1
2274 1040 -1
2274 2274 2
2275 21 -1
2275 57 -1
2275 2275 4
2276 204 -1
2276 620 -1
2276 2276 4
2277 565 -1
2277 663 -1
2277 2277 3
2278 313 -1
2278 1406 -1
2278 2278 3
2279 44 -1
2279 589 -1
2279 2279 4
2280 344 -1
2280 741 -1
2280 1298 -1
2280 2280 4
2281 36 -1
2281 946 -1
2281 2281 3
2282 56 -1
2282 384 -1
2282 1785 -1
2282 2282 4
2283 240 -1
2283 1286 -1
2283 2283 2
2284 2 -1
2284 1854 -1
2284 2284 3
2285 7 -1
2285 860 -1
2285 2285 4
2286 651 -1
2286 693 -1
2286 2286 4
2287 363 -1
2287 814 -1
2287 2287 3
2288 83 -1
2288 1066 -1
2288 2288 4
2289 871 -1
2289 1761 -1
2289 2289 4
2290 2 -1
2290 215 -1
2290 2290 2
2291 17 -1
2291 1349 -1
2291 2291 3
2292 157 -1
2292 1653 -1
2292 2292 3
2293 83 -1
2293 819 -1
2293 2293 3
2294 60 -1
2294 1322 -1
2294 2294 3
2295 783 -1
2295 2131 -1
2295 2295 2
2296 19 -1
2296 22 -1
2296 2296 3
2297 777 -1
2297 929 -1
2297 2297 2
2298 86 -1
2298 215 -1
2298 854 -1
2298 2298 3
2299 1 -1
2299 423 -1
2299 2299 3
2300 340 -1
2300 2064 -1
2300 2300 2
2301 132 -1
2301 1256 -1
2301 2301 4
2302 62 -1
2302 158 -1
2302 2302 3
2303 420 -1
2303 1204 -1
2303 2303 2
2304 240 -1
2304 1089 -1
2304 1485 -1
2304 2304 4
2305 1386 -1
2305 2149 -1
2305 2305 5
2306 142 -1
2306 1066 -1
2306 2306 2
2307 1406 -1
2307 2010 -1
2307 2307 5
2308 774 -1
2308 1414 -1
2308 2308 2
2309 286 -1
2309 871 -1
2309 2309 6
2310 5 -1
2310 938 -1
2310 2310 2
2311 28 -1
2311 921 -1
2311 1505 -1
2311 2311 8
2312 92 -1
2312 452 -1
2312 2312 2
2313 677 -1
2313 2069 -1
2313 2313 2
2314 146 -1
2314 1504 -1
2314 2314 2
2315 33 -1
2315 1539 -1
2315 2315 3
2316 318 -1
2316 1050 -1
2316 2241 -1
2316 2316 6
2317 1 -1
2317 3 -1
2317 2317 2
2318 83 -1
2318 445 -1
2318 2318 2
2319 200 -1
2319 355 -1
2319 2319 3
2320 665 -1
2320 1822 -1
2320 2320 6
2321 378 -1
2321 1560 -1
2321 2321 3
2322 682 -1
2322 2244 -1
2322 2322 3
2323 9 -1
2323 482 -1
2323 2323 2
2324 5 -1
2324 844 -1
2324 2324 3
2325 85 -1
2325 1726 -1
2325 2325 3
2326 416 -1
2326 1089 -1
2326 2326 3
2327 564 -1
2327 1108 -1
2327 2175 -1
2327 2327 3
2328 432 -1
2328 1718 -1
2328 2328 5
2329 2 -1
2329 189 -1
2329 2329 2
2330 469 -1
2330 1160 -1
2330 2330 2
2331 207 -1
2331 2041 -1
2331 2331 4
2332 208 -1
2332 797 -1
2332 816 -1
2332 2332 6
2333 914 -1
2333 2145 -1
2333 2333 4
2334 65 -1
2334 1157 -1
2334 2334 3
2335 1175 -1
2335 1212 -1
2335 2335 2
2336 93 -1
2336 659 -1
2336 2336 2
2337 70 -1
2337 1737 -1
2337 2337 3
2338 853 -1
2338 1971 -1
2338 2338 3
2339 308 -1
2339 963 -1
2339 2339 5
2340 1 -1
2340 50 -1
2340 2340 3
2341 158 -1
2341 367 -1
2341 2341 4
2342 613 -1
2342 2026 -1
2342 2342 2
2343 371 -1
2343 2098 -1
2343 2343 3
2344 112 -1
2344 417 -1
2344 2344 2
2345 787 -1
2345 949 -1
2345 2345 4
2346 1215 -1
2346 1873 -1
2346 2346 2
2347 1084 -1
2347 1904 -1
2347 2347 2
2348 5 -1
2348 411 -1
2348 2348 4
2349 164 -1
2349 636 -1
2349 718 -1
2349 2349 5
2350 158 -1
2350 241 -1
2350 2350 2
2351 1283 -1
2351 1747 -1
2351 1793 -1
2351 2351 4
2352 17 -1
2352 477 -1
2352 1019 -1
2352 2352 4
2353 42 -1
2353 190 -1
2353 2353 3
2354 63 -1
2354 569 -1
2354 2354 3
2355 2 -1
2355 1462 -1
2355 2355 3
2356 1101 -1
2356 1795 -1
2356 2356 4
2357 383 -1
2357 940 -1
2357 2357 5
2358 722 -1
2358 1406 -1
2358 2358 4
2359 53 -1
2359 1644 -1
2359 2359 3
2360 176 -1
2360 1158 -1
2360 1872 -1
2360 2360 3
2361 340 -1
2361 1582 -1
2361 2361 7
2362 406 -1
2362 1292 -1
2362 1961 -1
2362 2362 6
2363 274 -1
2363 545 -1
2363 2363 4
2364 227 -1
2364 655 -1
2364 2364 5
2365 427 -1
2365 1170 -1
2365 2365 4
2366 174 -1
2366 914 -1
2366 2366 3
2367 639 -1
2367 1797 -1
2367 2367 2
2368 938 -1
2368 1471 -1
2368 2368 4
2369 76 -1
2369 113 -1
2369 2369 2
2370 1238 -1
2370 1981 -1
2370 2370 4
2371 465 -1
2371 1687 -1
2371 2371 2
2372 79 -1
2372 289 -1
2372 2372 4
2373 156 -1
2373 1074 -1
2373 2373 2
2374 53 -1
2374 682 -1
2374 2374 2
2375 2152 -1
2375 2364 -1
2375 2375 2
2376 3 -1
2376 104 -1
2376 2376 2
2377 129 -1
2377 1388 -1
2377 2377 6
2378 50 -1
2378 2145 -1
2378 2378 2
2379 755 -1
2379 1775 -1
2379 2379 3
2380 36 -1
2380 1976 -1
2380 2380 2
2381 611 -1
2381 1008 -1
2381 2381 3
2382 226 -1
2382 2289 -1
2382 2382 7
2383 50 -1
2383 645 -1
2383 2383 3
2384 49 -1
2384 2073 -1
2384 2384 2
2385 181 -1
2385 2033 -1
2385 2385 2
2386 309 -1
2386 2016 -1
2386 2386 3
2387 624 -1
2387 989 -1
2387 2387 6
2388 363 -1
2388 773 -1
2388 2388 3
2389 23 -1
2389 177 -1
2389 2389 4
2390 347 -1
2390 2257 -1
2390 2390 4
2391 1553 -1
2391 1654 -1
2391 2391 2
2392 325 -1
2392 965 -1
2392 2392 2
2393 344 -1
2393 1796 -1
2393 2393 2
2394 241 -1
2394 864 -1
2394 2394 2
2395 363 -1
2395 2044 -1
2395 2395 5
2396 27 -1
2396 1297 -1
2396 2396 2
2397 1 -1
2397 147 -1
2397 2397 3
2398 75 -1
2398 174 -1
2398 2125 -1
2398 2398 3
2399 871 -1
2399 1691 -1
2399 2399 4
2400 149 -1
2400 860 -1
2400 2400 5
2401 1 -1
2401 2 -1
2401 2401 3
2402 224 -1
2402 1250 -1
2402 2402 3
2403 142 -1
2403 729 -1
2403 2403 4
2404 88 -1
2404 1871 -1
2404 2404 3
2405 195 -1
2405 895 -1
2405 1350 -1
2405 2405 3
2406 182 -1
2406 787 -1
2406 2406 4
2407 1362 -1
2407 1397 -1
2407 2407 3
2408 929 -1
2408 1940 -1
2408 2154 -1
2408 2408 3
2409 153 -1
2409 1856 -1
2409 1938 -1
2409 2409 3
2410 2 -1
2410 252 -1
2410 2410 2
2411 11 -1
2411 470 -1
2411 2411 2
2412 404 -1
2412 1457 -1
2412 2412 4
2413 1198 -1
2413 1334 -1
2413 2413 2
2414 361 -1
2414 904 -1
2414 2414 4
2415 190 -1
2415 207 -1
2415 2415 4
2416 43 -1
2416 920 -1
2416 2019 -1
2416 2416 4
2417 313 -1
2417 502 -1
2417 2417 3
2418 5 -1
2418 1044 -1
2418 2418 3
2419 5 -1
2419 22 -1
2419 2419 3
2420 497 -1
2420 550 -1
2420 2420 4
2421 362 -1
2421 682 -1
2421 2421 3
2422 783 -1
2422 1331 -1
2422 2422 3
2423 32 -1
2423 1700 -1
2423 2423 5
2424 5 -1
2424 2414 -1
2424 2424 2
2425 507 -1
2425 1040 -1
2425 2425 3
2426 247 -1
2426 2088 -1
2426 2416 -1
2426 2426 4
2427 5 -1
2427 656 -1
2427 2427 2
2428 20 -1
2428 91 -1
2428 833 -1
2428 1551 -1
2428 2428 5
2429 174 -1
2429 201 -1
2429 2429 2
2430 1775 -1
2430 1902 -1
2430 2430 4
2431 1706 -1
2431 2399 -1
2431 2431 3
2432 728 -1
2432 729 -1
2432 2432 3
2433 567 -1
2433 2372 -1
2433 2433 2
2434 250 -1
2434 528 -1
2434 2434 4
2435 263 -1
2435 1589 -1
2435 2435 3
2436 1578 -1
2436 2067 -1
2436 2436 3
2437 1019 -1
2437 1717 -1
2437 2437 3
2438 1123 -1
2438 1632 -1
2438 2438 4
2439 1007 -1
2439 1207 -1
2439 2439 3
2440 348 -1
2440 395 -1
2440 1857 -1
2440 2440 5
2441 568 -1
2441 1693 -1
2441 2441 3
2442 135 -1
2442 479 -1
2442 2442 2
2443 1288 -1
2443 2246 -1
2443 2443 4
2444 388 -1
2444 1776 -1
2444 2444 4
2445 825 -1
2445 861 -1
2445 2445 5
2446 241 -1
2446 1294 -1
2446 2446 4
2447 34 -1
2447 304 -1
2447 2447 4
2448 679 -1
2448 2066 -1
2448 2448 4
2449 294 -1
2449 475 -1
2449 2449 2
2450 1066 -1
2450 1445 -1
2450 2450 4
2451 1970 -1
2451 2257 -1
2451 2451 2
2452 50 -1
2452 1712 -1
2452 2452 2
2453 674 -1
2453 2189 -1
2453 2453 3
2454 19 -1
2454 1538 -1
2454 1886 -1
2454 2454 4
2455 297 -1
2455 850 -1
2455 2455 2
2456 106 -1
2456 922 -1
2456 2456 3
2457 12 -1
2457 68 -1
2457 1358 -1
2457 2457 7
2458 234 -1
2458 821 -1
2458 2332 -1
2458 2458 8
2459 378 -1
2459 1096 -1
2459 2459 5
2460 517 -1
2460 1176 -1
2460 2460 2
2461 239 -1
2461 602 -1
2461 2461 4
2462 838 -1
2462 1211 -1
2462 2462 3
2463 15 -1
2463 2219 -1
2463 2463 4
2464 2 -1
2464 1856 -1
2464 2464 2
2465 240 -1
2465 422 -1
2465 2465 5
2466 921 -1
2466 2301 -1
2466 2466 2
2467 18 -1
2467 1595 -1
2467 2467 3
2468 679 -1
2468 2095 -1
2468 2468 3
2469 5 -1
2469 1565 -1
2469 2469 2
2470 612 -1
2470 711 -1
2470 2470 2
2471 1283 -1
2471 2264 -1
2471 2471 2
2472 7 -1
2472 40 -1
2472 2472 3
2473 88 -1
2473 374 -1
2473 834 -1
2473 2473 3
2474 926 -1
2474 1817 -1
2474 2474 3
2475 96 -1
2475 1334 -1
2475 2475 3
2476 926 -1
2476 2241 -1
2476 2476 3
2477 795 -1
2477 807 -1
2477 2477 3
2478 823 -1
2478 1207 -1
2478 2478 5
2479 73 -1
2479 729 -1
2479 2395 -1
2479 2479 5
2480 714 -1
2480 768 -1
2480 2480 2
2481 491 -1
2481 2107 -1
2481 2481 2
2482 21 -1
2482 204 -1
2482 2482 8
2483 26 -1
2483 443 -1
2483 2483 5
2484 197 -1
2484 2282 -1
2484 2484 3
2485 378 -1
2485 535 -1
2485 1988 -1
2485 2485 4
2486 363 -1
2486 1047 -1
2486 2486 4
2487 1 -1
2487 1356 -1
2487 2487 4
2488 468 -1
2488 906 -1
2488 2488 2
2489 166 -1
2489 632 -1
2489 2351 -1
2489 2489 3
2490 871 -1
2490 2447 -1
2490 2490 4
2491 93 -1
2491 1236 -1
2491 2491 2
2492 2 -1
2492 2348 -1
2492 2492 5
2493 1408 -1
2493 1469 -1
2493 2493 2
2494 301 -1
2494 516 -1
2494 1304 -1
2494 2494 3
2495 903 -1
2495 1081 -1
2495 2495 2
2496 50 -1
2496 1065 -1
2496 2496 3
2497 16 -1
2497 1593 -1
2497 2497 4
2498 655 -1
2498 1706 -1
2498 2498 5
2499 880 -1
2499 2202 -1
2499 2499 3
2500 379 -1
2500 871 -1
2500 2500 4
2501 2 -1
2501 26 -1
2501 2501 3
2502 88 -1
2502 876 -1
2502 1716 -1
2502 2502 5
2503 972 -1
2503 1480 -1
2503 2503 5
2504 396 -1
2504 710 -1
2504 897 -1
2504 2504 3
2505 842 -1
2505 2175 -1
2505 2505 2
2506 1 -1
2506 62 -1
2506 2506 3
2507 450 -1
2507 472 -1
2507 2507 7
2508 63 -1
2508 1628 -1
2508 2508 2
2509 21 -1
2509 1001 -1
2509 2509 7
2510 823 -1
2510 1317 -1
2510 2510 2
2511 320 -1
2511 1583 -1
2511 2511 4
2512 1053 -1
2512 2215 -1
2512 2512 3
2513 1 -1
2513 575 -1
2513 2513 4
2514 30 -1
2514 1538 -1
2514 2514 5
2515 2086 -1
2515 2109 -1
2515 2515 2
2516 226 -1
2516 1996 -1
2516 2516 3
2517 1 -1
2517 182 -1
2517 2517 4
2518 165 -1
2518 791 -1
2518 921 -1
2518 2518 3
2519 127 -1
2519 2107 -1
2519 2519 2
2520 51 -1
2520 688 -1
2520 2520 2
2521 1940 -1
2521 2206 -1
2521 2521 2
2522 1 -1
2522 66 -1
2522 700 -1
2522 2522 7
2523 6 -1
2523 497 -1
2523 2523 2
2524 428 -1
2524 1740 -1
2524 2524 3
2525 522 -1
2525 2205 -1
2525 2525 2
2526 206 -1
2526 1785 -1
2526 2526 4
2527 5 -1
2527 632 -1
2527 2527 5
2528 1361 -1
2528 1883 -1
2528 2528 2
2529 5 -1
2529 83 -1
2529 1102 -1
2529 2529 7
2530 59 -1
2530 182 -1
2530 2530 2
2531 50 -1
2531 1034 -1
2531 2531 3
2532 291 -1
2532 2288 -1
2532 2532 2
2533 379 -1
2533 722 -1
2533 2533 2
2534 112 -1
2534 1672 -1
2534 2534 3
2535 304 -1
2535 1850 -1
2535 2535 4
2536 1659 -1
2536 1776 -1
2536 2536 7
2537 1 -1
2537 1298 -1
2537 2537 2
2538 487 -1
2538 935 -1
2538 2538 3
2539 9 -1
2539 2193 -1
2539 2539 2
2540 66 -1
2540 2535 -1
2540 2540 3
2541 16 -1
2541 2401 -1
2541 2541 3
2542 135 -1
2542 615 -1
2542 2542 2
2543 437 -1
2543 2062 -1
2543 2543 2
2544 393 -1
2544 1178 -1
2544 2544 2
2545 7 -1
2545 1356 -1
2545 2545 2
2546 1153 -1
2546 1795 -1
2546 2546 4
2547 923 -1
2547 968 -1
2547 2547 2
2548 23 -1
2548 27 -1
2548 290 -1
2548 2548 3
2549 97 -1
2549 627 -1
2549 2549 3
2550 561 -1
2550 903 -1
2550 2550 2
2551 896 -1
2551 1604 -1
2551 2551 2
2552 10 -1
2552 83 -1
2552 2552 2
2553 16 -1
2553 1223 -1
2553 2553 3
2554 48 -1
2554 76 -1
2554 2554 5
2555 95 -1
2555 2276 -1
2555 2555 8
2556 97 -1
2556 507 -1
2556 2556 2
2557 23 -1
2557 2348 -1
2557 2557 2
2558 1314 -1
2558 2446 -1
2558 2558 4
2559 868 -1
2559 2245 -1
2559 2559 3
2560 351 -1
2560 561 -1
2560 2560 3
2561 32 -1
2561 379 -1
2561 2561 2
2562 3 -1
2562 30 -1
2562 2562 3
2563 50 -1
2563 152 -1
2563 2563 6
2564 104 -1
2564 756 -1
2564 2564 6
2565 143 -1
2565 2529 -1
2565 2565 2
2566 682 -1
2566 798 -1
2566 2566 2
2567 44 -1
2567 745 -1
2567 2567 3
2568 225 -1
2568 2326 -1
2568 2568 5
2569 133 -1
2569 371 -1
2569 2569 5
2570 15 -1
2570 302 -1
2570 2570 2
2571 278 -1
2571 1193 -1
2571 2571 3
2572 333 -1
2572 1029 -1
2572 2572 3
2573 611 -1
2573 811 -1
2573 2573 2
2574 379 -1
2574 1998 -1
2574 2574 4
2575 251 -1
2575 1465 -1
2575 2575 2
2576 412 -1
2576 963 -1
2576 2576 2
2577 1170 -1
2577 2540 -1
2577 2577 4
2578 288 -1
2578 795 -1
2578 2578 2
2579 1100 -1
2579 1304 -1
2579 2579 3
2580 1347 -1
2580 1848 -1
2580 2580 3
2581 518 -1
2581 2527 -1
2581 2581 4
2582 70 -1
2582 2395 -1
2582 2582 4
2583 2319 -1
2583 2324 -1
2583 2583 2
2584 1298 -1
2584 1495 -1
2584 2584 3
2585 693 -1
2585 896 -1
2585 2585 2
2586 22 -1
2586 1285 -1
2586 2586 2
2587 522 -1
2587 759 -1
2587 2587 5
2588 789 -1
2588 1653 -1
2588 2588 4
2589 345 -1
2589 520 -1
2589 2589 2
2590 618 -1
2590 1968 -1
2590 2590 2
2591 114 -1
2591 1898 -1
2591 2591 3
2592 182 -1
2592 529 -1
2592 2592 3
2593 1997 -1
2593 2262 -1
2593 2593 3
2594 382 -1
2594 448 -1
2594 722 -1
2594 2366 -1
2594 2594 5
2595 338 -1
2595 2487 -1
2595 2595 4
2596 174 -1
2596 175 -1
2596 2596 4
2597 558 -1
2597 807 -1
2597 2597 2
2598 657 -1
2598 2569 -1
2598 2598 3
2599 133 -1
2599 311 -1
2599 2599 2
2600 2 -1
2600 372 -1
2600 2600 2
2601 130 -1
2601 618 -1
2601 2601 2
2602 682 -1
2602 2016 -1
2602 2602 3
2603 102 -1
2603 2241 -1
2603 2419 -1
2603 2603 3
2604 19 -1
2604 44 -1
2604 66 -1
2604 2604 3
2605 28 -1
2605 423 -1
2605 443 -1
2605 2605 3
2606 663 -1
2606 2213 -1
2606 2606 2
2607 611 -1
2607 1936 -1
2607 2607 5
2608 264 -1
2608 1610 -1
2608 2608 3
2609 917 -1
2609 1044 -1
2609 1293 -1
2609 2609 3
2610 16 -1
2610 1194 -1
2610 2610 4
2611 27 -1
2611 2055 -1
2611 2611 6
2612 373 -1
2612 2093 -1
2612 2612 2
2613 318 -1
2613 385 -1
2613 2613 3
2614 2 -1
2614 2059 -1
2614 2614 4
2615 195 -1
2615 921 -1
2615 2615 2
2616 2 -1
2616 2108 -1
2616 2616 3
2617 577 -1
2617 1830 -1
2617 2617 2
2618 427 -1
2618 736 -1
2618 2618 4
2619 306 -1
2619 2320 -1
2619 2322 -1
2619 2619 5
2620 470 -1
2620 601 -1
2620 2620 3
2621 168 -1
2621 1472 -1
2621 2621 3
2622 546 -1
2622 664 -1
2622 2622 3
2623 3 -1
2623 223 -1
2623 2623 4
2624 782 -1
2624 1085 -1
2624 2624 4
2625 76 -1
2625 961 -1
2625 2625 4
2626 431 -1
2626 849 -1
2626 2626 5
2627 1482 -1
2627 1592 -1
2627 2627 3
2628 601 -1
2628 1926 -1
2628 2628 3
2629 3 -1
2629 21 -1
2629 2629 3
2630 425 -1
2630 861 -1
2630 2630 2
2631 657 -1
2631 2138 -1
2631 2631 4
2632 326 -1
2632 1081 -1
2632 2632 2
2633 1074 -1
2633 2232 -1
2633 2633 9
2634 66 -1
2634 853 -1
2634 2634 2
2635 1453 -1
2635 1545 -1
2635 2635 2
2636 2 -1
2636 113 -1
2636 2636 3
2637 321 -1
2637 926 -1
2637 2637 3
2638 146 -1
2638 1008 -1
2638 2638 3
2639 141 -1
2639 915 -1
2639 2639 2
2640 527 -1
2640 1016 -1
2640 2640 2
2641 545 -1
2641 847 -1
2641 2641 2
2642 497 -1
2642 1977 -1
2642 2477 -1
2642 2642 5
2643 27 -1
2643 2058 -1
2643 2643 2
2644 150 -1
2644 1804 -1
2644 2644 3
2645 103 -1
2645 679 -1
2645 2645 3
2646 318 -1
2646 2110 -1
2646 2646 3
2647 722 -1
2647 2638 -1
2647 2647 3
2648 7 -1
2648 240 -1
2648 2648 6
2649 647 -1
2649 768 -1
2649 2649 2
2650 1486 -1
2650 2468 -1
2650 2650 2
2651 487 -1
2651 659 -1
2651 2651 2
2652 1252 -1
2652 1355 -1
2652 2458 -1
2652 2652 4
2653 33 -1
2653 893 -1
2653 2653 3
2654 1734 -1
2654 1889 -1
2654 2654 2
2655 179 -1
2655 2422 -1
2655 2655 2
2656 560 -1
2656 1889 -1
2656 2656 3
2657 94 -1
2657 182 -1
2657 2657 2
2658 8 -1
2658 179 -1
2658 2658 4
2659 17 -1
2659 526 -1
2659 2659 3
2660 174 -1
2660 662 -1
2660 851 -1
2660 2660 3
2661 554 -1
2661 2581 -1
2661 2661 3
2662 163 -1
2662 2102 -1
2662 2662 3
2663 604 -1
2663 1084 -1
2663 2663 4
2664 12 -1
2664 246 -1
2664 2664 4
2665 232 -1
2665 1060 -1
2665 2665 2
2666 1663 -1
2666 1966 -1
2666 2666 2
2667 2311 -1
2667 2457 -1
2667 2667 3
2668 2 -1
2668 2614 -1
2668 2668 2
2669 2 -1
2669 661 -1
2669 2669 3
2670 25 -1
2670 123 -1
2670 1842 -1
2670 2670 3
2671 1356 -1
2671 1933 -1
2671 2671 3
2672 701 -1
2672 1975 -1
2672 2672 3
2673 901 -1
2673 1685 -1
2673 2673 3
2674 2 -1
2674 587 -1
2674 2674 4
2675 747 -1
2675 888 -1
2675 2389 -1
2675 2675 4
2676 1302 -1
2676 2555 -1
2676 2676 4
2677 414 -1
2677 689 -1
2677 2677 4
2678 1101 -1
2678 1406 -1
2678 2678 3
2679 1294 -1
2679 1331 -1
2679 2679 4
2680 144 -1
2680 284 -1
2680 2680 2
2681 1 -1
2681 1581 -1
2681 2681 2
2682 447 -1
2682 544 -1
2682 2682 2
2683 70 -1
2683 831 -1
2683 2683 2
2684 850 -1
2684 2068 -1
2684 2684 3
2685 615 -1
2685 662 -1
2685 2685 3
2686 26 -1
2686 41 -1
2686 2686 3
2687 22 -1
2687 729 -1
2687 1897 -1
2687 2687 4
2688 1940 -1
2688 2459 -1
2688 2688 4
2689 162 -1
2689 2179 -1
2689 2689 2
2690 122 -1
2690 2064 -1
2690 2690 5
2691 384 -1
2691 1745 -1
2691 2691 6
2692 536 -1
2692 2474 -1
2692 2692 3
2693 7 -1
2693 2211 -1
2693 2693 7
2694 814 -1
2694 2102 -1
2694 2694 2
2695 189 -1
2695 1185 -1
2695 2695 2
2696 132 -1
2696 180 -1
2696 2696 3
2697 278 -1
2697 937 -1
2697 2697 4
2698 942 -1
2698 1977 -1
2698 2698 2
2699 1438 -1
2699 1564 -1
2699 2699 2
2700 2362 -1
2700 2415 -1
2700 2700 3
2701 50 -1
2701 1745 -1
2701 2701 4
2702 16 -1
2702 1045 -1
2702 2702 3
2703 632 -1
2703 853 -1
2703 2703 3
2704 179 -1
2704 336 -1
2704 2704 2
2705 977 -1
2705 2453 -1
2705 2705 3
2706 1058 -1
2706 1676 -1
2706 2706 4
2707 6 -1
2707 116 -1
2707 2707 3
2708 30 -1
2708 1109 -1
2708 1238 -1
2708 2708 3
2709 46 -1
2709 485 -1
2709 2709 3
2710 7 -1
2710 2131 -1
2710 2710 2
2711 141 -1
2711 850 -1
2711 2711 2
2712 174 -1
2712 1296 -1
2712 2712 2
2713 1486 -1
2713 1677 -1
2713 2713 2
2714 439 -1
2714 636 -1
2714 2714 3
2715 238 -1
2715 1024 -1
2715 2671 -1
2715 2715 4
2716 1041 -1
2716 2400 -1
2716 2716 4
2717 69 -1
2717 2198 -1
2717 2717 2
2718 1737 -1
2718 2176 -1
2718 2315 -1
2718 2718 7
2719 21 -1
2719 1500 -1
2719 2719 2
2720 1131 -1
2720 1630 -1
2720 2720 5
2721 333 -1
2721 1695 -1
2721 2721 3
2722 368 -1
2722 2286 -1
2722 2722 2
2723 314 -1
2723 617 -1
2723 1029 -1
2723 1272 -1
2723 2723 4
2724 552 -1
2724 819 -1
2724 2724 2
2725 559 -1
2725 2275 -1
2725 2725 3
2726 661 -1
2726 1053 -1
2726 2726 2
2727 86 -1
2727 113 -1
2727 2727 5
2728 568 -1
2728 1633 -1
2728 2728 3
2729 169 -1
2729 490 -1
2729 632 -1
2729 2729 4
2730 896 -1
2730 1309 -1
2730 2730 3
2731 413 -1
2731 665 -1
2731 2731 2
2732 293 -1
2732 729 -1
2732 2732 2
2733 538 -1
2733 1643 -1
2733 2100 -1
2733 2733 4
2734 921 -1
2734 1951 -1
2734 2734 2
2735 210 -1
2735 253 -1
2735 2735 3
2736 1596 -1
2736 2607 -1
2736 2736 2
2737 24 -1
2737 87 -1
2737 2737 3
2738 12 -1
2738 1934 -1
2738 2738 3
2739 195 -1
2739 2461 -1
2739 2739 2
2740 20 -1
2740 76 -1
2740 1672 -1
2740 2740 3
2741 470 -1
2741 1080 -1
2741 2741 3
2742 330 -1
2742 1521 -1
2742 2742 2
2743 157 -1
2743 2497 -1
2743 2743 2
2744 33 -1
2744 229 -1
2744 2744 3
2745 2517 -1
2745 2690 -1
2745 2745 4
2746 13 -1
2746 615 -1
2746 2746 5
2747 16 -1
2747 1066 -1
2747 2747 4
2748 720 -1
2748 2625 -1
2748 2748 2
2749 57 -1
2749 1281 -1
2749 2027 -1
2749 2749 3
2750 46 -1
2750 65 -1
2750 2750 4
2751 699 -1
2751 2693 -1
2751 2751 3
2752 83 -1
2752 800 -1
2752 2752 5
2753 140 -1
2753 2458 -1
2753 2753 2
2754 283 -1
2754 2115 -1
2754 2754 3
2755 656 -1
2755 951 -1
2755 2522 -1
2755 2755 4
2756 49 -1
2756 150 -1
2756 2756 2
2757 112 -1
2757 982 -1
2757 2757 3
2758 1 -1
2758 2685 -1
2758 2758 5
2759 358 -1
2759 647 -1
2759 2759 2
2760 549 -1
2760 923 -1
2760 2760 2
2761 1134 -1
2761 2745 -1
2761 2761 2
2762 1621 -1
2762 1663 -1
2762 2762 2
2763 663 -1
2763 2403 -1
2763 2763 2
2764 65 -1
2764 2123 -1
2764 2764 2
2765 44 -1
2765 334 -1
2765 2765 4
2766 13 -1
2766 1271 -1
2766 2766 2
2767 819 -1
2767 2390 -1
2767 2767 2
2768 16 -1
2768 1428 -1
2768 2768 4
2769 929 -1
2769 1135 -1
2769 2769 5
2770 799 -1
2770 2486 -1
2770 2770 2
2771 1657 -1
2771 1865 -1
2771 2771 2
2772 17 -1
2772 2357 -1
2772 2772 2
2773 719 -1
2773 744 -1
2773 2773 2
2774 1670 -1
2774 2076 -1
2774 2774 4
2775 17 -1
2775 297 -1
2775 2775 3
2776 12 -1
2776 2063 -1
2776 2776 2
2777 612 -1
2777 1395 -1
2777 2777 3
2778 148 -1
2778 977 -1
2778 2778 3
2779 154 -1
2779 1058 -1
2779 2779 3
2780 1027 -1
2780 2357 -1
2780 2780 3
2781 1547 -1
2781 1723 -1
2781 1816 -1
2781 2781 5
2782 1983 -1
2782 2309 -1
2782 2782 3
2783 4 -1
2783 643 -1
2783 2783 2
2784 2 -1
2784 674 -1
2784 2765 -1
2784 2784 4
2785 5 -1
2785 2406 -1
2785 2785 2
2786 17 -1
2786 164 -1
2786 2786 6
2787 66 -1
2787 279 -1
2787 2787 3
2788 147 -1
2788 1102 -1
2788 2569 -1
2788 2788 3
2789 905 -1
2789 2775 -1
2789 2789 2
2790 90 -1
2790 944 -1
2790 2790 4
2791 423 -1
2791 1134 -1
2791 2791 2
2792 246 -1
2792 2118 -1
2792 2792 2
2793 42 -1
2793 1081 -1
2793 2793 3
2794 1019 -1
2794 1179 -1
2794 2794 3
2795 383 -1
2795 715 -1
2795 2795 3
2796 1403 -1
2796 1663 -1
2796 2796 2
2797 215 -1
2797 1040 -1
2797 2797 2
2798 297 -1
2798 1954 -1
2798 2798 3
2799 2 -1
2799 1288 -1
2799 2799 2
2800 1 -1
2800 2352 -1
2800 2800 3
2801 663 -1
2801 751 -1
2801 2801 3
2802 663 -1
2802 781 -1
2802 1539 -1
2802 2802 5
2803 820 -1
2803 2046 -1
2803 2803 2
2804 551 -1
2804 964 -1
2804 2804 4
2805 849 -1
2805 955 -1
2805 2805 3
2806 833 -1
2806 941 -1
2806 2806 3
2807 1025 -1
2807 2536 -1
2807 2807 3
2808 641 -1
2808 1404 -1
2808 2808 2
2809 113 -1
2809 439 -1
2809 2809 4
2810 63 -1
2810 1865 -1
2810 2810 6
2811 1630 -1
2811 2020 -1
2811 2811 3
2812 1 -1
2812 27 -1
2812 2812 4
2813 2 -1
2813 2220 -1
2813 2813 2
2814 616 -1
2814 1745 -1
2814 2814 4
2815 7 -1
2815 1294 -1
2815 2815 2
2816 1795 -1
2816 2019 -1
2816 2816 2
2817 304 -1
2817 1952 -1
2817 2817 3
2818 722 -1
2818 2096 -1
2818 2818 2
2819 1150 -1
2819 1632 -1
2819 2819 5
2820 912 -1
2820 1170 -1
2820 2820 2
2821 27 -1
2821 224 -1
2821 2821 3
2822 51 -1
2822 625 -1
2822 2822 5
2823 27 -1
2823 2217 -1
2823 2584 -1
2823 2823 5
2824 6 -1
2824 2060 -1
2824 2824 2
2825 194 -1
2825 1615 -1
2825 2825 2
2826 718 -1
2826 1745 -1
2826 2826 2
2827 87 -1
2827 1875 -1
2827 2827 3
2828 933 -1
2828 2125 -1
2828 2828 3
2829 1295 -1
2829 1745 -1
2829 2829 3
2830 5 -1
2830 7 -1
2830 2830 2
2831 65 -1
2831 179 -1
2831 2831 2
2832 1025 -1
2832 2261 -1
2832 2382 -1
2832 2832 3
2833 415 -1
2833 1335 -1
2833 2833 2
2834 731 -1
2834 2512 -1
2834 2834 2
2835 769 -1
2835 1066 -1
2835 2835 2
2836 266 -1
2836 1079 -1
2836 2249 -1
2836 2836 3
2837 711 -1
2837 715 -1
2837 2837 2
2838 1538 -1
2838 1933 -1
2838 2838 4
2839 347 -1
2839 1501 -1
2839 2839 2
2840 151 -1
2840 2045 -1
2840 2840 2
2841 664 -1
2841 1499 -1
2841 2841 2
2842 1527 -1
2842 1719 -1
2842 2842 3
2843 88 -1
2843 1643 -1
2843 2843 5
2844 362 -1
2844 554 -1
2844 2844 4
2845 371 -1
2845 739 -1
2845 2845 4
2846 217 -1
2846 2361 -1
2846 2846 2
2847 252 -1
2847 2812 -1
2847 2847 2
2848 300 -1
2848 1108 -1
2848 2848 2
2849 968 -1
2849 2277 -1
2849 2849 4
2850 234 -1
2850 922 -1
2850 2850 2
2851 164 -1
2851 178 -1
2851 2851 3
2852 141 -1
2852 615 -1
2852 2852 2
2853 42 -1
2853 228 -1
2853 2853 2
2854 128 -1
2854 1729 -1
2854 2854 2
2855 553 -1
2855 1285 -1
2855 2855 4
2856 161 -1
2856 2120 -1
2856 2856 2
2857 90 -1
2857 951 -1
2857 2857 4
2858 1030 -1
2858 1231 -1
2858 2858 2
2859 2305 -1
2859 2328 -1
2859 2859 2
2860 183 -1
2860 978 -1
2860 1634 -1
2860 2860 4
2861 50 -1
2861 179 -1
2861 2861 2
2862 161 -1
2862 248 -1
2862 2862 2
2863 885 -1
2863 1044 -1
2863 2863 2
2864 1954 -1
2864 2582 -1
2864 2864 2
2865 41 -1
2865 1845 -1
2865 2865 3
2866 284 -1
2866 1373 -1
2866 2851 -1
2866 2866 4
2867 1478 -1
2867 1481 -1
2867 2867 4
2868 693 -1
2868 854 -1
2868 2868 3
2869 1058 -1
2869 1412 -1
2869 2869 4
2870 75 -1
2870 1689 -1
2870 2870 2
2871 1 -1
2871 499 -1
2871 2871 2
2872 443 -1
2872 2786 -1
2872 2872 3
2873 817 -1
2873 2365 -1
2873 2873 2
2874 2361 -1
2874 2664 -1
2874 2874 2
2875 871 -1
2875 2661 -1
2875 2875 5
2876 717 -1
2876 1168 -1
2876 2876 2
2877 1334 -1
2877 1457 -1
2877 1781 -1
2877 2877 3
2878 549 -1
2878 2093 -1
2878 2878 2
2879 1833 -1
2879 1999 -1
2879 2879 2
2880 142 -1
2880 1563 -1
2880 2880 4
2881 536 -1
2881 1176 -1
2881 2516 -1
2881 2881 5
2882 55 -1
2882 1902 -1
2882 1968 -1
2882 2882 4
2883 16 -1
2883 240 -1
2883 2883 6
2884 1384 -1
2884 2626 -1
2884 2884 2
2885 1730 -1
2885 2135 -1
2885 2588 -1
2885 2885 3
2886 112 -1
2886 1583 -1
2886 2886 2
2887 28 -1
2887 1660 -1
2887 2887 2
2888 66 -1
2888 666 -1
2888 2888 2
2889 23 -1
2889 937 -1
2889 2889 2
2890 162 -1
2890 1300 -1
2890 2890 2
2891 285 -1
2891 2677 -1
2891 2891 3
2892 1098 -1
2892 2482 -1
2892 2892 3
2893 27 -1
2893 1622 -1
2893 2893 3
2894 1 -1
2894 240 -1
2894 2894 3
2895 450 -1
2895 1362 -1
2895 1490 -1
2895 2895 6
2896 62 -1
2896 2136 -1
2896 2896 2
2897 541 -1
2897 1698 -1
2897 2897 3
2898 50 -1
2898 97 -1
2898 2898 2
2899 1 -1
2899 86 -1
2899 2899 3
2900 1033 -1
2900 2714 -1
2900 2900 3
2901 330 -1
2901 817 -1
2901 2901 2
2902 686 -1
2902 865 -1
2902 2902 2
2903 424 -1
2903 670 -1
2903 2903 2
2904 111 -1
2904 202 -1
2904 2904 3
2905 63 -1
2905 1214 -1
2905 2905 2
2906 40 -1
2906 110 -1
2906 2906 3
2907 79 -1
2907 722 -1
2907 2907 2
2908 343 -1
2908 428 -1
2908 2908 2
2909 154 -1
2909 2534 -1
2909 2909 4
2910 6 -1
2910 50 -1
2910 2910 3
2911 662 -1
2911 1599 -1
2911 2911 2
2912 80 -1
2912 538 -1
2912 2912 2
2913 368 -1
2913 1166 -1
2913 2913 2
2914 371 -1
2914 586 -1
2914 2914 3
2915 520 -1
2915 540 -1
2915 2915 2
2916 701 -1
2916 2160 -1
2916 2691 -1
2916 2916 3
2917 28 -1
2917 146 -1
2917 2917 2
2918 1464 -1
2918 2720 -1
2918 2918 3
2919 614 -1
2919 1950 -1
2919 2919 4
2920 1628 -1
2920 1916 -1
2920 2920 2
2921 1118 -1
2921 2249 -1
2921 2921 5
2922 102 -1
2922 1534 -1
2922 2922 2
2923 183 -1
2923 2211 -1
2923 2923 3
2924 26 -1
2924 1700 -1
2924 2924 2
2925 211 -1
2925 2450 -1
2925 2925 2
2926 1936 -1
2926 2587 -1
2926 2926 2
2927 677 -1
2927 1784 -1
2927 2927 3
2928 28 -1
2928 2623 -1
2928 2928 3
2929 1653 -1
2929 2622 -1
2929 2929 2
2930 1 -1
2930 71 -1
2930 2930 5
2931 1872 -1
2931 1975 -1
2931 2931 2
2932 18 -1
2932 369 -1
2932 2932 2
2933 1 -1
2933 1812 -1
2933 2933 3
2934 181 -1
2934 509 -1
2934 2934 3
2935 284 -1
2935 640 -1
2935 2240 -1
2935 2935 3
2936 1 -1
2936 222 -1
2936 2936 2
2937 1 -1
2937 2146 -1
2937 2937 2
2938 247 -1
2938 1411 -1
2938 2938 2
2939 1177 -1
2939 1924 -1
2939 2811 -1
2939 2939 4
2940 1 -1
2940 2194 -1
2940 2746 -1
2940 2940 4
2941 1170 -1
2941 2017 -1
2941 2941 2
2942 208 -1
2942 551 -1
2942 2942 2
2943 32 -1
2943 361 -1
2943 2943 2
2944 679 -1
2944 1202 -1
2944 2944 3
2945 32 -1
2945 874 -1
2945 2945 2
2946 677 -1
2946 774 -1
2946 2946 2
2947 527 -1
2947 791 -1
2947 2947 2
2948 1 -1
2948 1668 -1
2948 2948 2
2949 1026 -1
2949 1619 -1
2949 2949 3
2950 671 -1
2950 1872 -1
2950 2950 2
2951 10 -1
2951 2648 -1
2951 2951 2
2952 906 -1
2952 1552 -1
2952 2952 3
2953 5 -1
2953 914 -1
2953 2953 2
2954 104 -1
2954 542 -1
2954 2954 2
2955 141 -1
2955 1966 -1
2955 2955 2
2956 371 -1
2956 2514 -1
2956 2956 3
2957 1116 -1
2957 2536 -1
2957 2628 -1
2957 2957 5
2958 17 -1
2958 82 -1
2958 2958 2
2959 218 -1
2959 1703 -1
2959 2181 -1
2959 2959 3
2960 29 -1
2960 250 -1
2960 2960 5
2961 32 -1
2961 276 -1
2961 2961 3
2962 67 -1
2962 562 -1
2962 2962 4
2963 28 -1
2963 2611 -1
2963 2963 2
2964 121 -1
2964 722 -1
2964 2964 2
2965 1117 -1
2965 1857 -1
2965 2965 3
2966 2553 -1
2966 2786 -1
2966 2966 5
2967 150 -1
2967 211 -1
2967 2967 2
2968 38 -1
2968 624 -1
2968 2968 6
2969 13 -1
2969 546 -1
2969 2969 2
2970 85 -1
2970 93 -1
2970 2970 3
2971 421 -1
2971 764 -1
2971 2971 2
2972 1105 -1
2972 1158 -1
2972 2972 3
2973 1 -1
2973 18 -1
2973 2973 3
2974 36 -1
2974 1798 -1
2974 2974 2
2975 334 -1
2975 956 -1
2975 2975 3
2976 6 -1
2976 376 -1
2976 2976 5
2977 892 -1
2977 2024 -1
2977 2977 3
2978 91 -1
2978 255 -1
2978 2978 2
2979 316 -1
2979 811 -1
2979 2979 2
2980 423 -1
2980 742 -1
2980 2980 3
2981 132 -1
2981 2857 -1
2981 2981 2
2982 331 -1
2982 1355 -1
2982 2982 4
2983 158 -1
2983 232 -1
2983 2983 3
2984 1094 -1
2984 1519 -1
2984 2984 3
2985 79 -1
2985 2227 -1
2985 2985 3
2986 746 -1
2986 1928 -1
2986 2986 4
2987 443 -1
2987 747 -1
2987 2987 2
2988 54 -1
2988 1565 -1
2988 2988 2
2989 71 -1
2989 502 -1
2989 2989 3
2990 137 -1
2990 1022 -1
2990 2990 2
2991 53 -1
2991 1231 -1
2991 2991 3
2992 1 -1
2992 818 -1
2992 2992 5
2993 387 -1
2993 988 -1
2993 1751 -1
2993 1890 -1
2993 2993 6
2994 943 -1
2994 2137 -1
2994 2730 -1
2994 2994 3
2995 856 -1
2995 1939 -1
2995 2995 2
2996 1019 -1
2996 1596 -1
2996 2996 3
2997 7 -1
2997 854 -1
2997 2997 4
2998 652 -1
2998 1347 -1
2998 2998 2
2999 175 -1
2999 2985 -1
2999 2999 4
3000 1271 -1
3000 2136 -1
3000 3000 2
3001 83 -1
3001 1040 -1
3001 3001 2
3002 497 -1
3002 736 -1
3002 3002 4
3003 816 -1
3003 1226 -1
3003 3003 2
3004 94 -1
3004 207 -1
3004 384 -1
3004 3004 6
3005 314 -1
3005 835 -1
3005 2733 -1
3005 3005 3
3006 465 -1
3006 969 -1
3006 3006 2
3007 19 -1
3007 2487 -1
3007 3007 2
3008 64 -1
3008 97 -1
3008 3008 3
3009 688 -1
3009 1133 -1
3009 3009 2
3010 57 -1
3010 2397 -1
3010 3010 6
3011 442 -1
3011 998 -1
3011 3011 3
3012 5 -1
3012 39 -1
3012 3012 2
3013 50 -1
3013 2382 -1
3013 3013 3
3014 1949 -1
3014 2822 -1
3014 3014 5
3015 637 -1
3015 825 -1
3015 3015 3
3016 369 -1
3016 742 -1
3016 3016 2
3017 648 -1
3017 1021 -1
3017 3017 2
3018 16 -1
3018 2050 -1
3018 3018 4
3019 2536 -1
3019 2812 -1
3019 3019 3
3020 538 -1
3020 2563 -1
3020 3020 2
3021 247 -1
3021 248 -1
3021 3021 2
3022 498 -1
3022 2058 -1
3022 3022 4
3023 573 -1
3023 2875 -1
3023 3023 3
3024 442 -1
3024 2199 -1
3024 3024 4
3025 67 -1
3025 287 -1
3025 3025 3
3026 450 -1
3026 853 -1
3026 3026 2
3027 2 -1
3027 27 -1
3027 3027 2
3028 1425 -1
3028 1799 -1
3028 3028 3
3029 238 -1
3029 465 -1
3029 3029 3
3030 70 -1
3030 1745 -1
3030 3030 3
3031 504 -1
3031 1163 -1
3031 1262 -1
3031 3031 3
3032 85 -1
3032 554 -1
3032 1035 -1
3032 3032 3
3033 164 -1
3033 1029 -1
3033 3033 2
3034 541 -1
3034 726 -1
3034 1990 -1
3034 2177 -1
3034 3034 4
3035 275 -1
3035 2292 -1
3035 3035 3
3036 13 -1
3036 353 -1
3036 985 -1
3036 3036 3
3037 1030 -1
3037 1389 -1
3037 3037 3
3038 542 -1
3038 844 -1
3038 3038 2
3039 7 -1
3039 2229 -1
3039 3039 3
3040 1132 -1
3040 1328 -1
3040 3040 3
3041 1548 -1
3041 1921 -1
3041 3002 -1
3041 3041 3
3042 297 -1
3042 1130 -1
3042 3042 2
3043 659 -1
3043 1040 -1
3043 3043 3
3044 1 -1
3044 2178 -1
3044 3044 4
3045 637 -1
3045 1843 -1
3045 3045 2
3046 780 -1
3046 1081 -1
3046 3046 2
3047 5 -1
3047 1506 -1
3047 3047 2
3048 5 -1
3048 1862 -1
3048 3048 2
3049 1472 -1
3049 2108 -1
3049 3049 3
3050 97 -1
3050 1555 -1
3050 3050 2
3051 79 -1
3051 762 -1
3051 3051 3
3052 16 -1
3052 1460 -1
3052 3052 3
3053 33 -1
3053 2062 -1
3053 3053 3
3054 1316 -1
3054 2514 -1
3054 3054 3
3055 156 -1
3055 1438 -1
3055 3055 3
3056 284 -1
3056 2210 -1
3056 3056 3
3057 780 -1
3057 2149 -1
3057 2968 -1
3057 3057 5
3058 751 -1
3058 2040 -1
3058 3058 4
3059 88 -1
3059 2261 -1
3059 3059 2
3060 1162 -1
3060 1538 -1
3060 3060 2
3061 871 -1
3061 1681 -1
3061 3061 2
3062 1 -1
3062 601 -1
3062 3062 2
3063 41 -1
3063 158 -1
3063 3063 2
3064 2 -1
3064 2701 -1
3064 3064 2
3065 2 -1
3065 32 -1
3065 3065 3
3066 534 -1
3066 734 -1
3066 3066 2
3067 1 -1
3067 830 -1
3067 3067 3
3068 11 -1
3068 127 -1
3068 3068 4
3069 7 -1
3069 787 -1
3069 3069 2
3070 62 -1
3070 2341 -1
3070 3070 3
3071 1117 -1
3071 1594 -1
3071 2631 -1
3071 3071 4
3072 2009 -1
3072 2522 -1
3072 2697 -1
3072 3072 6
3073 2156 -1
3073 2558 -1
3073 3073 2
3074 2420 -1
3074 2875 -1
3074 3074 3
3075 7 -1
3075 875 -1
3075 3075 2
3076 161 -1
3076 1503 -1
3076 3076 2
3077 32 -1
3077 2484 -1
3077 3077 2
3078 40 -1
3078 56 -1
3078 1697 -1
3078 3078 3
3079 586 -1
3079 857 -1
3079 2688 -1
3079 3079 3
3080 330 -1
3080 2015 -1
3080 3080 2
3081 36 -1
3081 601 -1
3081 3081 2
3082 63 -1
3082 251 -1
3082 3082 2
3083 1862 -1
3083 2288 -1
3083 3083 2
3084 796 -1
3084 1514 -1
3084 1706 -1
3084 3084 4
3085 241 -1
3085 1063 -1
3085 2904 -1
3085 3085 4
3086 1091 -1
3086 2529 -1
3086 3086 5
3087 169 -1
3087 2169 -1
3087 3087 2
3088 220 -1
3088 3010 -1
3088 3088 2
3089 282 -1
3089 1247 -1
3089 3089 2
3090 320 -1
3090 2130 -1
3090 3090 2
3091 400 -1
3091 417 -1
3091 3091 2
3092 2 -1
3092 18 -1
3092 3092 2
3093 6 -1
3093 24 -1
3093 2180 -1
3093 3093 4
3094 242 -1
3094 349 -1
3094 3094 3
3095 2 -1
3095 2693 -1
3095 3095 2
3096 1021 -1
3096 2337 -1
3096 3096 3
3097 104 -1
3097 735 -1
3097 1774 -1
3097 2752 -1
3097 3097 5
3098 215 -1
3098 3071 -1
3098 3098 3
3099 1703 -1
3099 1761 -1
3099 3099 2
3100 1 -1
3100 2261 -1
3100 3100 2
3101 2364 -1
3101 2618 -1
3101 3101 2
3102 1157 -1
3102 2765 -1
3102 3102 2
3103 1881 -1
3103 2880 -1
3103 3103 3
3104 384 -1
3104 2727 -1
3104 3104 2
3105 5 -1
3105 271 -1
3105 3105 3
3106 741 -1
3106 2255 -1
3106 3106 9
3107 1094 -1
3107 1647 -1
3107 3107 2
3108 180 -1
3108 582 -1
3108 3108 2
3109 650 -1
3109 2189 -1
3109 3109 4
3110 1176 -1
3110 1817 -1
3110 3110 2
3111 67 -1
3111 1293 -1
3111 3111 2
3112 780 -1
3112 1332 -1
3112 3112 3
3113 1525 -1
3113 1691 -1
3113 3113 2
3114 1766 -1
3114 2596 -1
3114 3114 2
3115 6 -1
3115 1327 -1
3115 3115 2
3116 988 -1
3116 1081 -1
3116 1909 -1
3116 3116 3
3117 2237 -1
3117 2309 -1
3117 3117 3
3118 99 -1
3118 173 -1
3118 3118 3
3119 2256 -1
3119 3052 -1
3119 3119 3
3120 1043 -1
3120 1477 -1
3120 3120 5
3121 97 -1
3121 1835 -1
3121 3121 2
3122 3 -1
3122 670 -1
3122 3122 2
3123 144 -1
3123 2977 -1
3123 3123 3
3124 954 -1
3124 2246 -1
3124 3124 3
3125 69 -1
3125 133 -1
3125 3086 -1
3125 3125 6
3126 2 -1
3126 102 -1
3126 3126 4
3127 29 -1
3127 377 -1
3127 3127 3
3128 882 -1
3128 911 -1
3128 3128 2
3129 91 -1
3129 1292 -1
3129 3129 2
3130 550 -1
3130 933 -1
3130 3130 2
3131 115 -1
3131 2270 -1
3131 3131 3
3132 50 -1
3132 1106 -1
3132 2281 -1
3132 3132 4
3133 112 -1
3133 636 -1
3133 3133 2
3134 157 -1
3134 294 -1
3134 3134 3
3135 1459 -1
3135 1888 -1
3135 3135 2
3136 149 -1
3136 569 -1
3136 3136 2
3137 56 -1
3137 1506 -1
3137 3137 4
3138 32 -1
3138 2387 -1
3138 3138 2
3139 92 -1
3139 1052 -1
3139 3139 2
3140 28 -1
3140 377 -1
3140 3140 2
3141 1640 -1
3141 2339 -1
3141 3141 2
3142 893 -1
3142 2333 -1
3142 3142 4
3143 1 -1
3143 3010 -1
3143 3143 2
3144 1332 -1
3144 2966 -1
3144 3144 5
3145 622 -1
3145 1899 -1
3145 3145 3
3146 2002 -1
3146 2827 -1
3146 3146 2
3147 545 -1
3147 2881 -1
3147 3147 2
3148 393 -1
3148 1693 -1
3148 3148 2
3149 253 -1
3149 2633 -1
3149 3149 3
3150 33 -1
3150 1596 -1
3150 3150 4
3151 274 -1
3151 1565 -1
3151 3151 3
3152 12 -1
3152 63 -1
3152 397 -1
3152 3152 3
3153 14 -1
3153 1372 -1
3153 1749 -1
3153 3153 3
3154 499 -1
3154 1781 -1
3154 3154 5
3155 496 -1
3155 931 -1
3155 3155 4
3156 32 -1
3156 2676 -1
3156 3156 2
3157 49 -1
3157 612 -1
3157 822 -1
3157 3157 3
3158 182 -1
3158 311 -1
3158 3158 4
3159 224 -1
3159 1569 -1
3159 3159 2
3160 397 -1
3160 2150 -1
3160 3160 3
3161 171 -1
3161 1310 -1
3161 3058 -1
3161 3161 3
3162 2214 -1
3162 2316 -1
3162 3162 2
3163 615 -1
3163 1341 -1
3163 3163 2
3164 50 -1
3164 2060 -1
3164 3164 2
3165 120 -1
3165 143 -1
3165 3165 2
3166 209 -1
3166 1621 -1
3166 3166 2
3167 330 -1
3167 2999 -1
3167 3167 2
3168 226 -1
3168 3086 -1
3168 3168 3
3169 1644 -1
3169 2440 -1
3169 3169 4
3170 371 -1
3170 990 -1
3170 3170 2
3171 912 -1
3171 1076 -1
3171 3171 3
3172 2 -1
3172 1189 -1
3172 3172 3
3173 160 -1
3173 591 -1
3173 1182 -1
3173 3173 3
3174 49 -1
3174 1379 -1
3174 3174 2
3175 22 -1
3175 2343 -1
3175 3175 2
3176 204 -1
3176 2039 -1
3176 3055 -1
3176 3176 3
3177 70 -1
3177 723 -1
3177 3177 2
3178 151 -1
3178 280 -1
3178 2626 -1
3178 3178 3
3179 798 -1
3179 1023 -1
3179 3179 3
3180 1782 -1
3180 3172 -1
3180 3180 2
3181 179 -1
3181 297 -1
3181 3181 2
3182 292 -1
3182 2246 -1
3182 3182 2
3183 1972 -1
3183 2293 -1
3183 3183 2
3184 32 -1
3184 320 -1
3184 3184 3
3185 882 -1
3185 2674 -1
3185 3124 -1
3185 3185 4
3186 178 -1
3186 2098 -1
3186 3186 5
3187 1785 -1
3187 2301 -1
3187 3187 2
3188 40 -1
3188 742 -1
3188 3188 4
3189 995 -1
3189 1011 -1
3189 3189 3
3190 229 -1
3190 1093 -1
3190 3190 3
3191 1764 -1
3191 2263 -1
3191 3184 -1
3191 3191 4
3192 1327 -1
3192 2807 -1
3192 3192 3
3193 369 -1
3193 406 -1
3193 3193 3
3194 463 -1
3194 2115 -1
3194 3194 2
3195 414 -1
3195 1737 -1
3195 3195 2
3196 913 -1
3196 1429 -1
3196 3196 2
3197 11 -1
3197 1316 -1
3197 3197 4
3198 36 -1
3198 2435 -1
3198 3198 2
3199 70 -1
3199 2687 -1
3199 3199 2
3200 1251 -1
3200 3155 -1
3200 3200 4
3201 536 -1
3201 1076 -1
3201 3201 4
3202 5 -1
3202 27 -1
3202 3202 2
3203 164 -1
3203 2555 -1
3203 3203 2
3204 180 -1
3204 186 -1
3204 3204 2
3205 360 -1
3205 820 -1
3205 3205 2
3206 688 -1
3206 1865 -1
3206 3206 3
3207 641 -1
3207 3106 -1
3207 3207 2
3208 191 -1
3208 2986 -1
3208 3208 2
3209 85 -1
3209 229 -1
3209 3209 2
3210 100 -1
3210 998 -1
3210 3210 2
3211 607 -1
3211 2546 -1
3211 3211 3
3212 16 -1
3212 35 -1
3212 3212 2
3213 349 -1
3213 2844 -1
3213 3213 2
3214 458 -1
3214 1252 -1
3214 3214 2
3215 126 -1
3215 1932 -1
3215 3215 3
3216 50 -1
3216 88 -1
3216 3216 2
3217 220 -1
3217 541 -1
3217 3217 2
3218 870 -1
3218 2206 -1
3218 3218 2
3219 1 -1
3219 837 -1
3219 2108 -1
3219 3219 5
3220 1503 -1
3220 1942 -1
3220 3220 3
3221 112 -1
3221 2250 -1
3221 3221 2
3222 519 -1
3222 2554 -1
3222 3222 2
3223 581 -1
3223 2992 -1
3223 3223 2
3224 41 -1
3224 234 -1
3224 3224 4
3225 20 -1
3225 70 -1
3225 3225 2
3226 1545 -1
3226 2390 -1
3226 3226 3
3227 2160 -1
3227 2720 -1
3227 3227 4
3228 29 -1
3228 166 -1
3228 3228 2
3229 7 -1
3229 700 -1
3229 3229 3
3230 177 -1
3230 206 -1
3230 3230 2
3231 1672 -1
3231 2855 -1
3231 3231 3
3232 1 -1
3232 68 -1
3232 3232 2
3233 28 -1
3233 2684 -1
3233 3233 3
3234 1 -1
3234 275 -1
3234 3234 2
3235 1594 -1
3235 2707 -1
3235 2939 -1
3235 3235 3
3236 5 -1
3236 2718 -1
3236 3236 4
3237 158 -1
3237 2706 -1
3237 3237 2
3238 44 -1
3238 444 -1
3238 3238 3
3239 357 -1
3239 2662 -1
3239 3239 3
3240 455 -1
3240 949 -1
3240 3240 2
3241 119 -1
3241 2085 -1
3241 3241 2
3242 410 -1
3242 2438 -1
3242 2909 -1
3242 3242 3
3243 12 -1
3243 47 -1
3243 3243 2
3244 463 -1
3244 2448 -1
3244 3244 3
3245 363 -1
3245 766 -1
3245 3245 2
3246 817 -1
3246 2053 -1
3246 3246 2
3247 868 -1
3247 1878 -1
3247 2299 -1
3247 3247 4
3248 28 -1
3248 1118 -1
3248 3248 3
3249 165 -1
3249 368 -1
3249 3249 2
3250 1 -1
3250 1251 -1
3250 3250 2
3251 423 -1
3251 2009 -1
3251 3251 3
3252 539 -1
3252 1460 -1
3252 3252 2
3253 11 -1
3253 70 -1
3253 3253 3
3254 1368 -1
3254 2805 -1
3254 3254 2
3255 7 -1
3255 1458 -1
3255 3255 2
3256 23 -1
3256 2563 -1
3256 3256 3
3257 152 -1
3257 1571 -1
3257 3257 3
3258 256 -1
3258 1132 -1
3258 3258 2
3259 682 -1
3259 1053 -1
3259 3259 4
3260 123 -1
3260 1588 -1
3260 3260 2
3261 620 -1
3261 1150 -1
3261 3261 2
3262 208 -1
3262 926 -1
3262 3262 3
3263 330 -1
3263 1402 -1
3263 3263 2
3264 21 -1
3264 2693 -1
3264 3264 2
3265 362 -1
3265 2992 -1
3265 3265 3
3266 1568 -1
3266 2135 -1
3266 3266 3
3267 1027 -1
3267 2511 -1
3267 3267 3
3268 2529 -1
3268 2814 -1
3268 3268 4
3269 934 -1
3269 1175 -1
3269 3269 2
3270 987 -1
3270 2349 -1
3270 3270 3
3271 628 -1
3271 1749 -1
3271 3271 2
3272 1282 -1
3272 2482 -1
3272 3272 4
3273 1067 -1
3273 1351 -1
3273 1842 -1
3273 2247 -1
3273 3273 5
3274 542 -1
3274 2223 -1
3274 3274 2
3275 849 -1
3275 2675 -1
3275 3275 3
3276 570 -1
3276 2382 -1
3276 3276 3
3277 306 -1
3277 2804 -1
3277 3277 3
3278 568 -1
3278 831 -1
3278 3278 2
3279 1268 -1
3279 2217 -1
3279 3279 2
3280 2148 -1
3280 2677 -1
3280 3280 2
3281 556 -1
3281 1764 -1
3281 3281 3
3282 49 -1
3282 597 -1
3282 3282 2
3283 2316 -1
3283 2690 -1
3283 3283 3
3284 32 -1
3284 47 -1
3284 3284 3
3285 280 -1
3285 2285 -1
3285 3285 2
3286 1571 -1
3286 2949 -1
3286 3286 2
3287 141 -1
3287 487 -1
3287 1700 -1
3287 3287 4
3288 297 -1
3288 1303 -1
3288 3288 2
3289 123 -1
3289 2857 -1
3289 3289 2
3290 133 -1
3290 2387 -1
3290 3290 2
3291 906 -1
3291 1698 -1
3291 3291 2
3292 1245 -1
3292 1817 -1
3292 3292 3
3293 780 -1
3293 2611 -1
3293 3293 3
3294 2 -1
3294 994 -1
3294 3294 3
3295 292 -1
3295 2115 -1
3295 3295 2
3296 67 -1
3296 772 -1
3296 3296 2
3297 541 -1
3297 759 -1
3297 3297 2
3298 88 -1
3298 3125 -1
3298 3298 3
3299 59 -1
3299 2509 -1
3299 3299 2
3300 154 -1
3300 2483 -1
3300 3300 3
3301 1583 -1
3301 2325 -1
3301 3301 2
3302 948 -1
3302 2445 -1
3302 3302 2
3303 242 -1
3303 948 -1
3303 3303 2
3304 109 -1
3304 2096 -1
3304 3304 3
3305 328 -1
3305 1474 -1
3305 3305 2
3306 11 -1
3306 941 -1
3306 2821 -1
3306 3306 3
3307 2 -1
3307 427 -1
3307 3307 2
3308 2060 -1
3308 2479 -1
3308 2769 -1
3308 3308 4
3309 766 -1
3309 1950 -1
3309 3309 2
3310 1534 -1
3310 2663 -1
3310 3310 2
3311 284 -1
3311 756 -1
3311 3311 3
3312 1943 -1
3312 2015 -1
3312 3312 2
3313 158 -1
3313 673 -1
3313 3313 2
3314 794 -1
3314 929 -1
3314 3314 3
3315 25 -1
3315 1676 -1
3315 3315 2
3316 46 -1
3316 3134 -1
3316 3316 3
3317 333 -1
3317 1694 -1
3317 3317 3
3318 914 -1
3318 3043 -1
3318 3318 2
3319 833 -1
3319 2752 -1
3319 3319 2
3320 840 -1
3320 3106 -1
3320 3320 2
3321 273 -1
3321 572 -1
3321 3321 3
3322 152 -1
3322 182 -1
3322 3322 2
3323 912 -1
3323 2009 -1
3323 3323 3
3324 44 -1
3324 1333 -1
3324 3324 3
3325 70 -1
3325 1013 -1
3325 3325 2
3326 22 -1
3326 2246 -1
3326 3326 5
3327 75 -1
3327 1469 -1
3327 3327 3
3328 1467 -1
3328 3014 -1
3328 3328 2
3329 1284 -1
3329 2952 -1
3329 3329 2
3330 384 -1
3330 2507 -1
3330 3330 2
3331 1 -1
3331 2345 -1
3331 3331 2
3332 1233 -1
3332 1589 -1
3332 3332 2
3333 425 -1
3333 475 -1
3333 3333 2
3334 28 -1
3334 1545 -1
3334 3334 2
3335 160 -1
3335 2135 -1
3335 3335 2
3336 450 -1
3336 1852 -1
3336 3336 3
3337 176 -1
3337 1350 -1
3337 3337 4
3338 541 -1
3338 2127 -1
3338 3338 2
3339 82 -1
3339 2113 -1
3339 3339 2
3340 163 -1
3340 2822 -1
3340 3340 2
3341 814 -1
3341 1578 -1
3341 1589 -1
3341 3341 4
3342 1441 -1
3342 1506 -1
3342 1760 -1
3342 3342 3
3343 204 -1
3343 1285 -1
3343 3343 2
3344 780 -1
3344 1195 -1
3344 3344 2
3345 102 -1
3345 1311 -1
3345 3345 2
3346 1035 -1
3346 1882 -1
3346 3171 -1
3346 3346 3
3347 674 -1
3347 1892 -1
3347 3347 2
3348 572 -1
3348 684 -1
3348 3348 2
3349 30 -1
3349 687 -1
3349 1208 -1
3349 3349 5
3350 100 -1
3350 1745 -1
3350 3350 2
3351 585 -1
3351 2120 -1
3351 3351 4
3352 768 -1
3352 1901 -1
3352 3352 4
3353 4 -1
3353 1314 -1
3353 3353 2
3354 2053 -1
3354 2962 -1
3354 3354 2
3355 466 -1
3355 496 -1
3355 3355 2
3356 2400 -1
3356 3192 -1
3356 3356 2
3357 1 -1
3357 128 -1
3357 3357 2
3358 554 -1
3358 1149 -1
3358 3358 3
3359 1327 -1
3359 1696 -1
3359 3359 3
3360 10 -1
3360 1849 -1
3360 3360 2
3361 735 -1
3361 994 -1
3361 3361 2
3362 2420 -1
3362 2921 -1
3362 3362 4
3363 76 -1
3363 278 -1
3363 506 -1
3363 3363 4
3364 334 -1
3364 747 -1
3364 3364 5
3365 861 -1
3365 1079 -1
3365 3365 2
3366 146 -1
3366 2659 -1
3366 3366 2
3367 674 -1
3367 2992 -1
3367 3367 2
3368 32 -1
3368 969 -1
3368 3368 5
3369 376 -1
3369 378 -1
3369 3369 2
3370 470 -1
3370 2895 -1
3370 3370 3
3371 2 -1
3371 1843 -1
3371 3371 2
3372 61 -1
3372 1489 -1
3372 3372 2
3373 742 -1
3373 1033 -1
3373 2148 -1
3373 3373 3
3374 107 -1
3374 423 -1
3374 3374 2
3375 12 -1
3375 2098 -1
3375 3375 3
3376 657 -1
3376 1317 -1
3376 3376 2
3377 900 -1
3377 913 -1
3377 3377 3
3378 182 -1
3378 1561 -1
3378 3378 3
3379 484 -1
3379 702 -1
3379 3149 -1
3379 3379 3
3380 200 -1
3380 1375 -1
3380 2669 -1
3380 3380 3
3381 336 -1
3381 617 -1
3381 3381 3
3382 17 -1
3382 512 -1
3382 3382 2
3383 14 -1
3383 735 -1
3383 3383 2
3384 161 -1
3384 2919 -1
3384 3384 3
3385 1264 -1
3385 1721 -1
3385 3385 3
3386 1270 -1
3386 2993 -1
3386 3386 2
3387 1565 -1
3387 1830 -1
3387 3387 3
3388 1185 -1
3388 2568 -1
3388 3388 2
3389 220 -1
3389 484 -1
3389 3389 3
3390 541 -1
3390 833 -1
3390 3390 2
3391 5 -1
3391 1223 -1
3391 2109 -1
3391 3391 3
3392 1039 -1
3392 2387 -1
3392 3392 2
3393 18 -1
3393 1881 -1
3393 3393 2
3394 6 -1
3394 1895 -1
3394 3394 2
3395 663 -1
3395 2663 -1
3395 3395 2
3396 26 -1
3396 1408 -1
3396 3396 2
3397 270 -1
3397 1689 -1
3397 3397 2
3398 728 -1
3398 2414 -1
3398 3398 4
3399 179 -1
3399 1951 -1
3399 3399 2
3400 1682 -1
3400 1861 -1
3400 3400 2
3401 6 -1
3401 1812 -1
3401 3401 2
3402 602 -1
3402 2465 -1
3402 3402 3
3403 8 -1
3403 29 -1
3403 3403 2
3404 634 -1
3404 2244 -1
3404 3404 2
3405 2541 -1
3405 2577 -1
3405 3405 2
3406 2286 -1
3406 2921 -1
3406 3406 2
3407 14 -1
3407 69 -1
3407 3407 3
3408 17 -1
3408 145 -1
3408 3408 3
3409 6 -1
3409 228 -1
3409 3409 3
3410 1432 -1
3410 2678 -1
3410 3410 4
3411 12 -1
3411 23 -1
3411 3411 2
3412 135 -1
3412 210 -1
3412 3412 3
3413 1817 -1
3413 2370 -1
3413 3413 2
3414 499 -1
3414 972 -1
3414 3414 2
3415 41 -1
3415 203 -1
3415 3415 2
3416 26 -1
3416 676 -1
3416 1710 -1
3416 3416 3
3417 67 -1
3417 663 -1
3417 3417 3
3418 1167 -1
3418 2755 -1
3418 3418 2
3419 1 -1
3419 2131 -1
3419 3419 2
3420 1066 -1
3420 2869 -1
3420 3420 2
3421 1084 -1
3421 2439 -1
3421 3421 3
3422 1280 -1
3422 2305 -1
3422 3227 -1
3422 3422 4
3423 121 -1
3423 729 -1
3423 2513 -1
3423 3423 5
3424 53 -1
3424 2009 -1
3424 3424 4
3425 149 -1
3425 158 -1
3425 3425 2
3426 16 -1
3426 3150 -1
3426 3426 4
3427 525 -1
3427 1228 -1
3427 3427 3
3428 1421 -1
3428 1512 -1
3428 3428 3
3429 70 -1
3429 3362 -1
3429 3429 4
3430 1400 -1
3430 3109 -1
3430 3430 3
3431 268 -1
3431 2257 -1
3431 3431 2
3432 235 -1
3432 1094 -1
3432 3432 3
3433 276 -1
3433 502 -1
3433 3433 3
3434 336 -1
3434 338 -1
3434 1108 -1
3434 3434 3
3435 877 -1
3435 2161 -1
3435 3435 2
3436 1697 -1
3436 2151 -1
3436 3436 3
3437 42 -1
3437 862 -1
3437 3437 4
3438 622 -1
3438 2509 -1
3438 3438 3
3439 218 -1
3439 450 -1
3439 3439 3
3440 371 -1
3440 2991 -1
3440 3440 2
3441 1304 -1
3441 2169 -1
3441 3441 2
3442 41 -1
3442 364 -1
3442 3442 2
3443 2823 -1
3443 2968 -1
3443 3443 2
3444 714 -1
3444 1672 -1
3444 1856 -1
3444 3444 5
3445 97 -1
3445 616 -1
3445 3445 2
3446 996 -1
3446 2496 -1
3446 3446 3
3447 202 -1
3447 1066 -1
3447 3447 3
3448 1081 -1
3448 2358 -1
3448 3448 2
3449 36 -1
3449 2555 -1
3449 3449 3
3450 39 -1
3450 2107 -1
3450 3450 3
3451 1737 -1
3451 2307 -1
3451 3451 3
3452 2131 -1
3452 2989 -1
3452 3452 2
3453 1898 -1
3453 2041 -1
3453 3453 2
3454 14 -1
3454 2015 -1
3454 3454 2
3455 739 -1
3455 2202 -1
3455 3455 2
3456 63 -1
3456 450 -1
3456 3456 2
3457 795 -1
3457 1192 -1
3457 3457 3
3458 4 -1
3458 115 -1
3458 3458 2
3459 73 -1
3459 1761 -1
3459 3459 2
3460 1568 -1
3460 2564 -1
3460 3460 3
3461 153 -1
3461 3023 -1
3461 3461 2
3462 331 -1
3462 831 -1
3462 3462 2
3463 6 -1
3463 1252 -1
3463 3463 4
3464 16 -1
3464 1698 -1
3464 3464 2
3465 307 -1
3465 762 -1
3465 3465 2
3466 86 -1
3466 3304 -1
3466 3466 2
3467 2 -1
3467 872 -1
3467 3467 4
3468 44 -1
3468 2626 -1
3468 3169 -1
3468 3468 4
3469 619 -1
3469 1295 -1
3469 3469 2
3470 27 -1
3470 1156 -1
3470 3470 3
3471 280 -1
3471 3239 -1
3471 3471 4
3472 1232 -1
3472 1263 -1
3472 3472 2
3473 1268 -1
3473 2255 -1
3473 2648 -1
3473 3473 4
3474 1329 -1
3474 3144 -1
3474 3474 5
3475 25 -1
3475 53 -1
3475 2412 -1
3475 3475 3
3476 1 -1
3476 5 -1
3476 3476 3
3477 83 -1
3477 404 -1
3477 3477 2
3478 85 -1
3478 914 -1
3478 3478 2
3479 11 -1
3479 1785 -1
3479 3479 2
3480 12 -1
3480 128 -1
3480 3480 2
3481 797 -1
3481 1356 -1
3481 3481 2
3482 1167 -1
3482 1331 -1
3482 3482 2
3483 112 -1
3483 1840 -1
3483 3483 4
3484 1946 -1
3484 3268 -1
3484 3484 3
3485 148 -1
3485 2647 -1
3485 3485 2
3486 29 -1
3486 130 -1
3486 3486 2
3487 12 -1
3487 1029 -1
3487 3487 2
3488 772 -1
3488 1889 -1
3488 3488 2
3489 740 -1
3489 1375 -1
3489 3489 2
3490 458 -1
3490 3337 -1
3490 3490 3
3491 1698 -1
3491 3044 -1
3491 3491 4
3492 7 -1
3492 3423 -1
3492 3492 3
3493 5 -1
3493 550 -1
3493 3493 3
3494 1 -1
3494 1158 -1
3494 3494 3
3495 423 -1
3495 2780 -1
3495 3495 2
3496 565 -1
3496 2197 -1
3496 3496 2
3497 79 -1
3497 463 -1
3497 1732 -1
3497 3497 3
3498 938 -1
3498 2810 -1
3498 3498 2
3499 1361 -1
3499 3277 -1
3499 3499 2
3500 1035 -1
3500 3262 -1
3500 3500 2
3501 95 -1
3501 614 -1
3501 3501 4
3502 1151 -1
3502 1844 -1
3502 3446 -1
3502 3502 3
3503 130 -1
3503 658 -1
3503 3503 2
3504 371 -1
3504 1539 -1
3504 3504 2
3505 1360 -1
3505 1898 -1
3505 3505 2
3506 682 -1
3506 2341 -1
3506 3506 3
3507 1598 -1
3507 2483 -1
3507 3507 2
3508 770 -1
3508 2440 -1
3508 3508 3
3509 481 -1
3509 2216 -1
3509 3106 -1
3509 3509 3
3510 36 -1
3510 1265 -1
3510 3510 3
3511 1 -1
3511 2891 -1
3511 3511 2
3512 132 -1
3512 2910 -1
3512 3512 2
3513 50 -1
3513 1513 -1
3513 3513 2
3514 358 -1
3514 2038 -1
3514 3514 2
3515 6 -1
3515 70 -1
3515 2443 -1
3515 3515 5
3516 218 -1
3516 1861 -1
3516 3516 4
3517 159 -1
3517 1242 -1
3517 3517 2
3518 23 -1
3518 2153 -1
3518 3518 4
3519 462 -1
3519 719 -1
3519 3519 2
3520 870 -1
3520 1535 -1
3520 3520 2
3521 33 -1
3521 3188 -1
3521 3521 3
3522 278 -1
3522 830 -1
3522 3522 4
3523 1820 -1
3523 2075 -1
3523 3523 2
3524 10 -1
3524 3275 -1
3524 3524 2
3525 611 -1
3525 1979 -1
3525 3525 2
3526 11 -1
3526 228 -1
3526 3526 2
3527 301 -1
3527 470 -1
3527 3527 2
3528 1226 -1
3528 2147 -1
3528 3528 4
3529 411 -1
3529 3179 -1
3529 3529 2
3530 589 -1
3530 1343 -1
3530 3530 5
3531 246 -1
3531 3154 -1
3531 3531 2
3532 1441 -1
3532 2895 -1
3532 3532 2
3533 546 -1
3533 2774 -1
3533 3533 3
3534 213 -1
3534 608 -1
3534 2970 -1
3534 3534 4
3535 152 -1
3535 1884 -1
3535 3535 3
3536 1590 -1
3536 2587 -1
3536 3536 3
3537 355 -1
3537 2142 -1
3537 3537 2
3538 19 -1
3538 1276 -1
3538 3538 2
3539 144 -1
3539 1952 -1
3539 3539 2
3540 1019 -1
3540 3476 -1
3540 3540 3
3541 5 -1
3541 359 -1
3541 3541 4
3542 144 -1
3542 191 -1
3542 3542 2
3543 73 -1
3543 1065 -1
3543 3543 2
3544 1045 -1
3544 1640 -1
3544 3544 3
3545 1282 -1
3545 3056 -1
3545 3545 2
3546 58 -1
3546 2368 -1
3546 3546 2
3547 1281 -1
3547 3109 -1
3547 3547 2
3548 862 -1
3548 2619 -1
3548 3548 3
3549 244 -1
3549 584 -1
3549 3549 3
3550 791 -1
3550 1176 -1
3550 3550 2
3551 69 -1
3551 435 -1
3551 3551 2
3552 969 -1
3552 3086 -1
3552 3552 2
3553 1809 -1
3553 2751 -1
3553 3553 2
3554 484 -1
3554 1119 -1
3554 1936 -1
3554 3554 3
3555 314 -1
3555 614 -1
3555 3555 3
3556 471 -1
3556 1123 -1
3556 2691 -1
3556 3556 4
3557 5 -1
3557 2554 -1
3557 3557 2
3558 2108 -1
3558 2131 -1
3558 3558 3
3559 53 -1
3559 81 -1
3559 3559 2
3560 679 -1
3560 1437 -1
3560 3560 2
3561 1065 -1
3561 1307 -1
3561 3561 2
3562 353 -1
3562 582 -1
3562 3562 2
3563 66 -1
3563 67 -1
3563 3563 2
3564 63 -1
3564 179 -1
3564 3564 2
3565 704 -1
3565 1005 -1
3565 3565 2
3566 276 -1
3566 294 -1
3566 3054 -1
3566 3566 3
3567 598 -1
3567 2514 -1
3567 3567 4
3568 57 -1
3568 1628 -1
3568 3568 2
3569 210 -1
3569 535 -1
3569 3569 3
3570 121 -1
3570 465 -1
3570 2446 -1
3570 2636 -1
3570 3570 4
3571 209 -1
3571 2769 -1
3571 3571 2
3572 340 -1
3572 436 -1
3572 1953 -1
3572 3572 5
3573 40 -1
3573 355 -1
3573 3573 2
3574 68 -1
3574 1749 -1
3574 3574 3
3575 11 -1
3575 23 -1
3575 393 -1
3575 3575 4
3576 2430 -1
3576 2444 -1
3576 3576 3
3577 2527 -1
3577 3427 -1
3577 3577 3
3578 2829 -1
3578 2867 -1
3578 3578 2
3579 57 -1
3579 632 -1
3579 3579 2
3580 1282 -1
3580 1459 -1
3580 3057 -1
3580 3580 3
3581 585 -1
3581 614 -1
3581 3581 2
3582 814 -1
3582 2211 -1
3582 3582 2
3583 2189 -1
3583 2750 -1
3583 3583 3
3584 97 -1
3584 3317 -1
3584 3584 2
3585 324 -1
3585 3098 -1
3585 3585 3
3586 29 -1
3586 157 -1
3586 3586 2
3587 542 -1
3587 2328 -1
3587 3587 2
3588 383 -1
3588 1589 -1
3588 3588 2
3589 123 -1
3589 2582 -1
3589 3589 3
3590 126 -1
3590 558 -1
3590 3590 2
3591 32 -1
3591 179 -1
3591 3591 3
3592 2642 -1
3592 2806 -1
3592 3592 2
3593 538 -1
3593 3142 -1
3593 3593 2
3594 503 -1
3594 1120 -1
3594 1776 -1
3594 3594 3
3595 3 -1
3595 919 -1
3595 2499 -1
3595 3595 3
3596 589 -1
3596 591 -1
3596 3596 5
3597 1059 -1
3597 2529 -1
3597 3597 2
3598 1491 -1
3598 1608 -1
3598 3598 2
3599 4 -1
3599 2868 -1
3599 3599 2
3600 157 -1
3600 2727 -1
3600 3600 2
3601 3233 -1
3601 3528 -1
3601 3601 2
3602 209 -1
3602 1859 -1
3602 3602 2
3603 126 -1
3603 1999 -1
3603 2692 -1
3603 3603 3
3604 270 -1
3604 1949 -1
3604 3604 3
3605 7 -1
3605 1442 -1
3605 3605 3
3606 1075 -1
3606 1963 -1
3606 3606 2
3607 702 -1
3607 872 -1
3607 3607 2
3608 153 -1
3608 615 -1
3608 1693 -1
3608 3608 4
3609 1430 -1
3609 2478 -1
3609 3609 2
3610 524 -1
3610 2356 -1
3610 3610 3
3611 424 -1
3611 2083 -1
3611 3611 2
3612 1664 -1
3612 3351 -1
3612 3612 2
3613 2928 -1
3613 3266 -1
3613 3613 2
3614 5 -1
3614 1337 -1
3614 3614 3
3615 604 -1
3615 2280 -1
3615 3615 2
3616 293 -1
3616 3248 -1
3616 3616 2
3617 356 -1
3617 1084 -1
3617 3617 2
3618 363 -1
3618 1644 -1
3618 3618 2
3619 311 -1
3619 2421 -1
3619 3619 4
3620 177 -1
3620 1153 -1
3620 2624 -1
3620 3620 3
3621 8 -1
3621 1072 -1
3621 3621 3
3622 470 -1
3622 1978 -1
3622 3622 2
3623 230 -1
3623 273 -1
3623 1257 -1
3623 3623 3
3624 855 -1
3624 1398 -1
3624 3624 3
3625 2845 -1
3625 3336 -1
3625 3625 2
3626 1768 -1
3626 2423 -1
3626 2437 -1
3626 3626 4
3627 18 -1
3627 3215 -1
3627 3627 4
3628 416 -1
3628 2652 -1
3628 3227 -1
3628 3628 5
3629 919 -1
3629 1404 -1
3629 3629 3
3630 152 -1
3630 217 -1
3630 3630 2
3631 69 -1
3631 711 -1
3631 3631 2
3632 282 -1
3632 2745 -1
3632 3632 3
3633 504 -1
3633 2918 -1
3633 3633 4
3634 1400 -1
3634 2354 -1
3634 3634 4
3635 76 -1
3635 951 -1
3635 2441 -1
3635 3635 4
3636 2428 -1
3636 2444 -1
3636 3636 3
3637 1163 -1
3637 1335 -1
3637 3637 2
3638 402 -1
3638 2276 -1
3638 3638 2
3639 470 -1
3639 1826 -1
3639 3639 5
3640 724 -1
3640 1165 -1
3640 1264 -1
3640 3640 3
3641 57 -1
3641 118 -1
3641 3014 -1
3641 3641 3
3642 7 -1
3642 2189 -1
3642 3642 3
3643 176 -1
3643 2810 -1
3643 3643 2
3644 2214 -1
3644 2445 -1
3644 3644 3
3645 994 -1
3645 1421 -1
3645 2620 -1
3645 3645 3
3646 1227 -1
3646 2027 -1
3646 3646 2
3647 116 -1
3647 2644 -1
3647 3647 2
3648 254 -1
3648 373 -1
3648 3648 3
3649 175 -1
3649 3211 -1
3649 3349 -1
3649 3649 4
3650 150 -1
3650 1163 -1
3650 3650 4
3651 2381 -1
3651 2693 -1
3651 3119 -1
3651 3651 3
3652 2608 -1
3652 3106 -1
3652 3652 2
3653 3 -1
3653 3103 -1
3653 3653 2
3654 603 -1
3654 2709 -1
3654 3654 2
3655 27 -1
3655 588 -1
3655 3655 2
3656 53 -1
3656 1196 -1
3656 3656 2
3657 7 -1
3657 428 -1
3657 3657 3
3658 1834 -1
3658 1981 -1
3658 3658 2
3659 78 -1
3659 120 -1
3659 3659 2
3660 1179 -1
3660 3596 -1
3660 3660 2
3661 1230 -1
3661 1299 -1
3661 3661 2
3662 2338 -1
3662 3256 -1
3662 3662 2
3663 164 -1
3663 1035 -1
3663 3137 -1
3663 3663 3
3664 361 -1
3664 1783 -1
3664 3664 3
3665 368 -1
3665 587 -1
3665 3665 2
3666 26 -1
3666 2389 -1
3666 3666 2
3667 2093 -1
3667 2507 -1
3667 3667 2
3668 1658 -1
3668 3474 -1
3668 3668 2
3669 5 -1
3669 3494 -1
3669 3669 3
3670 258 -1
3670 1207 -1
3670 3670 2
3671 67 -1
3671 371 -1
3671 3671 2
3672 5 -1
3672 220 -1
3672 3672 2
3673 2296 -1
3673 2883 -1
3673 3673 2
3674 1414 -1
3674 3364 -1
3674 3674 3
3675 191 -1
3675 3530 -1
3675 3675 3
3676 1158 -1
3676 3548 -1
3676 3676 3
3677 130 -1
3677 966 -1
3677 3677 2
3678 628 -1
3678 1999 -1
3678 3678 2
3679 550 -1
3679 1617 -1
3679 3679 2
3680 781 -1
3680 1028 -1
3680 2563 -1
3680 3680 3
3681 1570 -1
3681 2720 -1
3681 3681 3
3682 632 -1
3682 1565 -1
3682 3682 3
3683 1785 -1
3683 2235 -1
3683 3683 2
3684 452 -1
3684 2716 -1
3684 3684 2
3685 28 -1
3685 842 -1
3685 3685 2
3686 572 -1
3686 773 -1
3686 3669 -1
3686 3686 4
3687 313 -1
3687 360 -1
3687 3687 2
3688 1192 -1
3688 1478 -1
3688 3688 6
3689 1711 -1
3689 2968 -1
3689 3689 3
3690 634 -1
3690 1184 -1
3690 3690 2
3691 2747 -1
3691 3577 -1
3691 3691 2
3692 345 -1
3692 484 -1
3692 3692 2
3693 50 -1
3693 296 -1
3693 3693 2
3694 62 -1
3694 2658 -1
3694 3694 2
3695 592 -1
3695 2957 -1
3695 3695 2
3696 238 -1
3696 1996 -1
3696 3627 -1
3696 3696 3
3697 1791 -1
3697 2697 -1
3697 3697 2
3698 29 -1
3698 349 -1
3698 3698 3
3699 21 -1
3699 2633 -1
3699 3699 2
3700 109 -1
3700 1403 -1
3700 1652 -1
3700 3700 3
3701 11 -1
3701 1870 -1
3701 3701 4
3702 275 -1
3702 1035 -1
3702 3702 2
3703 164 -1
3703 2478 -1
3703 3449 -1
3703 3703 4
3704 1746 -1
3704 2555 -1
3704 3704 2
3705 251 -1
3705 496 -1
3705 3705 3
3706 11 -1
3706 1261 -1
3706 2089 -1
3706 3706 3
3707 1377 -1
3707 2921 -1
3707 3707 2
3708 126 -1
3708 1578 -1
3708 3708 3
3709 927 -1
3709 1420 -1
3709 3709 2
3710 50 -1
3710 1742 -1
3710 3710 3
3711 11 -1
3711 73 -1
3711 3711 3
3712 1486 -1
3712 1981 -1
3712 3712 2
3713 2996 -1
3713 3471 -1
3713 3713 2
3714 972 -1
3714 2919 -1
3714 3714 3
3715 82 -1
3715 1105 -1
3715 3715 3
3716 164 -1
3716 1685 -1
3716 3716 2
3717 186 -1
3717 2363 -1
3717 3717 2
3718 5 -1
3718 105 -1
3718 3718 4
3719 131 -1
3719 469 -1
3719 3719 3
3720 162 -1
3720 1512 -1
3720 3720 3
3721 466 -1
3721 2379 -1
3721 3721 3
3722 179 -1
3722 893 -1
3722 3722 4
3723 330 -1
3723 584 -1
3723 3723 2
3724 652 -1
3724 2993 -1
3724 3724 4
3725 369 -1
3725 1489 -1
3725 3522 -1
3725 3725 3
3726 32 -1
3726 406 -1
3726 3726 2
3727 28 -1
3727 1147 -1
3727 3727 4
3728 238 -1
3728 252 -1
3728 3728 2
3729 373 -1
3729 2146 -1
3729 3729 2
3730 359 -1
3730 2501 -1
3730 3730 3
3731 292 -1
3731 541 -1
3731 3731 2
3732 1285 -1
3732 1972 -1
3732 3040 -1
3732 3732 3
3733 1521 -1
3733 2721 -1
3733 3733 3
3734 322 -1
3734 2758 -1
3734 2804 -1
3734 3734 3
3735 2211 -1
3735 2598 -1
3735 3735 2
3736 129 -1
3736 1282 -1
3736 3736 2
3737 1282 -1
3737 1538 -1
3737 3737 3
3738 5 -1
3738 566 -1
3738 1746 -1
3738 3738 3
3739 289 -1
3739 1528 -1
3739 3739 2
3740 18 -1
3740 3191 -1
3740 3740 2
3741 247 -1
3741 1719 -1
3741 1862 -1
3741 3555 -1
3741 3741 4
3742 972 -1
3742 2102 -1
3742 3742 2
3743 1924 -1
3743 2353 -1
3743 3743 2
3744 1360 -1
3744 3008 -1
3744 3744 2
3745 1288 -1
3745 1448 -1
3745 3745 2
3746 1209 -1
3746 3272 -1
3746 3746 2
3747 2 -1
3747 1187 -1
3747 3747 3
3748 147 -1
3748 2849 -1
3748 3748 2
3749 2450 -1
3749 3072 -1
3749 3749 2
3750 893 -1
3750 1076 -1
3750 2980 -1
3750 3750 3
3751 2206 -1
3751 2311 -1
3751 3751 2
3752 254 -1
3752 1069 -1
3752 3752 5
3753 1214 -1
3753 2580 -1
3753 3753 3
3754 465 -1
3754 695 -1
3754 3754 3
3755 42 -1
3755 718 -1
3755 3755 2
3756 384 -1
3756 668 -1
3756 3756 2
3757 46 -1
3757 573 -1
3757 3757 2
3758 114 -1
3758 561 -1
3758 3758 2
3759 1177 -1
3759 1988 -1
3759 3759 2
3760 70 -1
3760 340 -1
3760 3760 2
3761 317 -1
3761 2073 -1
3761 3761 3
3762 349 -1
3762 1984 -1
3762 3490 -1
3762 3762 3
3763 77 -1
3763 433 -1
3763 834 -1
3763 3763 3
3764 545 -1
3764 2205 -1
3764 3764 2
3765 68 -1
3765 1153 -1
3765 3765 2
3766 287 -1
3766 2454 -1
3766 3516 -1
3766 3766 3
3767 1 -1
3767 1116 -1
3767 3039 -1
3767 3767 3
3768 459 -1
3768 926 -1
3768 3768 3
3769 159 -1
3769 3730 -1
3769 3769 3
3770 2426 -1
3770 3029 -1
3770 3770 2
3771 1 -1
3771 2702 -1
3771 3771 2
3772 1309 -1
3772 1517 -1
3772 3772 3
3773 605 -1
3773 3311 -1
3773 3773 2
3774 795 -1
3774 2986 -1
3774 3774 2
3775 152 -1
3775 2365 -1
3775 3775 2
3776 278 -1
3776 743 -1
3776 3776 2
3777 306 -1
3777 1953 -1
3777 3777 2
3778 138 -1
3778 3533 -1
3778 3778 4
3779 348 -1
3779 1007 -1
3779 3779 3
3780 135 -1
3780 473 -1
3780 3780 2
3781 88 -1
3781 3368 -1
3781 3781 2
3782 112 -1
3782 2705 -1
3782 3433 -1
3782 3782 4
3783 29 -1
3783 1091 -1
3783 3783 2
3784 2 -1
3784 311 -1
3784 3784 2
3785 485 -1
3785 977 -1
3785 3785 2
3786 1805 -1
3786 2976 -1
3786 3786 2
3787 157 -1
3787 2614 -1
3787 3224 -1
3787 3787 3
3788 76 -1
3788 866 -1
3788 3788 3
3789 1737 -1
3789 3010 -1
3789 3718 -1
3789 3789 3
3790 225 -1
3790 847 -1
3790 3790 2
3791 1085 -1
3791 2633 -1
3791 3791 3
3792 104 -1
3792 3359 -1
3792 3792 2
3793 2 -1
3793 4 -1
3793 3793 3
3794 16 -1
3794 636 -1
3794 1903 -1
3794 2725 -1
3794 3794 6
3795 806 -1
3795 1953 -1
3795 3795 2
3796 1178 -1
3796 1953 -1
3796 3796 2
3797 2261 -1
3797 3084 -1
3797 3797 2
3798 379 -1
3798 3368 -1
3798 3798 2
3799 955 -1
3799 1558 -1
3799 1933 -1
3799 3799 4
3800 27 -1
3800 2802 -1
3800 3800 4
3801 1600 -1
3801 1946 -1
3801 3801 2
3802 597 -1
3802 1078 -1
3802 3802 2
3803 2175 -1
3803 3567 -1
3803 3803 3
3804 51 -1
3804 1783 -1
3804 3804 3
3805 1185 -1
3805 3800 -1
3805 3805 3
3806 823 -1
3806 3268 -1
3806 3806 3
3807 1567 -1
3807 2309 -1
3807 3807 2
3808 90 -1
3808 2174 -1
3808 3808 2
3809 1 -1
3809 132 -1
3809 3809 2
3810 401 -1
3810 3761 -1
3810 3810 3
3811 53 -1
3811 2613 -1
3811 3811 2
3812 36 -1
3812 153 -1
3812 3812 2
3813 1771 -1
3813 2503 -1
3813 3813 2
3814 77 -1
3814 2673 -1
3814 3814 2
3815 1119 -1
3815 3518 -1
3815 3815 2
3816 17 -1
3816 1095 -1
3816 3816 2
3817 123 -1
3817 1096 -1
3817 3817 2
3818 405 -1
3818 1048 -1
3818 3818 2
3819 70 -1
3819 2395 -1
3819 3819 3
3820 617 -1
3820 1891 -1
3820 3820 3
3821 2768 -1
3821 3169 -1
3821 3821 2
3822 514 -1
3822 2631 -1
3822 3822 2
3823 2522 -1
3823 3010 -1
3823 3823 2
3824 904 -1
3824 3158 -1
3824 3824 3
3825 546 -1
3825 2132 -1
3825 3825 2
3826 661 -1
3826 2778 -1
3826 3826 2
3827 7 -1
3827 739 -1
3827 3827 2
3828 2 -1
3828 1084 -1
3828 3828 3
3829 2 -1
3829 2758 -1
3829 3829 3
3830 37 -1
3830 667 -1
3830 3409 -1
3830 3830 3
3831 15 -1
3831 51 -1
3831 3831 3
3832 50 -1
3832 906 -1
3832 3832 3
3833 428 -1
3833 475 -1
3833 3833 2
3834 1829 -1
3834 2810 -1
3834 3834 2
3835 901 -1
3835 1442 -1
3835 3835 2
3836 179 -1
3836 2973 -1
3836 3836 2
3837 793 -1
3837 1034 -1
3837 3837 4
3838 2 -1
3838 102 -1
3838 3838 3
3839 66 -1
3839 379 -1
3839 3839 2
3840 235 -1
3840 2436 -1
3840 3840 3
3841 536 -1
3841 3664 -1
3841 3841 2
3842 89 -1
3842 149 -1
3842 3842 3
3843 234 -1
3843 2616 -1
3843 3276 -1
3843 3843 4
3844 424 -1
3844 501 -1
3844 3844 2
3845 75 -1
3845 356 -1
3845 3845 3
3846 2479 -1
3846 3510 -1
3846 3846 2
3847 93 -1
3847 1542 -1
3847 3847 2
3848 2691 -1
3848 3131 -1
3848 3848 2
3849 2656 -1
3849 3688 -1
3849 3849 2
3850 2321 -1
3850 3292 -1
3850 3850 3
3851 759 -1
3851 2883 -1
3851 3851 3
3852 63 -1
3852 615 -1
3852 3852 4
3853 757 -1
3853 1040 -1
3853 3853 3
3854 1209 -1
3854 1915 -1
3854 3854 3
3855 30 -1
3855 3837 -1
3855 3855 2
3856 241 -1
3856 2320 -1
3856 3856 3
3857 112 -1
3857 1101 -1
3857 3857 2
3858 106 -1
3858 1781 -1
3858 3858 4
3859 1751 -1
3859 1933 -1
3859 3859 2
3860 24 -1
3860 2478 -1
3860 3860 3
3861 32 -1
3861 612 -1
3861 3861 2
3862 834 -1
3862 1327 -1
3862 3862 2
3863 468 -1
3863 3200 -1
3863 3863 2
3864 174 -1
3864 641 -1
3864 1138 -1
3864 3864 3
3865 258 -1
3865 2098 -1
3865 3865 2
3866 173 -1
3866 1570 -1
3866 1594 -1
3866 3866 3
3867 7 -1
3867 1365 -1
3867 3867 2
3868 1060 -1
3868 1233 -1
3868 3868 2
3869 78 -1
3869 731 -1
3869 3869 3
3870 78 -1
3870 1807 -1
3870 3870 2
3871 539 -1
3871 823 -1
3871 3871 2
3872 824 -1
3872 2502 -1
3872 3872 2
3873 733 -1
3873 1059 -1
3873 3351 -1
3873 3873 3
3874 798 -1
3874 2646 -1
3874 3874 2
3875 140 -1
3875 189 -1
3875 3875 2
3876 2071 -1
3876 3151 -1
3876 3876 2
3877 341 -1
3877 897 -1
3877 3877 2
3878 146 -1
3878 2517 -1
3878 3878 2
3879 30 -1
3879 1862 -1
3879 3879 2
3880 1811 -1
3880 1812 -1
3880 3880 5
3881 113 -1
3881 1063 -1
3881 3881 3
3882 145 -1
3882 301 -1
3882 3882 3
3883 220 -1
3883 2098 -1
3883 2968 -1
3883 3883 3
3884 158 -1
3884 517 -1
3884 3884 2
3885 1016 -1
3885 3186 -1
3885 3885 4
3886 79 -1
3886 3530 -1
3886 3886 2
3887 612 -1
3887 2041 -1
3887 3887 2
3888 689 -1
3888 2625 -1
3888 3888 2
3889 6 -1
3889 3158 -1
3889 3889 3
3890 157 -1
3890 2275 -1
3890 3890 2
3891 174 -1
3891 436 -1
3891 2311 -1
3891 3891 4
3892 75 -1
3892 623 -1
3892 3892 2
3893 126 -1
3893 1353 -1
3893 2447 -1
3893 3893 3
3894 1605 -1
3894 2356 -1
3894 3894 2
3895 1 -1
3895 1797 -1
3895 3895 2
3896 330 -1
3896 3852 -1
3896 3896 2
3897 2012 -1
3897 3160 -1
3897 3897 2
3898 212 -1
3898 294 -1
3898 3898 2
3899 1005 -1
3899 2564 -1
3899 3899 3
3900 2983 -1
3900 3201 -1
3900 3900 3
3901 2507 -1
3901 3219 -1
3901 3901 3
3902 1 -1
3902 242 -1
3902 3902 3
3903 16 -1
3903 294 -1
3903 3903 2
3904 1577 -1
3904 1745 -1
3904 3904 2
3905 4 -1
3905 11 -1
3905 3905 4
3906 240 -1
3906 1977 -1
3906 3906 3
3907 416 -1
3907 2195 -1
3907 3907 2
3908 289 -1
3908 2048 -1
3908 3832 -1
3908 3908 3
3909 1368 -1
3909 2795 -1
3909 3909 2
3910 79 -1
3910 1643 -1
3910 3910 2
3911 202 -1
3911 1950 -1
3911 2592 -1
3911 3911 4
3912 253 -1
3912 893 -1
3912 1009 -1
3912 3912 3
3913 113 -1
3913 2192 -1
3913 3913 2
3914 1395 -1
3914 2810 -1
3914 3914 2
3915 332 -1
3915 2358 -1
3915 3915 3
3916 1885 -1
3916 3117 -1
3916 3916 2
3917 1190 -1
3917 3142 -1
3917 3917 2
3918 560 -1
3918 834 -1
3918 1694 -1
3918 3918 3
3919 228 -1
3919 278 -1
3919 3919 2
3920 36 -1
3920 1576 -1
3920 3920 3
3921 46 -1
3921 311 -1
3921 3921 3
3922 222 -1
3922 228 -1
3922 3922 4
3923 1600 -1
3923 3674 -1
3923 3923 2
3924 67 -1
3924 1285 -1
3924 3924 2
3925 6 -1
3925 1474 -1
3925 2105 -1
3925 3925 3
3926 350 -1
3926 1995 -1
3926 3926 3
3927 2594 -1
3927 3628 -1
3927 3927 2
3928 1796 -1
3928 3014 -1
3928 3928 2
3929 27 -1
3929 242 -1
3929 3929 2
3930 17 -1
3930 793 -1
3930 3930 2
3931 10 -1
3931 106 -1
3931 3931 3
3932 979 -1
3932 1921 -1
3932 2431 -1
3932 3932 3
3933 240 -1
3933 325 -1
3933 2006 -1
3933 3933 4
3934 1 -1
3934 163 -1
3934 3934 4
3935 1008 -1
3935 1628 -1
3935 3935 2
3936 980 -1
3936 2049 -1
3936 3936 2
3937 161 -1
3937 1066 -1
3937 3937 2
3938 1205 -1
3938 1467 -1
3938 3938 2
3939 5 -1
3939 154 -1
3939 3939 2
3940 232 -1
3940 1392 -1
3940 3940 2
3941 782 -1
3941 3229 -1
3941 3941 2
3942 76 -1
3942 371 -1
3942 3942 2
3943 115 -1
3943 1663 -1
3943 3943 2
3944 165 -1
3944 3308 -1
3944 3944 3
3945 1 -1
3945 1458 -1
3945 2607 -1
3945 3945 3
3946 141 -1
3946 2145 -1
3946 3946 3
3947 2357 -1
3947 3853 -1
3947 3947 2
3948 598 -1
3948 886 -1
3948 3583 -1
3948 3948 3
3949 18 -1
3949 2200 -1
3949 3949 2
3950 3 -1
3950 542 -1
3950 3950 2
3951 92 -1
3951 2633 -1
3951 3951 2
3952 5 -1
3952 50 -1
3952 3952 2
3953 582 -1
3953 637 -1
3953 3953 2
3954 1 -1
3954 2005 -1
3954 3954 2
3955 44 -1
3955 179 -1
3955 3955 2
3956 834 -1
3956 3718 -1
3956 3956 2
3957 190 -1
3957 2535 -1
3957 3957 2
3958 250 -1
3958 2875 -1
3958 3958 3
3959 537 -1
3959 662 -1
3959 3959 2
3960 61 -1
3960 708 -1
3960 3960 2
3961 207 -1
3961 448 -1
3961 3961 2
3962 126 -1
3962 1261 -1
3962 3962 2
3963 3253 -1
3963 3364 -1
3963 3463 -1
3963 3963 3
3964 401 -1
3964 1871 -1
3964 3964 2
3965 85 -1
3965 2506 -1
3965 3965 2
3966 2423 -1
3966 3424 -1
3966 3966 2
3967 264 -1
3967 3352 -1
3967 3967 2
3968 438 -1
3968 2120 -1
3968 3968 2
3969 70 -1
3969 470 -1
3969 3969 3
3970 1857 -1
3970 2382 -1
3970 3970 2
3971 199 -1
3971 2524 -1
3971 3971 2
3972 27 -1
3972 3125 -1
3972 3972 2
3973 49 -1
3973 1748 -1
3973 3422 -1
3973 3973 3
3974 1384 -1
3974 3326 -1
3974 3974 2
3975 3025 -1
3975 3426 -1
3975 3975 2
3976 1649 -1
3976 2781 -1
3976 3976 4
3977 197 -1
3977 497 -1
3977 3977 3
3978 849 -1
3978 1961 -1
3978 3978 2
3979 565 -1
3979 2238 -1
3979 3979 2
3980 251 -1
3980 3362 -1
3980 3980 2
3981 2005 -1
3981 3251 -1
3981 3981 2
3982 112 -1
3982 121 -1
3982 3982 2
3983 189 -1
3983 728 -1
3983 3983 3
3984 28 -1
3984 984 -1
3984 3984 2
3985 261 -1
3985 497 -1
3985 3985 3
3986 581 -1
3986 1124 -1
3986 3986 2
3987 1264 -1
3987 3105 -1
3987 3987 2
3988 528 -1
3988 553 -1
3988 3988 2
3989 553 -1
3989 2269 -1
3989 3989 2
3990 678 -1
3990 1799 -1
3990 3990 2
3991 1000 -1
3991 1528 -1
3991 3794 -1
3991 3991 3
3992 169 -1
3992 2386 -1
3992 3992 2
3993 191 -1
3993 395 -1
3993 3993 2
3994 12 -1
3994 3473 -1
3994 3994 2
3995 182 -1
3995 2511 -1
3995 3995 2
3996 40 -1
3996 1543 -1
3996 3996 3
3997 51 -1
3997 121 -1
3997 3997 2
3998 1997 -1
3998 3605 -1
3998 3998 3
3999 1 -1
3999 333 -1
3999 3999 3
4000 32 -1
4000 737 -1
4000 4000 2
4001 1 -1
4001 1178 -1
4001 3364 -1
4001 4001 3
4002 2672 -1
4002 2897 -1
4002 4002 2
4003 2434 -1
4003 3635 -1
4003 4003 5
4004 799 -1
4004 1707 -1
4004 4004 2
4005 1534 -1
4005 2843 -1
4005 4005 3
4006 28 -1
4006 2999 -1
4006 3244 -1
4006 4006 3
4007 1952 -1
4007 2838 -1
4007 4007 2
4008 41 -1
4008 522 -1
4008 4008 4
4009 17 -1
4009 2623 -1
4009 4009 2
4010 1112 -1
4010 2145 -1
4010 2388 -1
4010 4010 3
4011 1690 -1
4011 1847 -1
4011 4011 3
4012 356 -1
4012 982 -1
4012 4012 2
4013 717 -1
4013 2503 -1
4013 4013 3
4014 2 -1
4014 2249 -1
4014 4014 2
4015 232 -1
4015 861 -1
4015 4015 2
4016 2050 -1
4016 2940 -1
4016 4016 2
4017 1797 -1
4017 2509 -1
4017 4017 2
4018 363 -1
4018 2571 -1
4018 4018 2
4019 191 -1
4019 2568 -1
4019 4019 2
4020 1236 -1
4020 1427 -1
4020 4020 3
4021 21 -1
4021 489 -1
4021 1070 -1
4021 3629 -1
4021 4021 6
4022 734 -1
4022 814 -1
4022 4022 2
4023 10 -1
4023 122 -1
4023 4023 2
4024 2174 -1
4024 4003 -1
4024 4024 2
4025 394 -1
4025 935 -1
4025 1477 -1
4025 4025 3
4026 1135 -1
4026 3536 -1
4026 4026 2
4027 2213 -1
4027 3120 -1
4027 4027 3
4028 523 -1
4028 1908 -1
4028 2081 -1
4028 4028 3
4029 311 -1
4029 1007 -1
4029 4029 2
4030 2568 -1
4030 2703 -1
4030 4030 5
4031 106 -1
4031 759 -1
4031 2865 -1
4031 4031 3
4032 68 -1
4032 76 -1
4032 4032 3
4033 464 -1
4033 3265 -1
4033 4033 3
4034 27 -1
4034 2809 -1
4034 4034 3
4035 73 -1
4035 2382 -1
4035 4035 2
4036 9 -1
4036 1282 -1
4036 4036 2
4037 11 -1
4037 2040 -1
4037 4037 2
4038 573 -1
4038 2747 -1
4038 4038 2
4039 112 -1
4039 179 -1
4039 4039 2
4040 150 -1
4040 204 -1
4040 4040 2
4041 1170 -1
4041 1494 -1
4041 1692 -1
4041 4041 4
4042 18 -1
4042 296 -1
4042 4042 2
4043 552 -1
4043 1032 -1
4043 4043 2
4044 5 -1
4044 3300 -1
4044 4044 2
4045 2189 -1
4045 3648 -1
4045 4045 2
4046 79 -1
4046 1657 -1
4046 4046 2
4047 430 -1
4047 945 -1
4047 3035 -1
4047 4047 4
4048 217 -1
4048 2633 -1
4048 4048 2
4049 88 -1
4049 2118 -1
4049 3120 -1
4049 3689 -1
4049 4049 5
4050 32 -1
4050 1503 -1
4050 4050 3
4051 9 -1
4051 1989 -1
4051 4051 2
4052 11 -1
4052 243 -1
4052 2782 -1
4052 4052 3
4053 5 -1
4053 236 -1
4053 3710 -1
4053 4053 3
4054 966 -1
4054 2957 -1
4054 4054 2
4055 1824 -1
4055 2430 -1
4055 2774 -1
4055 4055 4
4056 482 -1
4056 2377 -1
4056 4056 2
4057 44 -1
4057 1439 -1
4057 4057 2
4058 17 -1
4058 41 -1
4058 4058 2
4059 826 -1
4059 3682 -1
4059 4059 2
4060 32 -1
4060 3193 -1
4060 4060 3
4061 2 -1
4061 1338 -1
4061 4061 2
4062 404 -1
4062 935 -1
4062 4062 3
4063 570 -1
4063 3024 -1
4063 4063 3
4064 276 -1
4064 1692 -1
4064 2823 -1
4064 4064 4
4065 362 -1
4065 818 -1
4065 4065 3
4066 603 -1
4066 906 -1
4066 4066 2
4067 42 -1
4067 1538 -1
4067 4067 2
4068 884 -1
4068 2399 -1
4068 4068 3
4069 150 -1
4069 225 -1
4069 3024 -1
4069 4069 4
4070 596 -1
4070 1499 -1
4070 4070 2
4071 159 -1
4071 3803 -1
4071 4071 2
4072 1866 -1
4072 2202 -1
4072 4072 2
4073 423 -1
4073 1589 -1
4073 4073 2
4074 561 -1
4074 1532 -1
4074 4074 2
4075 1877 -1
4075 2648 -1
4075 4075 2
4076 17 -1
4076 2591 -1
4076 4076 3
4077 1471 -1
4077 3998 -1
4077 4077 2
4078 508 -1
4078 1107 -1
4078 4078 3
4079 340 -1
4079 1378 -1
4079 1456 -1
4079 4079 3
4080 7 -1
4080 691 -1
4080 1933 -1
4080 4080 3
4081 155 -1
4081 816 -1
4081 2893 -1
4081 4081 4
4082 1 -1
4082 174 -1
4082 4082 2
4083 210 -1
4083 3044 -1
4083 4083 4
4084 112 -1
4084 1909 -1
4084 4084 2
4085 154 -1
4085 330 -1
4085 4085 3
4086 23 -1
4086 2309 -1
4086 4086 2
4087 903 -1
4087 3633 -1
4087 4087 2
4088 96 -1
4088 1211 -1
4088 4088 2
4089 243 -1
4089 3236 -1
4089 4089 2
4090 2 -1
4090 3257 -1
4090 4090 2
4091 2507 -1
4091 3905 -1
4091 4091 3
4092 4 -1
4092 1981 -1
4092 4092 3
4093 2370 -1
4093 3976 -1
4093 4093 2
4094 464 -1
4094 1898 -1
4094 4094 2
4095 86 -1
4095 943 -1
4095 4095 2
4096 791 -1
4096 1513 -1
4096 2216 -1
4096 4096 3
4097 18 -1
4097 2006 -1
4097 4097 2
4098 155 -1
4098 2136 -1
4098 3534 -1
4098 4098 3
4099 329 -1
4099 3881 -1
4099 4099 2
4100 2289 -1
4100 3793 -1
4100 4100 2
4101 121 -1
4101 1265 -1
4101 4101 3
4102 1325 -1
4102 2023 -1
4102 4102 3
4103 679 -1
4103 850 -1
4103 4103 3
4104 240 -1
4104 1824 -1
4104 4104 2
4105 44 -1
4105 158 -1
4105 4105 2
4106 291 -1
4106 359 -1
4106 552 -1
4106 4106 3
4107 86 -1
4107 3858 -1
4107 4107 2
4108 28 -1
4108 458 -1
4108 4108 2
4109 242 -1
4109 805 -1
4109 4109 2
4110 32 -1
4110 927 -1
4110 4110 3
4111 148 -1
4111 683 -1
4111 4111 2
4112 104 -1
4112 1545 -1
4112 4112 3
4113 955 -1
4113 1788 -1
4113 4113 2
4114 36 -1
4114 247 -1
4114 1177 -1
4114 4114 3
4115 229 -1
4115 294 -1
4115 4115 2
4116 62 -1
4116 240 -1
4116 4116 2
4117 320 -1
4117 379 -1
4117 4117 2
4118 68 -1
4118 202 -1
4118 4118 2
4119 597 -1
4119 1276 -1
4119 2146 -1
4119 4119 3
4120 1138 -1
4120 3323 -1
4120 3720 -1
4120 4120 4
4121 553 -1
4121 1030 -1
4121 4121 3
4122 1 -1
4122 428 -1
4122 3806 -1
4122 4122 4
4123 95 -1
4123 3155 -1
4123 4123 2
4124 270 -1
4124 1309 -1
4124 4124 2
4125 2432 -1
4125 3491 -1
4125 4125 2
4126 76 -1
4126 1699 -1
4126 4126 3
4127 34 -1
4127 2458 -1
4127 4127 2
4128 12 -1
4128 2984 -1
4128 4128 2
4129 73 -1
4129 195 -1
4129 4129 3
4130 377 -1
4130 2997 -1
4130 4130 2
4131 337 -1
4131 3518 -1
4131 4131 2
4132 1594 -1
4132 2997 -1
4132 3004 -1
4132 4132 3
4133 551 -1
4133 1438 -1
4133 4133 2
4134 674 -1
4134 1136 -1
4134 4134 2
4135 1957 -1
4135 2746 -1
4135 4135 2
4136 18 -1
4136 1898 -1
4136 1904 -1
4136 3922 -1
4136 4136 4
4137 1721 -1
4137 1849 -1
4137 4137 2
4138 601 -1
4138 2482 -1
4138 3051 -1
4138 4138 3
4139 12 -1
4139 625 -1
4139 4139 2
4140 493 -1
4140 3467 -1
4140 4140 2
4141 26 -1
4141 331 -1
4141 4141 2
4142 65 -1
4142 780 -1
4142 4142 2
4143 1124 -1
4143 1420 -1
4143 4143 2
4144 522 -1
4144 4110 -1
4144 4144 2
4145 1 -1
4145 3854 -1
4145 4145 2
4146 3018 -1
4146 3705 -1
4146 4146 2
4147 540 -1
4147 1545 -1
4147 4147 2
4148 159 -1
4148 3753 -1
4148 4148 2
4149 164 -1
4149 659 -1
4149 4149 2
4150 427 -1
4150 1467 -1
4150 4150 3
4151 573 -1
4151 898 -1
4151 4151 2
4152 1352 -1
4152 2263 -1
4152 4152 2
4153 497 -1
4153 920 -1
4153 4153 3
4154 1235 -1
4154 3608 -1
4154 4068 -1
4154 4154 3
4155 18 -1
4155 188 -1
4155 4155 2
4156 203 -1
4156 2404 -1
4156 4156 2
4157 1084 -1
4157 3186 -1
4157 4157 2
4158 1643 -1
4158 3444 -1
4158 4158 3
4159 178 -1
4159 1826 -1
4159 4159 3
4160 353 -1
4160 1551 -1
4160 1553 -1
4160 4160 3
4161 183 -1
4161 518 -1
4161 4161 3
4162 2 -1
4162 2754 -1
4162 4162 2
4163 679 -1
4163 2020 -1
4163 2332 -1
4163 3375 -1
4163 4163 4
4164 2555 -1
4164 3985 -1
4164 4164 2
4165 2120 -1
4165 3650 -1
4165 3754 -1
4165 4165 3
4166 301 -1
4166 1052 -1
4166 1083 -1
4166 4166 4
4167 1409 -1
4167 2513 -1
4167 4167 2
4168 567 -1
4168 1860 -1
4168 2132 -1
4168 4168 3
4169 3049 -1
4169 3118 -1
4169 3969 -1
4169 4169 5
4170 274 -1
4170 390 -1
4170 4170 3
4171 164 -1
4171 833 -1
4171 2895 -1
4171 4171 4
4172 2332 -1
4172 3737 -1
4172 4172 2
4173 251 -1
4173 1365 -1
4173 4173 2
4174 651 -1
4174 712 -1
4174 2339 -1
4174 4174 3
4175 180 -1
4175 1439 -1
4175 4175 2
4176 1323 -1
4176 1951 -1
4176 3022 -1
4176 4176 3
4177 218 -1
4177 960 -1
4177 4177 2
4178 257 -1
4178 2596 -1
4178 4178 3
4179 975 -1
4179 3614 -1
4179 4179 2
4180 83 -1
4180 504 -1
4180 4180 2
4181 5 -1
4181 1683 -1
4181 4181 2
4182 311 -1
4182 2819 -1
4182 4182 2
4183 1214 -1
4183 3057 -1
4183 4183 3
4184 1334 -1
4184 3676 -1
4184 4184 2
4185 10 -1
4185 88 -1
4185 4185 2
4186 11 -1
4186 333 -1
4186 4186 2
4187 1193 -1
4187 1898 -1
4187 4187 2
4188 718 -1
4188 849 -1
4188 3190 -1
4188 4188 3
4189 13 -1
4189 854 -1
4189 2135 -1
4189 4189 3
4190 2716 -1
4190 4159 -1
4190 4190 2
4191 5 -1
4191 1016 -1
4191 4191 2
4192 1207 -1
4192 1388 -1
4192 1906 -1
4192 4192 4
4193 2777 -1
4193 3624 -1
4193 4193 4
4194 572 -1
4194 3926 -1
4194 4194 3
4195 174 -1
4195 682 -1
4195 4195 3
4196 7 -1
4196 2526 -1
4196 4196 2
4197 81 -1
4197 2611 -1
4197 4197 2
4198 53 -1
4198 289 -1
4198 4198 2
4199 760 -1
4199 2930 -1
4199 4199 2
4200 453 -1
4200 1088 -1
4200 2676 -1
4200 4200 3
4201 1601 -1
4201 1822 -1
4201 4201 3
4202 238 -1
4202 2279 -1
4202 2727 -1
4202 4202 5
4203 187 -1
4203 687 -1
4203 4203 3
4204 718 -1
4204 3106 -1
4204 4204 2
4205 1 -1
4205 4195 -1
4205 4205 2
4206 1595 -1
4206 4020 -1
4206 4206 3
4207 2213 -1
4207 4193 -1
4207 4207 2
4208 197 -1
4208 2960 -1
4208 4208 3
4209 1214 -1
4209 3259 -1
4209 4209 2
4210 682 -1
4210 1163 -1
4210 4210 2
4211 209 -1
4211 780 -1
4211 4211 2
4212 102 -1
4212 2334 -1
4212 4212 3
4213 327 -1
4213 1176 -1
4213 2828 -1
4213 4213 3
4214 3 -1
4214 2526 -1
4214 4214 2
4215 720 -1
4215 1769 -1
4215 4215 3
4216 2189 -1
4216 3407 -1
4216 4216 2
4217 639 -1
4217 2355 -1
4217 3627 -1
4217 4217 3
4218 25 -1
4218 1344 -1
4218 4218 2
4219 26 -1
4219 87 -1
4219 4219 3
4220 50 -1
4220 1179 -1
4220 4220 2
4221 1 -1
4221 345 -1
4221 4221 2
4222 436 -1
4222 2750 -1
4222 4222 2
4223 36 -1
4223 544 -1
4223 4223 2
4224 28 -1
4224 727 -1
4224 4224 3
4225 128 -1
4225 1535 -1
4225 4225 2
4226 1435 -1
4226 3398 -1
4226 4226 2
4227 1124 -1
4227 3788 -1
4227 4227 2
4228 798 -1
4228 1526 -1
4228 4228 3
4229 53 -1
4229 550 -1
4229 4229 2
4230 348 -1
4230 4021 -1
4230 4230 2
4231 2476 -1
4231 2492 -1
4231 4231 3
4232 3799 -1
4232 4050 -1
4232 4232 2
4233 23 -1
4233 222 -1
4233 4233 3
4234 1 -1
4234 1264 -1
4234 4234 2
4235 2154 -1
4235 2461 -1
4235 4235 2
4236 11 -1
4236 798 -1
4236 4236 2
4237 2359 -1
4237 2869 -1
4237 4237 2
4238 182 -1
4238 4032 -1
4238 4238 2
4239 204 -1
4239 2007 -1
4239 4239 2
4240 980 -1
4240 2273 -1
4240 4240 2
4241 18 -1
4241 549 -1
4241 4241 2
4242 154 -1
4242 2966 -1
4242 4242 2
4243 23 -1
4243 2115 -1
4243 4243 3
4244 126 -1
4244 982 -1
4244 3902 -1
4244 4244 3
4245 1162 -1
4245 4201 -1
4245 4245 2
4246 129 -1
4246 146 -1
4246 4246 2
4247 148 -1
4247 826 -1
4247 4247 3
4248 645 -1
4248 2621 -1
4248 3633 -1
4248 4248 4
4249 1112 -1
4249 3779 -1
4249 4249 2
4250 1340 -1
4250 2930 -1
4250 4250 3
4251 108 -1
4251 141 -1
4251 2236 -1
4251 4251 3
4252 2961 -1
4252 3439 -1
4252 4252 2
4253 2 -1
4253 614 -1
4253 4253 3
4254 325 -1
4254 2377 -1
4254 4254 2
4255 171 -1
4255 472 -1
4255 4212 -1
4255 4255 3
4256 627 -1
4256 1590 -1
4256 4256 2
4257 108 -1
4257 116 -1
4257 3410 -1
4257 4257 3
4258 2262 -1
4258 2645 -1
4258 4258 2
4259 1565 -1
4259 2226 -1
4259 4259 2
4260 338 -1
4260 2972 -1
4260 4260 3
4261 975 -1
4261 2883 -1
4261 4261 2
4262 108 -1
4262 354 -1
4262 1124 -1
4262 4262 4
4263 1414 -1
4263 4247 -1
4263 4263 2
4264 3058 -1
4264 3426 -1
4264 4264 2
4265 1561 -1
4265 2790 -1
4265 4265 2
4266 241 -1
4266 1338 -1
4266 4266 3
4267 22 -1
4267 1787 -1
4267 4267 2
4268 27 -1
4268 4126 -1
4268 4268 2
4269 936 -1
4269 1546 -1
4269 4269 2
4270 152 -1
4270 3421 -1
4270 4270 2
4271 628 -1
4271 957 -1
4271 4271 2
4272 127 -1
4272 154 -1
4272 2653 -1
4272 4272 3
4273 106 -1
4273 2855 -1
4273 4273 3
4274 1 -1
4274 95 -1
4274 4274 2
4275 273 -1
4275 1141 -1
4275 3447 -1
4275 4275 3
4276 182 -1
4276 849 -1
4276 1413 -1
4276 4276 3
4277 238 -1
4277 2498 -1
4277 4277 2
4278 974 -1
4278 1824 -1
4278 4278 3
4279 82 -1
4279 83 -1
4279 4279 2
4280 1657 -1
4280 2206 -1
4280 4280 2
4281 1029 -1
4281 1699 -1
4281 4281 2
4282 646 -1
4282 1069 -1
4282 4282 2
4283 388 -1
4283 1840 -1
4283 4122 -1
4283 4283 3
4284 2 -1
4284 639 -1
4284 4284 3
4285 1857 -1
4285 3535 -1
4285 4285 3
4286 151 -1
4286 1611 -1
4286 3273 -1
4286 4286 3
4287 271 -1
4287 682 -1
4287 4287 2
4288 135 -1
4288 488 -1
4288 1214 -1
4288 4288 3
4289 377 -1
4289 3845 -1
4289 4289 2
4290 357 -1
4290 2075 -1
4290 4290 2
4291 545 -1
4291 1817 -1
4291 4291 2
4292 1 -1
4292 793 -1
4292 4292 2
4293 1 -1
4293 1685 -1
4293 4293 2
4294 1516 -1
4294 1641 -1
4294 4294 2
4295 242 -1
4295 2882 -1
4295 4295 2
4296 746 -1
4296 968 -1
4296 4296 2
4297 21 -1
4297 615 -1
4297 4297 2
4298 66 -1
4298 245 -1
4298 4298 3
4299 240 -1
4299 364 -1
4299 4299 2
4300 562 -1
4300 625 -1
4300 4300 2
4301 117 -1
4301 814 -1
4301 4301 2
4302 226 -1
4302 1780 -1
4302 4302 2
4303 289 -1
4303 2311 -1
4303 4303 2
4304 7 -1
4304 26 -1
4304 4304 2
4305 68 -1
4305 551 -1
4305 1443 -1
4305 4305 4
4306 835 -1
4306 3891 -1
4306 4306 2
4307 1519 -1
4307 3604 -1
4307 4307 3
4308 234 -1
4308 1484 -1
4308 4308 2
4309 2909 -1
4309 3112 -1
4309 4309 2
4310 56 -1
4310 83 -1
4310 4310 3
4311 1497 -1
4311 4215 -1
4311 4311 2
4312 73 -1
4312 3341 -1
4312 4312 2
4313 1015 -1
4313 2577 -1
4313 4313 2
4314 38 -1
4314 906 -1
4314 3819 -1
4314 4314 3
4315 340 -1
4315 4260 -1
4315 4315 2
4316 67 -1
4316 4064 -1
4316 4316 2
4317 335 -1
4317 2364 -1
4317 4317 2
4318 676 -1
4318 2690 -1
4318 4318 2
4319 430 -1
4319 950 -1
4319 4319 3
4320 416 -1
4320 931 -1
4320 4320 2
4321 2558 -1
4321 3272 -1
4321 4321 2
4322 171 -1
4322 3438 -1
4322 3639 -1
4322 4322 3
4323 82 -1
4323 2383 -1
4323 4323 2
4324 1549 -1
4324 3508 -1
4324 4324 2
4325 83 -1
4325 3899 -1
4325 4325 2
4326 50 -1
4326 1471 -1
4326 4326 3
4327 107 -1
4327 645 -1
4327 2205 -1
4327 4030 -1
4327 4327 5
4328 1 -1
4328 864 -1
4328 3639 -1
4328 4328 3
4329 3591 -1
4329 4284 -1
4329 4329 2
4330 173 -1
4330 979 -1
4330 4330 3
4331 158 -1
4331 1046 -1
4331 3219 -1
4331 4331 3
4332 253 -1
4332 3284 -1
4332 4332 2
4333 83 -1
4333 661 -1
4333 4333 2
4334 1633 -1
4334 2982 -1
4334 4334 2
4335 1395 -1
4335 1643 -1
4335 4335 2
4336 1008 -1
4336 3314 -1
4336 4336 2
4337 883 -1
4337 1331 -1
4337 1910 -1
4337 4337 4
4338 2284 -1
4338 4091 -1
4338 4338 2
4339 2135 -1
4339 3281 -1
4339 4339 2
4340 1628 -1
4340 3900 -1
4340 4340 2
4341 46 -1
4341 3125 -1
4341 4341 4
4342 2287 -1
4342 4192 -1
4342 4342 2
4343 28 -1
4343 400 -1
4343 4343 2
4344 674 -1
4344 1003 -1
4344 4344 2
4345 2056 -1
4345 4011 -1
4345 4345 2
4346 1145 -1
4346 1893 -1
4346 4076 -1
4346 4346 3
4347 30 -1
4347 1105 -1
4347 4347 3
4348 435 -1
4348 818 -1
4348 4348 2
4349 561 -1
4349 4083 -1
4349 4349 2
4350 26 -1
4350 1163 -1
4350 4350 2
4351 1581 -1
4351 3137 -1
4351 4351 2
4352 26 -1
4352 437 -1
4352 529 -1
4352 4352 3
4353 1 -1
4353 629 -1
4353 4353 2
4354 73 -1
4354 108 -1
4354 4354 2
4355 594 -1
4355 3820 -1
4355 4355 2
4356 2407 -1
4356 4081 -1
4356 4356 2
4357 191 -1
4357 2482 -1
4357 4357 2
4358 2146 -1
4358 2817 -1
4358 4358 2
4359 147 -1
4359 261 -1
4359 4359 3
4360 978 -1
4360 3528 -1
4360 3843 -1
4360 4360 3
4361 1184 -1
4361 3145 -1
4361 4361 2
4362 2579 -1
4362 3085 -1
4362 4362 2
4363 416 -1
4363 3768 -1
4363 4363 2
4364 1 -1
4364 297 -1
4364 4364 3
4365 1451 -1
4365 2485 -1
4365 4365 3
4366 311 -1
4366 1347 -1
4366 4366 2
4367 1104 -1
4367 3154 -1
4367 4367 2
4368 1093 -1
4368 2562 -1
4368 3686 -1
4368 4368 4
4369 98 -1
4369 1543 -1
4369 4369 2
4370 3851 -1
4370 4021 -1
4370 4370 2
4371 1103 -1
4371 3901 -1
4371 4371 3
4372 459 -1
4372 4153 -1
4372 4372 2
4373 229 -1
4373 2160 -1
4373 4373 3
4374 3097 -1
4374 4055 -1
4374 4374 2
4375 2145 -1
4375 2892 -1
4375 4375 2
4376 86 -1
4376 557 -1
4376 1926 -1
4376 4376 3
4377 233 -1
4377 372 -1
4377 4377 2
4378 722 -1
4378 3004 -1
4378 4378 2
4379 40 -1
4379 2860 -1
4379 4379 2
4380 2798 -1
4380 3120 -1
4380 4380 3
4381 36 -1
4381 592 -1
4381 4381 3
4382 7 -1
4382 2930 -1
4382 4382 2
4383 2880 -1
4383 3377 -1
4383 4383 2
4384 7 -1
4384 2003 -1
4384 4384 3
4385 47 -1
4385 49 -1
4385 4385 2
4386 698 -1
4386 2559 -1
4386 3352 -1
4386 4386 3
4387 539 -1
4387 2500 -1
4387 4387 2
4388 940 -1
4388 2403 -1
4388 2768 -1
4388 4388 3
4389 93 -1
4389 1393 -1
4389 4389 3
4390 146 -1
4390 2674 -1
4390 2738 -1
4390 4390 3
4391 3463 -1
4391 3778 -1
4391 4391 2
4392 2041 -1
4392 4219 -1
4392 4392 3
4393 57 -1
4393 1940 -1
4393 4393 2
4394 67 -1
4394 3850 -1
4394 4394 2
4395 104 -1
4395 2595 -1
4395 4395 4
4396 150 -1
4396 1251 -1
4396 4396 2
4397 803 -1
4397 4003 -1
4397 4397 3
4398 822 -1
4398 1689 -1
4398 4398 2
4399 137 -1
4399 1866 -1
4399 2522 -1
4399 4399 3
4400 2291 -1
4400 2784 -1
4400 4121 -1
4400 4400 3
4401 5 -1
4401 2456 -1
4401 4401 2
4402 316 -1
4402 3574 -1
4402 4402 2
4403 561 -1
4403 1655 -1
4403 3428 -1
4403 4403 3
4404 376 -1
4404 655 -1
4404 4392 -1
4404 4404 3
4405 940 -1
4405 1756 -1
4405 4405 3
4406 1 -1
4406 162 -1
4406 4406 2
4407 772 -1
4407 1092 -1
4407 2438 -1
4407 3074 -1
4407 4407 4
4408 151 -1
4408 171 -1
4408 4408 2
4409 242 -1
4409 1663 -1
4409 4409 2
4410 276 -1
4410 1160 -1
4410 4410 2
4411 629 -1
4411 3852 -1
4411 4411 2
4412 1459 -1
4412 1465 -1
4412 3501 -1
4412 4412 3
4413 65 -1
4413 1108 -1
4413 4413 2
4414 1721 -1
4414 2475 -1
4414 4414 2
4415 584 -1
4415 2459 -1
4415 4415 3
4416 1211 -1
4416 2569 -1
4416 4416 2
4417 1689 -1
4417 3298 -1
4417 4417 2
4418 584 -1
4418 4224 -1
4418 4418 2
4419 1301 -1
4419 3715 -1
4419 4419 2
4420 7 -1
4420 4231 -1
4420 4420 2
4421 83 -1
4421 1981 -1
4421 3491 -1
4421 4421 3
4422 51 -1
4422 1747 -1
4422 4422 2
4423 2197 -1
4423 3154 -1
4423 4423 2
4424 493 -1
4424 1123 -1
4424 4424 3
4425 1029 -1
4425 1646 -1
4425 4425 2
4426 443 -1
4426 3791 -1
4426 4426 2
4427 708 -1
4427 1046 -1
4427 4427 2
4428 1235 -1
4428 2462 -1
4428 4428 2
4429 3363 -1
4429 3569 -1
4429 4429 2
4430 318 -1
4430 530 -1
4430 4430 2
4431 1670 -1
4431 3381 -1
4431 4431 2
4432 63 -1
4432 1475 -1
4432 2189 -1
4432 3931 -1
4432 4432 4
4433 1318 -1
4433 2103 -1
4433 4433 2
4434 1157 -1
4434 3327 -1
4434 4434 3
4435 18 -1
4435 1956 -1
4435 4435 2
4436 13 -1
4436 1257 -1
4436 4436 2
4437 229 -1
4437 2014 -1
4437 4437 3
4438 2546 -1
4438 3800 -1
4438 4438 2
4439 2238 -1
4439 3575 -1
4439 4439 2
4440 174 -1
4440 2564 -1
4440 4440 2
4441 133 -1
4441 1657 -1
4441 4441 3
4442 521 -1
4442 1120 -1
4442 2538 -1
4442 4442 3
4443 241 -1
4443 2119 -1
4443 4443 2
4444 1444 -1
4444 2278 -1
4444 4444 2
4445 189 -1
4445 348 -1
4445 4445 2
4446 46 -1
4446 83 -1
4446 4446 2
4447 690 -1
4447 2574 -1
4447 4447 2
4448 388 -1
4448 523 -1
4448 4448 2
4449 423 -1
4449 1350 -1
4449 4449 2
4450 742 -1
4450 988 -1
4450 1368 -1
4450 4450 3
4451 7 -1
4451 1936 -1
4451 4451 3
4452 121 -1
4452 919 -1
4452 4452 2
4453 62 -1
4453 2611 -1
4453 4278 -1
4453 4453 3
4454 2065 -1
4454 4305 -1
4454 4454 2
4455 120 -1
4455 4069 -1
4455 4455 2
4456 1004 -1
4456 1950 -1
4456 4456 2
4457 15 -1
4457 1815 -1
4457 2700 -1
4457 4457 3
4458 1316 -1
4458 1474 -1
4458 1935 -1
4458 4458 3
4459 2 -1
4459 1788 -1
4459 4459 2
4460 340 -1
4460 1184 -1
4460 3231 -1
4460 4460 3
4461 1437 -1
4461 1756 -1
4461 4461 2
4462 1 -1
4462 126 -1
4462 4462 3
4463 320 -1
4463 684 -1
4463 4463 2
4464 100 -1
4464 1427 -1
4464 4464 2
4465 229 -1
4465 3072 -1
4465 4465 2
4466 455 -1
4466 2595 -1
4466 4466 2
4467 41 -1
4467 1353 -1
4467 3474 -1
4467 4467 3
4468 14 -1
4468 313 -1
4468 4468 2
4469 393 -1
4469 2976 -1
4469 4469 2
4470 330 -1
4470 2057 -1
4470 3015 -1
4470 4470 3
4471 175 -1
4471 2527 -1
4471 3634 -1
4471 4471 3
4472 57 -1
4472 450 -1
4472 4472 2
4473 136 -1
4473 1472 -1
4473 4473 2
4474 1781 -1
4474 2536 -1
4474 4474 2
4475 1002 -1
4475 2975 -1
4475 4475 2
4476 276 -1
4476 4384 -1
4476 4476 2
4477 18 -1
4477 882 -1
4477 4477 2
4478 62 -1
4478 519 -1
4478 4478 2
4479 1464 -1
4479 2467 -1
4479 4479 2
4480 120 -1
4480 1782 -1
4480 1931 -1
4480 4480 3
4481 931 -1
4481 1007 -1
4481 4481 2
4482 1315 -1
4482 1491 -1
4482 1690 -1
4482 4482 3
4483 130 -1
4483 2345 -1
4483 4483 2
4484 280 -1
4484 2247 -1
4484 4484 2
4485 278 -1
4485 4030 -1
4485 4485 2
4486 834 -1
4486 3385 -1
4486 4486 2
4487 1252 -1
4487 2728 -1
4487 4487 2
4488 152 -1
4488 1316 -1
4488 4488 2
4489 2140 -1
4489 4150 -1
4489 4489 3
4490 546 -1
4490 2588 -1
4490 4490 2
4491 1039 -1
4491 3450 -1
4491 4489 -1
4491 4491 3
4492 164 -1
4492 2377 -1
4492 2679 -1
4492 4492 3
4493 86 -1
4493 429 -1
4493 4493 2
4494 193 -1
4494 951 -1
4494 4494 2
4495 25 -1
4495 1117 -1
4495 4495 2
4496 1211 -1
4496 2285 -1
4496 4496 2
4497 1 -1
4497 811 -1
4497 4497 2
4498 676 -1
4498 910 -1
4498 4498 2
4499 1295 -1
4499 2047 -1
4499 4499 2
4500 222 -1
4500 1068 -1
4500 4500 2
4501 334 -1
4501 2619 -1
4501 4501 2
4502 3701 -1
4502 3921 -1
4502 4502 2
4503 1096 -1
4503 2013 -1
4503 4503 2
4504 1265 -1
4504 2686 -1
4504 4504 2
4505 28 -1
4505 406 -1
4505 4505 2
4506 632 -1
4506 3398 -1
4506 4506 2
4507 49 -1
4507 2822 -1
4507 4507 2
4508 242 -1
4508 3226 -1
4508 4508 2
4509 172 -1
4509 1841 -1
4509 4509 3
4510 26 -1
4510 1876 -1
4510 4510 2
4511 731 -1
4511 2633 -1
4511 4511 2
4512 1 -1
4512 127 -1
4512 2147 -1
4512 4512 3
4513 410 -1
4513 582 -1
4513 2417 -1
4513 4509 -1
4513 4513 4
4514 1303 -1
4514 3516 -1
4514 4514 2
4515 1089 -1
4515 1225 -1
4515 4515 2
4516 732 -1
4516 880 -1
4516 1021 -1
4516 4516 4
4517 287 -1
4517 1396 -1
4517 4517 2
4518 118 -1
4518 4310 -1
4518 4518 2
4519 3567 -1
4519 3719 -1
4519 4519 2
4520 9 -1
4520 973 -1
4520 4520 2
4521 402 -1
4521 1841 -1
4521 4521 2
4522 1563 -1
4522 2183 -1
4522 4522 2
4523 9 -1
4523 2361 -1
4523 4523 2
4524 1069 -1
4524 3132 -1
4524 4524 2
4525 1590 -1
4525 1695 -1
4525 4525 2
4526 378 -1
4526 1768 -1
4526 4526 2
4527 7 -1
4527 3429 -1
4527 4527 2
4528 1480 -1
4528 3349 -1
4528 4528 2
4529 238 -1
4529 1198 -1
4529 4529 2
4530 1976 -1
4530 2147 -1
4530 4530 2
4531 1538 -1
4531 1791 -1
4531 4531 2
4532 1163 -1
4532 1659 -1
4532 4532 2
4533 284 -1
4533 384 -1
4533 4533 2
4534 87 -1
4534 501 -1
4534 4534 2
4535 659 -1
4535 841 -1
4535 1376 -1
4535 4535 3
4536 546 -1
4536 3259 -1
4536 4536 2
4537 3144 -1
4537 3470 -1
4537 4537 2
4538 158 -1
4538 907 -1
4538 4538 2
4539 122 -1
4539 783 -1
4539 4539 2
4540 429 -1
4540 2729 -1
4540 4540 2
4541 1926 -1
4541 3860 -1
4541 4541 3
4542 63 -1
4542 375 -1
4542 4542 2
4543 46 -1
4543 2080 -1
4543 4543 3
4544 1683 -1
4544 3123 -1
4544 3922 -1
4544 4544 3
4545 2107 -1
4545 2718 -1
4545 3934 -1
4545 4545 4
4546 414 -1
4546 3002 -1
4546 4546 2
4547 182 -1
4547 339 -1
4547 3324 -1
4547 4547 3
4548 1065 -1
4548 1394 -1
4548 4548 2
4549 150 -1
4549 4129 -1
4549 4549 2
4550 2781 -1
4550 3837 -1
4550 4550 3
4551 522 -1
4551 1083 -1
4551 4551 2
4552 818 -1
4552 2016 -1
4552 4552 2
4553 1164 -1
4553 3549 -1
4553 4553 2
4554 395 -1
4554 955 -1
4554 4554 2
4555 133 -1
4555 364 -1
4555 4555 2
4556 1050 -1
4556 4092 -1
4556 4556 2
4557 2304 -1
4557 2956 -1
4557 4557 2
4558 228 -1
4558 2320 -1
4558 4558 2
4559 1698 -1
4559 2163 -1
4559 4559 2
4560 182 -1
4560 745 -1
4560 4560 2
4561 1354 -1
4561 3572 -1
4561 4561 3
4562 2587 -1
4562 4027 -1
4562 4562 2
4563 364 -1
4563 1017 -1
4563 4563 2
4564 438 -1
4564 872 -1
4564 4564 3
4565 1220 -1
4565 1550 -1
4565 4565 2
4566 5 -1
4566 522 -1
4566 4566 2
4567 296 -1
4567 1143 -1
4567 1558 -1
4567 2434 -1
4567 4567 4
4568 30 -1
4568 2134 -1
4568 3634 -1
4568 4568 3
4569 1342 -1
4569 3829 -1
4569 4569 2
4570 16 -1
4570 2867 -1
4570 4570 2
4571 170 -1
4571 1439 -1
4571 4571 2
4572 2923 -1
4572 3619 -1
4572 4572 2
4573 3752 -1
4573 3977 -1
4573 4573 2
4574 924 -1
4574 4041 -1
4574 4574 2
4575 1015 -1
4575 1215 -1
4575 4575 2
4576 769 -1
4576 2866 -1
4576 4576 2
4577 1160 -1
4577 1671 -1
4577 4577 3
4578 1381 -1
4578 1482 -1
4578 4578 2
4579 2237 -1
4579 4170 -1
4579 4579 2
4580 36 -1
4580 1742 -1
4580 4580 2
4581 73 -1
4581 562 -1
4581 4581 2
4582 171 -1
4582 972 -1
4582 4582 3
4583 2019 -1
4583 4083 -1
4583 4583 2
4584 189 -1
4584 775 -1
4584 4584 2
4585 215 -1
4585 2331 -1
4585 4585 2
4586 1 -1
4586 429 -1
4586 4178 -1
4586 4586 3
4587 41 -1
4587 871 -1
4587 4587 2
4588 893 -1
4588 1262 -1
4588 4588 2
4589 17 -1
4589 239 -1
4589 4589 2
4590 605 -1
4590 3933 -1
4590 4590 2
4591 40 -1
4591 673 -1
4591 3722 -1
4591 4591 3
4592 50 -1
4592 2701 -1
4592 4592 2
4593 41 -1
4593 3714 -1
4593 4593 2
4594 112 -1
4594 2664 -1
4594 4594 2
4595 401 -1
4595 1734 -1
4595 4595 2
4596 468 -1
4596 1486 -1
4596 2320 -1
4596 4596 3
4597 16 -1
4597 457 -1
4597 4597 2
4598 29 -1
4598 2002 -1
4598 4030 -1
4598 4598 3
4599 467 -1
4599 2349 -1
4599 3642 -1
4599 4599 3
4600 314 -1
4600 1404 -1
4600 4600 2
4601 1969 -1
4601 3270 -1
4601 4601 2
4602 132 -1
4602 733 -1
4602 4602 2
4603 1337 -1
4603 1708 -1
4603 2629 -1
4603 4603 3
4604 2509 -1
4604 3185 -1
4604 4604 3
4605 1265 -1
4605 1737 -1
4605 4605 2
4606 990 -1
4606 2448 -1
4606 4606 3
4607 3544 -1
4607 4003 -1
4607 4607 2
4608 1078 -1
4608 2062 -1
4608 4608 2
4609 679 -1
4609 767 -1
4609 4609 2
4610 50 -1
4610 4202 -1
4610 4610 3
4611 1448 -1
4611 2053 -1
4611 4013 -1
4611 4611 3
4612 292 -1
4612 3106 -1
4612 4612 2
4613 772 -1
4613 3905 -1
4613 4613 2
4614 28 -1
4614 3468 -1
4614 4614 2
4615 16 -1
4615 3019 -1
4615 4615 4
4616 81 -1
4616 1529 -1
4616 4616 2
4617 741 -1
4617 3492 -1
4617 4617 2
4618 62 -1
4618 2960 -1
4618 4618 2
4619 1839 -1
4619 2802 -1
4619 4619 2
4620 204 -1
4620 4060 -1
4620 4620 2
4621 117 -1
4621 3639 -1
4621 4621 2
4622 49 -1
4622 690 -1
4622 4622 2
4623 3585 -1
4623 3838 -1
4623 4623 2
4624 651 -1
4624 3915 -1
4624 4624 2
4625 5 -1
4625 1269 -1
4625 2463 -1
4625 4625 3
4626 1049 -1
4626 2463 -1
4626 4626 2
4627 1214 -1
4627 2039 -1
4627 4627 2
4628 2423 -1
4628 3506 -1
4628 4628 2
4629 393 -1
4629 4516 -1
4629 4629 2
4630 334 -1
4630 629 -1
4630 4347 -1
4630 4630 3
4631 884 -1
4631 4208 -1
4631 4631 2
4632 333 -1
4632 3483 -1
4632 4632 3
4633 116 -1
4633 1270 -1
4633 4633 2
4634 132 -1
4634 2078 -1
4634 4634 2
4635 2090 -1
4635 2914 -1
4635 4635 2
4636 34 -1
4636 672 -1
4636 4636 2
4637 6 -1
4637 143 -1
4637 4637 3
4638 1473 -1
4638 3794 -1
4638 4638 2
4639 1495 -1
4639 2554 -1
4639 4639 2
4640 334 -1
4640 373 -1
4640 4640 2
4641 568 -1
4641 3412 -1
4641 4641 2
4642 359 -1
4642 2574 -1
4642 4642 2
4643 1312 -1
4643 3688 -1
4643 4643 2
4644 2 -1
4644 5 -1
4644 4644 2
4645 1012 -1
4645 1058 -1
4645 2814 -1
4645 4645 3
4646 16 -1
4646 643 -1
4646 4646 2
4647 34 -1
4647 3556 -1
4647 4647 2
4648 149 -1
4648 2458 -1
4648 4380 -1
4648 4648 3
4649 50 -1
4649 444 -1
4649 4649 2
4650 111 -1
4650 287 -1
4650 958 -1
4650 4650 3
4651 1409 -1
4651 3911 -1
4651 4651 2
4652 3321 -1
4652 3772 -1
4652 4652 3
4653 678 -1
4653 2483 -1
4653 4653 2
4654 17 -1
4654 3238 -1
4654 4654 2
4655 21 -1
4655 720 -1
4655 1316 -1
4655 4655 3
4656 1027 -1
4656 1109 -1
4656 4656 2
4657 116 -1
4657 924 -1
4657 4657 3
4658 66 -1
4658 919 -1
4658 4658 2
4659 222 -1
4659 1544 -1
4659 3621 -1
4659 4659 3
4660 165 -1
4660 845 -1
4660 4660 2
4661 860 -1
4661 1983 -1
4661 4661 2
4662 2459 -1
4662 3572 -1
4662 4662 3
4663 335 -1
4663 1566 -1
4663 4663 2
4664 679 -1
4664 1558 -1
4664 3828 -1
4664 4664 3
4665 1216 -1
4665 3885 -1
4665 4665 2
4666 73 -1
4666 181 -1
4666 4666 2
4667 249 -1
4667 379 -1
4667 1363 -1
4667 4667 4
4668 1251 -1
4668 3650 -1
4668 4668 2
4669 258 -1
4669 3976 -1
4669 4669 2
4670 28 -1
4670 163 -1
4670 4670 2
4671 240 -1
4671 1990 -1
4671 4671 3
4672 5 -1
4672 4667 -1
4672 4672 2
4673 35 -1
4673 113 -1
4673 4673 2
4674 67 -1
4674 2737 -1
4674 4674 2
4675 60 -1
4675 1019 -1
4675 4675 2
4676 145 -1
4676 4063 -1
4676 4676 2
4677 2033 -1
4677 4543 -1
4677 4677 2
4678 174 -1
4678 871 -1
4678 3996 -1
4678 4678 3
4679 306 -1
4679 497 -1
4679 4679 2
4680 2960 -1
4680 3999 -1
4680 4680 2
4681 150 -1
4681 216 -1
4681 1902 -1
4681 4681 3
4682 158 -1
4682 4330 -1
4682 4682 2
4683 1968 -1
4683 2564 -1
4683 4683 3
4684 167 -1
4684 659 -1
4684 4684 2
4685 246 -1
4685 1066 -1
4685 4685 2
4686 960 -1
4686 3880 -1
4686 4686 3
4687 482 -1
4687 2843 -1
4687 4687 2
4688 3576 -1
4688 3675 -1
4688 4688 3
4689 20 -1
4689 1324 -1
4689 4689 2
4690 406 -1
4690 1577 -1
4690 4690 2
4691 93 -1
4691 2819 -1
4691 4691 3
4692 1007 -1
4692 2642 -1
4692 4692 2
4693 1802 -1
4693 4161 -1
4693 4693 2
4694 1816 -1
4694 3840 -1
4694 4694 2
4695 182 -1
4695 412 -1
4695 4695 2
4696 3200 -1
4696 3417 -1
4696 4696 2
4697 542 -1
4697 824 -1
4697 4697 3
4698 115 -1
4698 861 -1
4698 950 -1
4698 4698 4
4699 614 -1
4699 2316 -1
4699 4699 2
4700 1060 -1
4700 3958 -1
4700 4700 2
4701 715 -1
4701 1422 -1
4701 4701 2
4702 1283 -1
4702 4034 -1
4702 4702 2
4703 829 -1
4703 3410 -1
4703 4703 2
4704 2490 -1
4704 4047 -1
4704 4704 2
4705 1718 -1
4705 1925 -1
4705 4705 2
4706 127 -1
4706 4564 -1
4706 4706 2
4707 151 -1
4707 551 -1
4707 4707 2
4708 2139 -1
4708 2927 -1
4708 4708 2
4709 31 -1
4709 102 -1
4709 4709 3
4710 264 -1
4710 2458 -1
4710 4710 2
4711 524 -1
4711 2769 -1
4711 4711 2
4712 936 -1
4712 3530 -1
4712 4712 2
4713 161 -1
4713 991 -1
4713 4713 2
4714 1838 -1
4714 3106 -1
4714 4606 -1
4714 4714 3
4715 1264 -1
4715 1721 -1
4715 4715 2
4716 1166 -1
4716 2790 -1
4716 4716 2
4717 17 -1
4717 522 -1
4717 4717 2
4718 23 -1
4718 1528 -1
4718 4718 2
4719 463 -1
4719 1535 -1
4719 4719 2
4720 36 -1
4720 3589 -1
4720 4720 2
4721 911 -1
4721 3747 -1
4721 4721 2
4722 30 -1
4722 333 -1
4722 837 -1
4722 4722 3
4723 346 -1
4723 4610 -1
4723 4723 2
4724 866 -1
4724 4158 -1
4724 4724 2
4725 83 -1
4725 1099 -1
4725 4725 2
4726 1685 -1
4726 2965 -1
4726 4726 2
4727 14 -1
4727 1297 -1
4727 4727 2
4728 540 -1
4728 3619 -1
4728 4728 3
4729 800 -1
4729 1778 -1
4729 4085 -1
4729 4729 3
4730 1266 -1
4730 2074 -1
4730 2982 -1
4730 4730 3
4731 33 -1
4731 543 -1
4731 1131 -1
4731 4731 3
4732 23 -1
4732 1656 -1
4732 4732 2
4733 157 -1
4733 3408 -1
4733 3429 -1
4733 4733 4
4734 56 -1
4734 2012 -1
4734 4734 2
4735 2 -1
4735 220 -1
4735 4735 2
4736 17 -1
4736 3467 -1
4736 4736 2
4737 9 -1
4737 1405 -1
4737 4737 2
4738 2 -1
4738 3053 -1
4738 4738 2
4739 1125 -1
4739 2536 -1
4739 2549 -1
4739 3126 -1
4739 3402 -1
4739 4739 5
4740 1244 -1
4740 2013 -1
4740 4740 2
4741 3457 -1
4741 4341 -1
4741 4741 2
4742 115 -1
4742 550 -1
4742 4742 2
4743 3389 -1
4743 3515 -1
4743 4743 2
4744 2073 -1
4744 2400 -1
4744 4744 2
4745 2492 -1
4745 2966 -1
4745 4745 3
4746 246 -1
4746 3628 -1
4746 4746 2
4747 5 -1
4747 1195 -1
4747 4747 2
4748 18 -1
4748 83 -1
4748 1764 -1
4748 4748 3
4749 697 -1
4749 1670 -1
4749 4749 2
4750 780 -1
4750 2581 -1
4750 2900 -1
4750 4750 4
4751 2 -1
4751 1596 -1
4751 3558 -1
4751 4751 3
4752 506 -1
4752 3224 -1
4752 4752 2
4753 306 -1
4753 1239 -1
4753 4753 3
4754 476 -1
4754 4709 -1
4754 4754 2
4755 2425 -1
4755 2883 -1
4755 4755 2
4756 67 -1
4756 3437 -1
4756 4756 2
4757 907 -1
4757 1065 -1
4757 4757 2
4758 51 -1
4758 2572 -1
4758 3267 -1
4758 4758 3
4759 67 -1
4759 2294 -1
4759 4759 2
4760 1145 -1
4760 4326 -1
4760 4760 2
4761 1834 -1
4761 1860 -1
4761 1943 -1
4761 4761 3
4762 21 -1
4762 4462 -1
4762 4762 2
4763 179 -1
4763 2845 -1
4763 4763 2
4764 50 -1
4764 3316 -1
4764 4764 2
4765 518 -1
4765 834 -1
4765 4765 2
4766 305 -1
4766 4405 -1
4766 4766 2
4767 2497 -1
4767 3150 -1
4767 3197 -1
4767 3727 -1
4767 4767 4
4768 521 -1
4768 3188 -1
4768 4266 -1
4768 4768 3
4769 1318 -1
4769 2328 -1
4769 4769 2
4770 381 -1
4770 1753 -1
4770 4770 2
4771 2361 -1
4771 4194 -1
4771 4771 2
4772 2560 -1
4772 4273 -1
4772 4772 2
4773 1019 -1
4773 1313 -1
4773 4773 3
4774 194 -1
4774 206 -1
4774 4774 2
4775 443 -1
4775 1210 -1
4775 4775 2
4776 174 -1
4776 2492 -1
4776 4776 2
4777 65 -1
4777 86 -1
4777 4777 2
4778 113 -1
4778 907 -1
4778 4778 2
4779 2040 -1
4779 2130 -1
4779 4779 2
4780 1551 -1
4780 2906 -1
4780 4780 2
4781 252 -1
4781 313 -1
4781 4781 2
4782 1024 -1
4782 1617 -1
4782 4782 2
4783 1007 -1
4783 2443 -1
4783 4783 2
4784 45 -1
4784 1105 -1
4784 4784 2
4785 1609 -1
4785 2779 -1
4785 3437 -1
4785 4785 3
4786 672 -1
4786 3197 -1
4786 4786 4
4787 1918 -1
4787 4371 -1
4787 4662 -1
4787 4787 4
4788 1538 -1
4788 2872 -1
4788 4788 2
4789 412 -1
4789 2333 -1
4789 4424 -1
4789 4789 4
4790 1149 -1
4790 3096 -1
4790 4790 2
4791 338 -1
4791 2031 -1
4791 4791 2
4792 519 -1
4792 2688 -1
4792 4792 2
4793 2849 -1
4793 4233 -1
4793 4773 -1
4793 4793 3
4794 884 -1
4794 2962 -1
4794 4794 2
4795 805 -1
4795 3724 -1
4795 4795 2
4796 458 -1
4796 1203 -1
4796 4796 3
4797 16 -1
4797 3378 -1
4797 4797 2
4798 28 -1
4798 758 -1
4798 4798 2
4799 141 -1
4799 3483 -1
4799 4799 2
4800 1745 -1
4800 1762 -1
4800 4800 3
4801 642 -1
4801 3657 -1
4801 4801 2
4802 906 -1
4802 1799 -1
4802 4802 3
4803 171 -1
4803 2445 -1
4803 4803 4
4804 2377 -1
4804 2706 -1
4804 4804 3
4805 1953 -1
4805 4789 -1
4805 4805 2
4806 2899 -1
4806 3236 -1
4806 3471 -1
4806 4806 3
4807 153 -1
4807 2503 -1
4807 4807 2
4808 826 -1
4808 1167 -1
4808 4808 2
4809 1 -1
4809 3018 -1
4809 4809 2
4810 582 -1
4810 3326 -1
4810 4810 2
4811 1062 -1
4811 3752 -1
4811 4811 3
4812 4193 -1
4812 4337 -1
4812 4812 2
4813 83 -1
4813 1744 -1
4813 4813 2
4814 3733 -1
4814 3880 -1
4814 4814 2
4815 149 -1
4815 1287 -1
4815 4815 2
4816 515 -1
4816 3028 -1
4816 4582 -1
4816 4816 3
4817 100 -1
4817 975 -1
4817 4817 2
4818 839 -1
4818 906 -1
4818 929 -1
4818 4818 3
4819 3030 -1
4819 4686 -1
4819 4819 2
4820 332 -1
4820 2152 -1
4820 4820 2
4821 1258 -1
4821 4285 -1
4821 4821 2
4822 967 -1
4822 1081 -1
4822 4822 2
4823 2500 -1
4823 3070 -1
4823 4823 2
4824 470 -1
4824 1356 -1
4824 4824 2
4825 12 -1
4825 3983 -1
4825 4825 2
4826 5 -1
4826 1045 -1
4826 4826 2
4827 115 -1
4827 401 -1
4827 4827 2
4828 1726 -1
4828 2502 -1
4828 4828 2
4829 11 -1
4829 1502 -1
4829 4829 2
4830 1 -1
4830 1712 -1
4830 2838 -1
4830 4830 3
4831 152 -1
4831 202 -1
4831 334 -1
4831 4831 3
4832 102 -1
4832 2305 -1
4832 4832 2
4833 275 -1
4833 3423 -1
4833 4833 2
4834 3944 -1
4834 4697 -1
4834 4834 2
4835 66 -1
4835 4637 -1
4835 4835 2
4836 799 -1
4836 3708 -1
4836 4836 2
4837 330 -1
4837 3093 -1
4837 4837 2
4838 1090 -1
4838 1137 -1
4838 4838 2
4839 601 -1
4839 3778 -1
4839 4839 2
4840 3681 -1
4840 3688 -1
4840 4840 2
4841 240 -1
4841 2457 -1
4841 4841 2
4842 734 -1
4842 3358 -1
4842 4842 2
4843 22 -1
4843 29 -1
4843 1334 -1
4843 4843 3
4844 410 -1
4844 1027 -1
4844 4844 2
4845 5 -1
4845 4434 -1
4845 4845 2
4846 21 -1
4846 3632 -1
4846 4846 2
4847 26 -1
4847 1359 -1
4847 4847 2
4848 81 -1
4848 4688 -1
4848 4848 2
4849 467 -1
4849 722 -1
4849 4849 2
4850 1 -1
4850 2331 -1
4850 4395 -1
4850 4850 3
4851 700 -1
4851 1008 -1
4851 4851 2
4852 4441 -1
4852 4728 -1
4852 4852 2
4853 67 -1
4853 1965 -1
4853 2498 -1
4853 4853 3
4854 1554 -1
4854 2507 -1
4854 4854 2
4855 155 -1
4855 4120 -1
4855 4855 2
4856 51 -1
4856 4359 -1
4856 4856 2
4857 23 -1
4857 520 -1
4857 4857 2
4858 991 -1
4858 1688 -1
4858 4858 2
4859 2 -1
4859 4750 -1
4859 4859 3
4860 536 -1
4860 2189 -1
4860 4860 2
4861 2627 -1
4861 4373 -1
4861 4861 2
4862 401 -1
4862 3294 -1
4862 4862 2
4863 311 -1
4863 371 -1
4863 4863 2
4864 193 -1
4864 1675 -1
4864 2787 -1
4864 4864 3
4865 1481 -1
4865 2189 -1
4865 4262 -1
4865 4865 3
4866 2 -1
4866 2465 -1
4866 4866 2
4867 2602 -1
4867 4327 -1
4867 4867 2
4868 50 -1
4868 2109 -1
4868 4868 2
4869 206 -1
4869 748 -1
4869 2757 -1
4869 4869 3
4870 133 -1
4870 816 -1
4870 4870 2
4871 1380 -1
4871 2340 -1
4871 4871 2
4872 113 -1
4872 1182 -1
4872 4872 2
4873 594 -1
4873 2096 -1
4873 4873 2
4874 917 -1
4874 1996 -1
4874 2112 -1
4874 4874 3
4875 82 -1
4875 538 -1
4875 4875 2
4876 485 -1
4876 2667 -1
4876 4876 2
4877 225 -1
4877 1489 -1
4877 4877 2
4878 362 -1
4878 1776 -1
4878 4878 3
4879 811 -1
4879 1316 -1
4879 4879 2
4880 1 -1
4880 2624 -1
4880 4880 2
4881 853 -1
4881 2658 -1
4881 3384 -1
4881 4881 3
4882 857 -1
4882 2115 -1
4882 4882 2
4883 427 -1
4883 993 -1
4883 4883 2
4884 102 -1
4884 1965 -1
4884 4884 2
4885 141 -1
4885 4803 -1
4885 4885 3
4886 1494 -1
4886 4169 -1
4886 4886 2
4887 612 -1
4887 2746 -1
4887 4887 2
4888 558 -1
4888 945 -1
4888 4888 2
4889 499 -1
4889 2610 -1
4889 4889 2
4890 501 -1
4890 773 -1
4890 3810 -1
4890 4890 3
4891 189 -1
4891 3337 -1
4891 4891 2
4892 239 -1
4892 470 -1
4892 4892 2
4893 1589 -1
4893 1917 -1
4893 4893 2
4894 155 -1
4894 2207 -1
4894 4894 2
4895 4541 -1
4895 4804 -1
4895 4895 2
4896 834 -1
4896 2020 -1
4896 4896 2
4897 339 -1
4897 1031 -1
4897 4897 2
4898 66 -1
4898 655 -1
4898 4898 2
4899 53 -1
4899 2135 -1
4899 4899 2
4900 197 -1
4900 4102 -1
4900 4900 3
4901 95 -1
4901 1607 -1
4901 1669 -1
4901 4901 3
4902 318 -1
4902 1681 -1
4902 4902 2
4903 535 -1
4903 1380 -1
4903 4903 2
4904 162 -1
4904 3144 -1
4904 4904 2
4905 3703 -1
4905 4550 -1
4905 4905 2
4906 1 -1
4906 335 -1
4906 1800 -1
4906 4906 3
4907 132 -1
4907 2372 -1
4907 4907 2
4908 5 -1
4908 83 -1
4908 4908 2
4909 495 -1
4909 637 -1
4909 4909 2
4910 2241 -1
4910 4900 -1
4910 4910 2
4911 1023 -1
4911 2237 -1
4911 4911 2
4912 1206 -1
4912 1745 -1
4912 2881 -1
4912 4912 3
4913 4183 -1
4913 4796 -1
4913 4913 2
4914 375 -1
4914 2307 -1
4914 4914 4
4915 525 -1
4915 3004 -1
4915 4915 2
4916 575 -1
4916 4615 -1
4916 4916 2
4917 737 -1
4917 2465 -1
4917 4917 3
4918 23 -1
4918 119 -1
4918 4918 2
4919 725 -1
4919 4561 -1
4919 4919 2
4920 157 -1
4920 3541 -1
4920 4920 2
4921 406 -1
4921 2482 -1
4921 3626 -1
4921 4921 3
4922 2610 -1
4922 2809 -1
4922 4922 2
4923 850 -1
4923 2718 -1
4923 3711 -1
4923 4923 3
4924 1401 -1
4924 2017 -1
4924 2239 -1
4924 4924 3
4925 2637 -1
4925 2801 -1
4925 4925 2
4926 632 -1
4926 3769 -1
4926 4926 2
4927 2307 -1
4927 2693 -1
4927 4927 2
4928 66 -1
4928 1062 -1
4928 4928 3
4929 19 -1
4929 3906 -1
4929 4929 2
4930 5 -1
4930 13 -1
4930 4930 2
4931 1424 -1
4931 3387 -1
4931 4931 2
4932 1050 -1
4932 4008 -1
4932 4932 2
4933 629 -1
4933 3220 -1
4933 4933 2
4934 601 -1
4934 667 -1
4934 4934 2
4935 155 -1
4935 256 -1
4935 4415 -1
4935 4935 3
4936 17 -1
4936 3649 -1
4936 4936 2
4937 1091 -1
4937 2894 -1
4937 4937 2
4938 640 -1
4938 4928 -1
4938 4938 2
4939 912 -1
4939 1454 -1
4939 4939 2
4940 1 -1
4940 653 -1
4940 4940 2
4941 4 -1
4941 3037 -1
4941 4941 2
4942 1583 -1
4942 2029 -1
4942 3644 -1
4942 4942 5
4943 79 -1
4943 1817 -1
4943 4943 2
4944 28 -1
4944 1066 -1
4944 4944 2
4945 509 -1
4945 538 -1
4945 1571 -1
4945 4945 4
4946 113 -1
4946 2486 -1
4946 4946 2
4947 162 -1
4947 1814 -1
4947 4947 2
4948 8 -1
4948 1014 -1
4948 2633 -1
4948 2976 -1
4948 4948 4
4949 7 -1
4949 2302 -1
4949 4949 2
4950 150 -1
4950 1715 -1
4950 4950 2
4951 7 -1
4951 947 -1
4951 1389 -1
4951 4951 3
4952 911 -1
4952 1521 -1
4952 3247 -1
4952 4952 3
4953 57 -1
4953 3885 -1
4953 4953 2
4954 4049 -1
4954 4101 -1
4954 4954 2
4955 1399 -1
4955 2361 -1
4955 4955 2
4956 143 -1
4956 612 -1
4956 4956 2
4957 4632 -1
4957 4942 -1
4957 4957 2
4958 240 -1
4958 1440 -1
4958 4958 2
4959 1053 -1
4959 1258 -1
4959 4959 2
4960 535 -1
4960 1046 -1
4960 4960 2
4961 2129 -1
4961 4671 -1
4961 4961 2
4962 240 -1
4962 1214 -1
4962 4962 2
4963 16 -1
4963 1574 -1
4963 4963 2
4964 7 -1
4964 4368 -1
4964 4964 2
4965 40 -1
4965 2074 -1
4965 4965 2
4966 1 -1
4966 3721 -1
4966 4966 2
4967 427 -1
4967 3501 -1
4967 4967 2
4968 647 -1
4968 2368 -1
4968 4968 2
4969 450 -1
4969 2247 -1
4969 4969 2
4970 142 -1
4970 4248 -1
4970 4970 2
4971 2132 -1
4971 4062 -1
4971 4971 2
4972 121 -1
4972 980 -1
4972 4972 2
4973 2 -1
4973 23 -1
4973 4437 -1
4973 4973 3
4974 387 -1
4974 2279 -1
4974 4974 2
4975 714 -1
4975 4364 -1
4975 4975 2
4976 2563 -1
4976 2593 -1
4976 4976 2
4977 28 -1
4977 2844 -1
4977 4977 2
4978 641 -1
4978 2744 -1
4978 4978 2
4979 570 -1
4979 2843 -1
4979 4979 2
4980 30 -1
4980 210 -1
4980 4980 2
4981 612 -1
4981 3474 -1
4981 4981 2
4982 1615 -1
4982 2050 -1
4982 4982 2
4983 1214 -1
4983 2362 -1
4983 4983 2
4984 97 -1
4984 517 -1
4984 4984 2
4985 206 -1
4985 365 -1
4985 4985 2
4986 3541 -1
4986 3934 -1
4986 4986 2
4987 23 -1
4987 199 -1
4987 4987 2
4988 1734 -1
4988 2741 -1
4988 4988 2
4989 147 -1
4989 2027 -1
4989 4989 2
4990 1955 -1
4990 3882 -1
4990 4990 2
4991 448 -1
4991 2794 -1
4991 4991 2
4992 338 -1
4992 2735 -1
4992 4992 2
4993 164 -1
4993 1191 -1
4993 4993 2
4994 48 -1
4994 919 -1
4994 4917 -1
4994 4994 3
4995 786 -1
4995 3596 -1
4995 4995 2
4996 1025 -1
4996 4745 -1
4996 4996 2
4997 227 -1
4997 703 -1
4997 4997 2
4998 2 -1
4998 3011 -1
4998 3094 -1
4998 4998 3
4999 133 -1
4999 535 -1
4999 4999 2
5000 510 -1
5000 1047 -1
5000 5000 2
5001 451 -1
5001 1257 -1
5001 5001 2
5002 2472 -1
5002 3540 -1
5002 5002 2
5003 541 -1
5003 642 -1
5003 5003 2
5004 319 -1
5004 775 -1
5004 5004 2
5005 430 -1
5005 695 -1
5005 2418 -1
5005 5005 3
5006 3127 -1
5006 3293 -1
5006 5006 3
5007 338 -1
5007 3370 -1
5007 5007 2
5008 1912 -1
5008 4914 -1
5008 5008 2
5009 89 -1
5009 2363 -1
5009 5009 2
5010 393 -1
5010 3805 -1
5010 5010 2
5011 832 -1
5011 1265 -1
5011 5011 2
5012 5 -1
5012 215 -1
5012 4885 -1
5012 5012 3
5013 2273 -1
5013 3722 -1
5013 5013 2
5014 906 -1
5014 2691 -1
5014 4451 -1
5014 5014 3
5015 887 -1
5015 1579 -1
5015 5015 2
5016 60 -1
5016 103 -1
5016 5016 2
5017 102 -1
5017 4878 -1
5017 5017 2
5018 1394 -1
5018 4859 -1
5018 5018 2
5019 521 -1
5019 4698 -1
5019 5019 2
5020 152 -1
5020 4171 -1
5020 4604 -1
5020 5020 3
5021 371 -1
5021 3451 -1
5021 5021 2
5022 1421 -1
5022 3946 -1
5022 5022 2
5023 254 -1
5023 1994 -1
5023 5006 -1
5023 5023 3
5024 76 -1
5024 1130 -1
5024 5024 2
5025 498 -1
5025 1048 -1
5025 5025 2
5026 97 -1
5026 2031 -1
5026 5026 2
5027 40 -1
5027 4206 -1
5027 4691 -1
5027 5027 3
5028 83 -1
5028 573 -1
5028 2933 -1
5028 5028 3
5029 45 -1
5029 1257 -1
5029 5029 2
5030 1195 -1
5030 1210 -1
5030 5030 2
5031 2531 -1
5031 3688 -1
5031 5031 2
5032 1 -1
5032 509 -1
5032 5032 2
5033 624 -1
5033 2199 -1
5033 5033 2
5034 17 -1
5034 4243 -1
5034 5034 2
5035 153 -1
5035 1187 -1
5035 2406 -1
5035 5035 3
5036 472 -1
5036 1101 -1
5036 1947 -1
5036 5036 3
5037 1 -1
5037 3186 -1
5037 5037 2
5038 254 -1
5038 3460 -1
5038 5038 2
5039 1603 -1
5039 2819 -1
5039 5039 2
5040 48 -1
5040 1651 -1
5040 5040 2
5041 423 -1
5041 2800 -1
5041 5041 2
5042 900 -1
5042 3201 -1
5042 3444 -1
5042 5042 3
5043 3831 -1
5043 4615 -1
5043 5043 2
5044 1350 -1
5044 2715 -1
5044 4341 -1
5044 5044 3
5045 334 -1
5045 2752 -1
5045 5045 2
5046 2457 -1
5046 3432 -1
5046 5046 2
5047 495 -1
5047 1185 -1
5047 5047 2
5048 861 -1
5048 3724 -1
5048 5048 2
5049 348 -1
5049 4065 -1
5049 5049 3
5050 11 -1
5050 352 -1
5050 5050 2
5051 5 -1
5051 233 -1
5051 5051 2
5052 1123 -1
5052 3824 -1
5052 5052 2
5053 125 -1
5053 782 -1
5053 5053 2
5054 63 -1
5054 2718 -1
5054 5054 2
5055 597 -1
5055 1684 -1
5055 5055 2
5056 1 -1
5056 3 -1
5056 5056 2
5057 75 -1
5057 956 -1
5057 5057 2
5058 393 -1
5058 2934 -1
5058 5058 2
5059 248 -1
5059 339 -1
5059 5059 2
5060 946 -1
5060 1169 -1
5060 5060 2
5061 645 -1
5061 3610 -1
5061 4103 -1
5061 5061 3
5062 1595 -1
5062 4800 -1
5062 5062 2
5063 362 -1
5063 2648 -1
5063 5063 2
5064 12 -1
5064 1225 -1
5064 1835 -1
5064 5064 3
5065 1160 -1
5065 1623 -1
5065 5065 2
5066 1429 -1
5066 1796 -1
5066 5066 2
5067 56 -1
5067 1430 -1
5067 5067 2
5068 2044 -1
5068 2786 -1
5068 4545 -1
5068 5068 3
5069 988 -1
5069 1465 -1
5069 2017 -1
5069 5069 3
5070 173 -1
5070 1608 -1
5070 5070 2
5071 1341 -1
5071 2147 -1
5071 5071 2
5072 174 -1
5072 831 -1
5072 5072 2
5073 656 -1
5073 1094 -1
5073 5073 2
5074 195 -1
5074 297 -1
5074 5074 2
5075 8 -1
5075 876 -1
5075 5075 2
5076 18 -1
5076 198 -1
5076 5076 2
5077 1163 -1
5077 2062 -1
5077 5077 2
5078 1406 -1
5078 4319 -1
5078 5078 2
5079 538 -1
5079 1123 -1
5079 5079 2
5080 973 -1
5080 986 -1
5080 4395 -1
5080 5080 3
5081 189 -1
5081 1556 -1
5081 5081 2
5082 463 -1
5082 4365 -1
5082 5082 2
5083 2618 -1
5083 3068 -1
5083 5083 2
5084 2607 -1
5084 4112 -1
5084 4914 -1
5084 5084 3
5085 976 -1
5085 3521 -1
5085 5085 2
5086 197 -1
5086 5049 -1
5086 5086 2
5087 1 -1
5087 3880 -1
5087 5087 2
5088 2412 -1
5088 4389 -1
5088 5088 2
5089 22 -1
5089 141 -1
5089 5089 2
5090 152 -1
5090 2027 -1
5090 4802 -1
5090 5090 3
5091 918 -1
5091 929 -1
5091 1038 -1
5091 5091 3
5092 3804 -1
5092 4166 -1
5092 4787 -1
5092 5092 3
5093 845 -1
5093 4008 -1
5093 5093 2
5094 669 -1
5094 3858 -1
5094 5094 2
5095 39 -1
5095 1651 -1
5095 5095 2
5096 1374 -1
5096 4169 -1
5096 5096 2
5097 2246 -1
5097 2339 -1
5097 5097 2
5098 903 -1
5098 3068 -1
5098 5098 2
5099 823 -1
5099 4253 -1
5099 5099 2
5100 141 -1
5100 335 -1
5100 5100 2
5101 3065 -1
5101 3522 -1
5101 4307 -1
5101 5101 3
5102 482 -1
5102 1261 -1
5102 5102 2
5103 517 -1
5103 665 -1
5103 5103 2
5104 50 -1
5104 3287 -1
5104 5104 2
5105 302 -1
5105 4786 -1
5105 5105 2
5106 115 -1
5106 1482 -1
5106 5106 2
5107 11 -1
5107 1665 -1
5107 5107 2
5108 766 -1
5108 817 -1
5108 5108 2
5109 1793 -1
5109 2509 -1
5109 5109 2
5110 18 -1
5110 3484 -1
5110 5110 2
5111 1290 -1
5111 4683 -1
5111 5111 2
5112 105 -1
5112 3067 -1
5112 5112 2
5113 410 -1
5113 661 -1
5113 5113 2
5114 142 -1
5114 528 -1
5114 5114 2
5115 497 -1
5115 2214 -1
5115 5115 2
5116 2 -1
5116 16 -1
5116 5116 2
5117 1888 -1
5117 3856 -1
5117 4786 -1
5117 5117 3
5118 77 -1
5118 218 -1
5118 5118 2
5119 453 -1
5119 760 -1
5119 1038 -1
5119 5119 3
5120 2758 -1
5120 3493 -1
5120 5120 2
5121 475 -1
5121 3698 -1
5121 5121 2
5122 58 -1
5122 1314 -1
5122 4803 -1
5122 5122 3
5123 3013 -1
5123 4078 -1
5123 5123 2
5124 2 -1
5124 2239 -1
5124 5124 2
5125 35 -1
5125 1888 -1
5125 5125 2
5126 8 -1
5126 163 -1
5126 5126 2
5127 378 -1
5127 2178 -1
5127 5127 2
5128 624 -1
5128 2944 -1
5128 5128 2
5129 138 -1
5129 2415 -1
5129 5129 2
5130 1788 -1
5130 4203 -1
5130 5130 2
5131 627 -1
5131 931 -1
5131 2402 -1
5131 5131 3
5132 8 -1
5132 1868 -1
5132 5132 2
5133 28 -1
5133 715 -1
5133 5133 2
5134 8 -1
5134 542 -1
5134 1627 -1
5134 5134 3
5135 276 -1
5135 316 -1
5135 1331 -1
5135 5135 3
5136 87 -1
5136 1643 -1
5136 5136 2
5137 1613 -1
5137 2362 -1
5137 4033 -1
5137 5137 3
5138 611 -1
5138 2482 -1
5138 5138 2
5139 27 -1
5139 1564 -1
5139 5139 2
5140 80 -1
5140 1389 -1
5140 5140 2
5141 820 -1
5141 919 -1
5141 5141 2
5142 72 -1
5142 922 -1
5142 5142 2
5143 2311 -1
5143 2842 -1
5143 5143 2
5144 284 -1
5144 3326 -1
5144 5144 2
5145 5 -1
5145 4753 -1
5145 5145 2
5146 3869 -1
5146 4202 -1
5146 5146 2
5147 1053 -1
5147 1225 -1
5147 5147 2
5148 1736 -1
5148 1861 -1
5148 5148 2
5149 662 -1
5149 3889 -1
5149 5149 2
5150 1917 -1
5150 4228 -1
5150 5150 2
5151 2147 -1
5151 4811 -1
5151 5151 2
5152 1216 -1
5152 3782 -1
5152 3842 -1
5152 5152 3
5153 149 -1
5153 2793 -1
5153 5153 2
5154 1541 -1
5154 2567 -1
5154 5154 2
5155 3424 -1
5155 3515 -1
5155 3636 -1
5155 5155 3
5156 1719 -1
5156 3596 -1
5156 5156 2
5157 1711 -1
5157 4577 -1
5157 5157 2
5158 249 -1
5158 3072 -1
5158 5158 2
5159 908 -1
5159 4733 -1
5159 5159 2
5160 1 -1
5160 11 -1
5160 5160 2
5161 38 -1
5161 2006 -1
5161 5161 2
5162 343 -1
5162 2786 -1
5162 5162 3
5163 49 -1
5163 3436 -1
5163 5163 2
5164 427 -1
5164 458 -1
5164 5164 2
5165 772 -1
5165 2457 -1
5165 5165 2
5166 2 -1
5166 3752 -1
5166 5166 2
5167 5 -1
5167 4652 -1
5167 5167 2
5168 266 -1
5168 1142 -1
5168 5168 2
5169 30 -1
5169 290 -1
5169 5169 2
5170 4657 -1
5170 5162 -1
5170 5170 2
5171 1615 -1
5171 4942 -1
5171 5171 2
5172 820 -1
5172 2490 -1
5172 5172 2
5173 1675 -1
5173 3126 -1
5173 5173 2
5174 524 -1
5174 2555 -1
5174 5174 2
5175 3168 -1
5175 4381 -1
5175 5175 2
5176 623 -1
5176 1545 -1
5176 5176 2
5177 892 -1
5177 2696 -1
5177 5177 2
5178 1251 -1
5178 3701 -1
5178 5178 2
5179 766 -1
5179 2498 -1
5179 5179 2
5180 857 -1
5180 1007 -1
5180 5180 2
5181 265 -1
5181 1163 -1
5181 5181 2
5182 4005 -1
5182 4945 -1
5182 5182 2
5183 17 -1
5183 222 -1
5183 5183 2
5184 422 -1
5184 1083 -1
5184 5184 2
5185 50 -1
5185 1718 -1
5185 5185 2
5186 369 -1
5186 1689 -1
5186 5186 2
5187 2387 -1
5187 4298 -1
5187 5187 2
5188 175 -1
5188 3727 -1
5188 5188 2
5189 473 -1
5189 3022 -1
5189 5189 2
5190 80 -1
5190 3283 -1
5190 4250 -1
5190 5190 3
5191 1410 -1
5191 2679 -1
5191 5191 2
5192 3206 -1
5192 3368 -1
5192 5192 2
5193 14 -1
5193 106 -1
5193 5193 2
5194 1060 -1
5194 4397 -1
5194 5194 2
5195 3430 -1
5195 3920 -1
5195 5195 2
5196 158 -1
5196 3189 -1
5196 5196 2
