%%MatrixMarket matrix coordinate real symmetric
%
5196 5196 22594
1 1 2.021323033851868e+02
2 1 -1.000000000000000e+00
2 2 1.710493214443303e+02
3 1 -1.000000000000000e+00
3 3 3.102899511113375e+01
4 1 -1.000000000000000e+00
4 2 -1.000000000000000e+00
4 4 2.312156647672031e+01
5 2 -1.000000000000000e+00
5 3 -1.000000000000000e+00
5 5 1.470991142511313e+02
6 1 -1.000000000000000e+00
6 5 -1.000000000000000e+00
6 6 4.305355030906287e+01
7 2 -1.000000000000000e+00
7 5 -1.000000000000000e+00
7 7 1.050810642644405e+02
8 1 -1.000000000000000e+00
8 2 -1.000000000000000e+00
8 8 1.804995010434889e+01
9 2 -1.000000000000000e+00
9 4 -1.000000000000000e+00
9 9 2.303404449314479e+01
10 1 -1.000000000000000e+00
10 7 -1.000000000000000e+00
10 10 3.302743594671301e+01
11 1 -1.000000000000000e+00
11 9 -1.000000000000000e+00
11 11 5.202621482712770e+01
12 1 -1.000000000000000e+00
12 6 -1.000000000000000e+00
12 12 4.204814723683751e+01
13 5 -1.000000000000000e+00
13 6 -1.000000000000000e+00
13 13 2.203617768839852e+01
14 1 -1.000000000000000e+00
14 5 -1.000000000000000e+00
14 14 1.904303903814517e+01
15 1 -1.000000000000000e+00
15 9 -1.000000000000000e+00
15 15 1.503095119789179e+01
16 2 -1.000000000000000e+00
16 5 -1.000000000000000e+00
16 16 7.003028340315498e+01
17 3 -1.000000000000000e+00
17 5 -1.000000000000000e+00
17 17 7.210642687503274e+01
18 1 -1.000000000000000e+00
18 2 -1.000000000000000e+00
18 18 3.600664530652159e+01
19 1 -1.000000000000000e+00
19 5 -1.000000000000000e+00
19 19 2.202946987944713e+01
20 1 -1.000000000000000e+00
20 5 -1.000000000000000e+00
20 20 1.401892275303812e+01
21 1 -1.000000000000000e+00
21 9 -1.000000000000000e+00
21 21 2.802047193908282e+01
22 2 -1.000000000000000e+00
22 17 -1.000000000000000e+00
22 22 1.904642040564685e+01
23 1 -1.000000000000000e+00
23 6 -1.000000000000000e+00
23 23 3.601918476694779e+01
24 1 -1.000000000000000e+00
24 5 -1.000000000000000e+00
24 24 7.035347972570623e+00
25 6 -1.000000000000000e+00
25 20 -1.000000000000000e+00
25 25 1.701448755232917e+01
26 1 -1.000000000000000e+00
26 22 -1.000000000000000e+00
26 26 3.406216317498860e+01
27 9 -1.000000000000000e+00
27 14 -1.000000000000000e+00
27 27 5.003412793790879e+01
28 2 -1.000000000000000e+00
28 25 -1.000000000000000e+00
28 28 6.003499386999393e+01
29 1 -1.000000000000000e+00
29 2 -1.000000000000000e+00
29 29 1.908148714641996e+01
30 7 -1.000000000000000e+00
30 27 -1.000000000000000e+00
30 30 2.703716736236737e+01
31 5 -1.000000000000000e+00
31 6 -1.000000000000000e+00
31 31 8.033949297504012e+00
32 7 -1.000000000000000e+00
32 30 -1.000000000000000e+00
32 32 5.104217806196550e+01
33 1 -1.000000000000000e+00
33 11 -1.000000000000000e+00
33 33 2.305457933863034e+01
34 6 -1.000000000000000e+00
34 17 -1.000000000000000e+00
34 34 2.710138949002043e+01
35 6 -1.000000000000000e+00
35 22 -1.000000000000000e+00
35 35 8.037865043405521e+00
36 25 -1.000000000000000e+00
36 26 -1.000000000000000e+00
36 36 4.100682587042287e+01
37 1 -1.000000000000000e+00
37 5 -1.000000000000000e+00
37 37 4.031822966123804e+00
38 7 -1.000000000000000e+00
38 13 -1.000000000000000e+00
38 38 1.503194488431980e+01
39 1 -1.000000000000000e+00
39 18 -1.000000000000000e+00
39 39 1.108491634917379e+01
40 6 -1.000000000000000e+00
40 32 -1.000000000000000e+00
40 40 2.509683795910041e+01
41 5 -1.000000000000000e+00
41 14 -1.000000000000000e+00
41 41 1.808256279914339e+01
42 3 -1.000000000000000e+00
42 38 -1.000000000000000e+00
42 42 1.604361705669154e+01
43 6 -1.000000000000000e+00
43 23 -1.000000000000000e+00
43 43 9.027209889760503e+00
44 2 -1.000000000000000e+00
44 17 -1.000000000000000e+00
44 44 3.503530805005957e+01
45 1 -1.000000000000000e+00
45 28 -1.000000000000000e+00
45 45 1.204323493153705e+01
46 1 -1.000000000000000e+00
46 2 -1.000000000000000e+00
46 46 2.203134208231099e+01
47 16 -1.000000000000000e+00
47 18 -1.000000000000000e+00
47 47 1.503515912552740e+01
48 1 -1.000000000000000e+00
48 16 -1.000000000000000e+00
48 48 1.204107442149006e+01
49 34 -1.000000000000000e+00
49 44 -1.000000000000000e+00
49 49 3.000509899791764e+01
50 2 -1.000000000000000e+00
50 17 -1.000000000000000e+00
50 50 7.505707039510294e+01
51 1 -1.000000000000000e+00
51 7 -1.000000000000000e+00
51 51 3.204952353796657e+01
52 11 -1.000000000000000e+00
52 19 -1.000000000000000e+00
52 52 2.030282721631976e+00
53 18 -1.000000000000000e+00
53 50 -1.000000000000000e+00
53 53 2.106505219645640e+01
54 5 -1.000000000000000e+00
54 38 -1.000000000000000e+00
54 54 6.040725004525469e+00
55 19 -1.000000000000000e+00
55 50 -1.000000000000000e+00
55 55 1.300770924522263e+01
56 7 -1.000000000000000e+00
56 32 -1.000000000000000e+00
56 56 2.103039990145123e+01
57 28 -1.000000000000000e+00
57 32 -1.000000000000000e+00
57 57 2.702594214378795e+01
58 1 -1.000000000000000e+00
58 3 -1.000000000000000e+00
58 58 9.033210107735179e+00
59 11 -1.000000000000000e+00
59 35 -1.000000000000000e+00
59 59 7.015300787651435e+00
60 8 -1.000000000000000e+00
60 34 -1.000000000000000e+00
60 60 8.054289075112385e+00
61 1 -1.000000000000000e+00
61 7 -1.000000000000000e+00
61 61 1.303837972773572e+01
62 1 -1.000000000000000e+00
62 12 -1.000000000000000e+00
62 62 2.501510460548350e+01
63 5 -1.000000000000000e+00
63 6 -1.000000000000000e+00
63 63 3.206199553857984e+01
64 46 -1.000000000000000e+00
64 53 -1.000000000000000e+00
64 64 5.002702037367650e+00
65 5 -1.000000000000000e+00
65 27 -1.000000000000000e+00
65 65 1.404288994491190e+01
66 2 -1.000000000000000e+00
66 27 -1.000000000000000e+00
66 66 3.204419591458554e+01
67 51 -1.000000000000000e+00
67 62 -1.000000000000000e+00
67 67 3.004513066010757e+01
68 2 -1.000000000000000e+00
68 6 -1.000000000000000e+00
68 68 1.804485747424970e+01
69 1 -1.000000000000000e+00
69 17 -1.000000000000000e+00
69 69 2.108143937983171e+01
70 5 -1.000000000000000e+00
70 46 -1.000000000000000e+00
70 70 4.806046732521004e+01
71 40 -1.000000000000000e+00
71 58 -1.000000000000000e+00
71 71 9.014023682028744e+00
72 1 -1.000000000000000e+00
72 36 -1.000000000000000e+00
72 72 9.051341638591236e+00
73 25 -1.000000000000000e+00
73 51 -1.000000000000000e+00
73 73 2.306224739599711e+01
74 16 -1.000000000000000e+00
74 67 -1.000000000000000e+00
74 74 2.016359726379503e+00
75 5 -1.000000000000000e+00
75 67 -1.000000000000000e+00
75 75 1.615039479330771e+01
76 2 -1.000000000000000e+00
76 22 -1.000000000000000e+00
76 76 2.803036093761750e+01
77 23 -1.000000000000000e+00
77 50 -1.000000000000000e+00
77 77 6.014198390704854e+00
78 1 -1.000000000000000e+00
78 70 -1.000000000000000e+00
78 78 2.105719884439897e+01
79 1 -1.000000000000000e+00
79 2 -1.000000000000000e+00
79 79 2.605567856425736e+01
80 3 -1.000000000000000e+00
80 65 -1.000000000000000e+00
80 80 1.403924706945307e+01
81 5 -1.000000000000000e+00
81 44 -1.000000000000000e+00
81 81 1.103456221168120e+01
82 33 -1.000000000000000e+00
82 38 -1.000000000000000e+00
82 82 1.404879400590404e+01
83 7 -1.000000000000000e+00
83 33 -1.000000000000000e+00
83 83 4.404626072120233e+01
84 5 -1.000000000000000e+00
84 75 -1.000000000000000e+00
84 84 4.030583069219328e+00
85 13 -1.000000000000000e+00
85 27 -1.000000000000000e+00
85 85 1.303693978363961e+01
86 11 -1.000000000000000e+00
86 58 -1.000000000000000e+00
86 86 2.506078398876767e+01
87 1 -1.000000000000000e+00
87 5 -1.000000000000000e+00
87 87 1.506439278884030e+01
88 5 -1.000000000000000e+00
88 63 -1.000000000000000e+00
88 88 3.403350087079584e+01
89 1 -1.000000000000000e+00
89 51 -1.000000000000000e+00
89 89 1.002385488859816e+01
90 36 -1.000000000000000e+00
90 70 -1.000000000000000e+00
90 90 9.046066459878581e+00
91 28 -1.000000000000000e+00
91 80 -1.000000000000000e+00
91 91 1.008890604498571e+01
92 1 -1.000000000000000e+00
92 27 -1.000000000000000e+00
92 92 1.412950814554496e+01
93 28 -1.000000000000000e+00
93 80 -1.000000000000000e+00
93 93 2.103409326853332e+01
94 5 -1.000000000000000e+00
94 42 -1.000000000000000e+00
94 75 -7.181472906398173e-03
94 94 1.002702297536447e+01
95 58 -1.000000000000000e+00
95 88 -1.000000000000000e+00
95 95 1.703866561676337e+01
96 11 -1.000000000000000e+00
96 50 -1.000000000000000e+00
96 96 1.108590723873472e+01
97 17 -1.000000000000000e+00
97 60 -1.000000000000000e+00
97 97 2.101842357105421e+01
98 2 -1.000000000000000e+00
98 34 -1.000000000000000e+00
98 98 5.068872857528826e+00
99 1 -1.000000000000000e+00
99 31 -1.000000000000000e+00
99 99 5.063557317872616e+00
100 2 -1.000000000000000e+00
100 5 -1.000000000000000e+00
100 100 1.102296120480785e+01
101 70 -1.000000000000000e+00
101 73 -1.000000000000000e+00
101 101 1.203840262929192e+01
102 7 -1.000000000000000e+00
102 70 -1.000000000000000e+00
102 102 2.506471903218915e+01
103 3 -1.000000000000000e+00
103 5 -1.000000000000000e+00
103 60 -1.340100150996208e-02
103 103 9.042001675474163e+00
104 1 -1.000000000000000e+00
104 93 -1.000000000000000e+00
104 104 2.201797208458817e+01
105 10 -1.000000000000000e+00
105 83 -1.000000000000000e+00
105 105 9.029148711612002e+00
106 7 -1.000000000000000e+00
106 11 -1.000000000000000e+00
106 106 1.302306537622923e+01
107 2 -1.000000000000000e+00
107 28 -1.000000000000000e+00
107 107 6.029912325356791e+00
108 1 -1.000000000000000e+00
108 68 -1.000000000000000e+00
108 108 1.202888542364385e+01
109 11 -1.000000000000000e+00
109 38 -1.012554251064004e+00
109 109 5.042016187408067e+00
110 27 -1.000000000000000e+00
110 88 -1.000000000000000e+00
110 110 7.046140990353185e+00
111 1 -1.000000000000000e+00
111 7 -1.000000000000000e+00
111 111 1.003342153106274e+01
112 19 -1.000000000000000e+00
112 95 -1.000000000000000e+00
112 112 2.704455905325802e+01
113 2 -1.000000000000000e+00
113 76 -1.000000000000000e+00
113 113 2.506295661965406e+01
114 17 -1.000000000000000e+00
114 63 -1.000000000000000e+00
114 114 1.204559076324846e+01
115 4 -1.574760525364270e-02
115 5 -1.000000000000000e+00
115 63 -1.000000000000000e+00
115 115 2.103529684549261e+01
116 7 -1.000000000000000e+00
116 50 -1.000000000000000e+00
116 116 1.300967899883221e+01
117 1 -1.000000000000000e+00
117 14 -1.000000000000000e+00
117 117 8.101945420962837e+00
118 5 -1.000000000000000e+00
118 9 -1.000000000000000e+00
118 118 9.089376940119591e+00
119 1 -1.000000000000000e+00
119 16 -1.000000000000000e+00
119 119 8.030814731363675e+00
120 28 -1.000000000000000e+00
120 55 -1.000000000000000e+00
120 120 1.204270978229357e+01
121 62 -1.000000000000000e+00
121 113 -1.000000000000000e+00
121 121 1.704755127192873e+01
122 9 -1.000000000000000e+00
122 10 -2.650825189197571e-02
122 11 -1.000000000000000e+00
122 122 8.029285372492343e+00
123 1 -1.000000000000000e+00
123 86 -1.000000000000000e+00
123 123 7.046407671742171e+00
124 15 -1.000000000000000e+00
124 85 -1.013777512973192e+00
124 124 4.027711481957892e+00
125 10 -1.000000000000000e+00
125 54 -1.000000000000000e+00
125 125 7.018336677423981e+00
126 2 -1.000000000000000e+00
126 50 -1.000000000000000e+00
126 126 1.303268583556962e+01
127 76 -1.000000000000000e+00
127 83 -1.000000000000000e+00
127 127 1.602009287562977e+01
128 16 -1.000000000000000e+00
128 34 -1.000000000000000e+00
128 128 1.109930072926588e+01
129 14 -1.000000000000000e+00
129 27 -1.000000000000000e+00
129 129 1.105585289198106e+01
130 8 -1.000000000000000e+00
130 71 -1.000000000000000e+00
130 130 1.100781524906363e+01
131 1 -1.000000000000000e+00
131 38 -1.000000000000000e+00
131 131 9.028193477432442e+00
132 16 -1.000000000000000e+00
132 49 -1.000000000000000e+00
132 132 1.806138504312700e+01
133 62 -1.000000000000000e+00
133 66 -1.000000000000000e+00
133 133 1.707548168347805e+01
134 2 -1.000000000000000e+00
134 7 -1.000000000000000e+00
134 134 2.050875822662105e+00
135 15 -1.000000000000000e+00
135 25 -1.000000000000000e+00
135 135 1.002647141171418e+01
136 6 -1.000000000000000e+00
136 26 -1.000000000000000e+00
136 136 7.019643266866581e+00
137 45 -1.000000000000000e+00
137 63 -1.000000000000000e+00
137 137 1.102612584587560e+01
138 2 -1.000000000000000e+00
138 76 -1.000000000000000e+00
138 138 1.202677728221701e+01
139 50 -1.000000000000000e+00
139 57 -1.000000000000000e+00
139 139 4.058671393746527e+00
140 1 -1.000000000000000e+00
140 105 -1.000000000000000e+00
140 140 1.403784043394850e+01
141 1 -1.000000000000000e+00
141 2 -1.000000000000000e+00
141 141 4.102124546242123e+01
142 2 -1.000000000000000e+00
142 102 -1.000000000000000e+00
142 142 1.502108621597684e+01
143 16 -1.000000000000000e+00
143 59 -3.281429563031222e-03
143 70 -1.000000000000000e+00
143 143 1.301271424166911e+01
144 2 -1.000000000000000e+00
144 7 -1.000000000000000e+00
144 144 1.802896322642249e+01
145 42 -1.000000000000000e+00
145 127 -1.000000000000000e+00
145 145 8.032759186513340e+00
146 51 -1.000000000000000e+00
146 78 -1.000000000000000e+00
146 146 1.403559058137416e+01
147 17 -1.000000000000000e+00
147 58 -1.000000000000000e+00
147 147 1.302993079091556e+01
148 18 -1.000000000000000e+00
148 141 -1.000000000000000e+00
148 148 1.306186360744248e+01
149 7 -1.000000000000000e+00
149 17 -1.000000000000000e+00
149 149 1.703048505436067e+01
150 10 -1.000000000000000e+00
150 15 -1.000000000000000e+00
150 17 -1.463079902575721e-02
150 150 1.807533741627616e+01
151 131 -1.000000000000000e+00
151 138 -1.000000000000000e+00
151 151 1.502600801451507e+01
152 17 -1.000000000000000e+00
152 23 -1.000000000000000e+00
152 152 2.002869065719802e+01
153 23 -1.000000000000000e+00
153 66 -1.000000000000000e+00
153 153 1.303562358575216e+01
154 20 -1.000000000000000e+00
154 50 -1.000000000000000e+00
154 154 1.603824604995284e+01
155 5 -1.000000000000000e+00
155 7 -1.000000000000000e+00
155 155 1.004634641370669e+01
156 33 -1.000000000000000e+00
156 141 -1.115181462823715e-02
156 148 -1.000000000000000e+00
156 156 8.094608385524658e+00
157 2 -1.000000000000000e+00
157 138 -1.000000000000000e+00
157 157 1.802618144005405e+01
158 5 -1.000000000000000e+00
158 23 -1.000000000000000e+00
158 158 2.500940059815876e+01
159 23 -1.000000000000000e+00
159 88 -1.000000000000000e+00
159 159 1.604271111130965e+01
160 39 -2.886986032135770e-02
160 136 -1.000000000000000e+00
160 147 -1.000000000000000e+00
160 160 1.105951266894426e+01
161 69 -1.000000000000000e+00
161 83 -1.000000000000000e+00
161 161 1.902970213865177e+01
162 7 -1.000000000000000e+00
162 19 -1.000000000000000e+00
162 162 1.407672626632315e+01
163 53 -1.000000000000000e+00
163 70 -1.000000000000000e+00
163 163 1.006155544277934e+01
164 36 -1.000000000000000e+00
164 93 -1.000000000000000e+00
164 164 2.502920540436481e+01
165 28 -1.000000000000000e+00
165 79 -1.000000000000000e+00
165 165 7.018621966556516e+00
166 21 -1.000000000000000e+00
166 29 -9.160741793971239e-03
166 83 -1.000000000000000e+00
166 166 8.024097604064748e+00
167 3 -1.000000000000000e+00
167 55 -1.000000000000000e+00
167 167 6.011352930565038e+00
168 17 -1.000000000000000e+00
168 19 -1.001060106058591e+00
168 53 -1.376271088686255e-02
168 168 4.068935001310081e+00
169 21 -1.009043869580424e+00
169 28 -1.000000000000000e+00
169 169 5.010270307586936e+00
170 57 -1.000000000000000e+00
170 140 -1.000000000000000e+00
170 170 6.016430105666390e+00
171 70 -1.000000000000000e+00
171 132 -1.000000000000000e+00
171 171 1.303885232076455e+01
172 27 -1.000000000000000e+00
172 36 -1.000000000000000e+00
172 172 5.075326411108398e+00
173 20 -1.000000000000000e+00
173 65 -1.000000000000000e+00
173 173 1.208439873464459e+01
174 75 -1.000000000000000e+00
174 97 -1.000000000000000e+00
174 174 2.703522085742437e+01
175 5 -1.000000000000000e+00
175 23 -1.000000000000000e+00
175 175 1.203399748517672e+01
176 2 -1.000000000000000e+00
176 3 -1.000000000000000e+00
176 176 8.023645170749029e+00
177 140 -1.000000000000000e+00
177 159 -1.000000000000000e+00
177 177 1.601563509952620e+01
178 2 -1.000000000000000e+00
178 76 -1.000000000000000e+00
178 178 1.501815127290478e+01
179 144 -1.000000000000000e+00
179 173 -1.000000000000000e+00
179 179 2.304667401938689e+01
180 79 -1.000000000000000e+00
180 172 -1.000000000000000e+00
180 180 1.014773284113665e+01
181 5 -1.000000000000000e+00
181 29 -1.000000000000000e+00
181 181 7.049282648243461e+00
182 32 -1.000000000000000e+00
182 70 -1.000000000000000e+00
182 182 2.607509722254852e+01
183 7 -1.000000000000000e+00
183 144 -1.000000000000000e+00
183 183 8.057116022677143e+00
184 42 -1.000000000000000e+00
184 72 -1.000000000000000e+00
184 184 3.048345342290284e+00
185 67 -1.000000000000000e+00
185 157 -1.000000000000000e+00
185 185 4.000000000000000e+00
186 56 -1.000000000000000e+00
186 90 -1.000000000000000e+00
186 186 6.018629194732664e+00
187 50 -1.000000000000000e+00
187 178 -1.000000000000000e+00
187 187 7.020106884873675e+00
188 70 -1.000000000000000e+00
188 79 -1.000000000000000e+00
188 92 -1.898298428766838e-02
188 188 6.060924699063592e+00
189 16 -1.000000000000000e+00
189 34 -1.000000000000000e+00
189 189 2.201577848804257e+01
190 2 -1.000000000000000e+00
190 62 -1.000000000000000e+00
190 190 6.027034551575721e+00
191 26 -1.000000000000000e+00
191 79 -1.000000000000000e+00
191 191 1.402506462955691e+01
192 7 -1.000000000000000e+00
192 73 -1.000000000000000e+00
192 192 5.056140881738992e+00
193 3 -1.000000000000000e+00
193 5 -1.000000000000000e+00
193 193 9.063134016253450e+00
194 26 -1.000000000000000e+00
194 63 -1.000000000000000e+00
194 194 7.013050602231181e+00
195 5 -1.000000000000000e+00
195 83 -1.000000000000000e+00
195 195 1.902794706512078e+01
196 2 -1.000000000000000e+00
196 192 -1.000000000000000e+00
196 196 3.031231057226829e+00
197 2 -1.000000000000000e+00
197 50 -1.000000000000000e+00
197 197 1.604378320381220e+01
198 95 -1.000000000000000e+00
198 183 -1.000000000000000e+00
198 198 5.045986901323923e+00
199 3 -1.000000000000000e+00
199 146 -1.000000000000000e+00
199 199 8.085246223584441e+00
200 2 -1.000000000000000e+00
200 31 -1.000000000000000e+00
200 127 -1.303968082464323e-02
200 200 5.039067023069507e+00
201 5 -1.000000000000000e+00
201 179 -1.000000000000000e+00
201 201 6.030386624814024e+00
202 1 -1.000000000000000e+00
202 58 -1.149446964851540e-02
202 108 -1.156753043659122e-02
202 142 -1.000000000000000e+00
202 202 1.955378676600453e+01
203 17 -1.000000000000000e+00
203 97 -1.000000000000000e+00
203 203 4.053282449666044e+00
204 7 -1.000000000000000e+00
204 40 -1.000000000000000e+00
204 204 1.902797335013942e+01
205 2 -1.000000000000000e+00
205 35 -1.000000000000000e+00
205 205 2.028057671905848e+00
206 13 -1.000000000000000e+00
206 81 -1.000000000000000e+00
206 206 1.703077531536679e+01
207 11 -1.000000000000000e+00
207 206 -1.000000000000000e+00
207 207 1.402772837546747e+01
208 5 -1.000000000000000e+00
208 67 -1.846104099134263e-02
208 94 -1.000000000000000e+00
208 208 8.092171212951865e+00
209 56 -1.007526163358465e+00
209 118 -1.977125275206782e-02
209 177 -1.000000000000000e+00
209 209 7.062578578289099e+00
210 66 -1.000000000000000e+00
210 173 -1.000000000000000e+00
210 210 1.902070827386524e+01
211 2 -1.000000000000000e+00
211 93 -1.000000000000000e+00
211 211 1.303534420087044e+01
212 78 -1.000000000000000e+00
212 202 -1.000000000000000e+00
212 212 6.152145326917588e+00
213 2 -1.000000000000000e+00
213 161 -1.000000000000000e+00
213 213 4.046348112957037e+00
214 42 -1.000000000000000e+00
214 194 -1.000000000000000e+00
214 214 3.050699927405380e+00
215 44 -1.000000000000000e+00
215 63 -1.000000000000000e+00
215 215 1.002457996530443e+01
216 207 -1.000000000000000e+00
216 210 -1.000000000000000e+00
216 216 3.016306599162720e+00
217 16 -1.000000000000000e+00
217 108 -1.000000000000000e+00
217 217 9.052743052148822e+00
218 4 -1.000000000000000e+00
218 48 -1.000000000000000e+00
218 218 1.201488104076378e+01
219 5 -1.000000000000000e+00
219 34 -1.000000000000000e+00
219 54 -1.292756255062127e-02
219 110 -1.973175926401002e-02
219 191 -1.000000000000000e+00
219 219 4.348649488540797e+00
220 17 -1.000000000000000e+00
220 68 -1.000000000000000e+00
220 220 1.602575159792016e+01
221 67 -2.666961911623161e-02
221 75 -1.000000000000000e+00
221 94 -1.000000000000000e+00
221 221 3.088396991466872e+00
222 26 -1.000000000000000e+00
222 210 -1.000000000000000e+00
222 222 1.603444808102787e+01
223 40 -1.000000000000000e+00
223 66 -1.000000000000000e+00
223 223 6.028489472845499e+00
224 43 -1.000000000000000e+00
224 204 -1.000000000000000e+00
224 224 6.022165733637240e+00
225 30 -1.000000000000000e+00
225 182 -1.000000000000000e+00
225 225 7.083998485903598e+00
226 12 -1.000000000000000e+00
226 100 -1.017726832540322e+00
226 226 1.006159609285124e+01
227 86 -1.000000000000000e+00
227 222 -1.000000000000000e+00
227 227 7.086771437792435e+00
228 5 -1.000000000000000e+00
228 59 -1.000000000000000e+00
228 214 -1.852042582332250e-02
228 228 1.104356217159853e+01
229 120 -1.000000000000000e+00
229 202 -1.000000000000000e+00
229 229 1.804522601645248e+01
230 44 -1.009905535081242e+00
230 92 -1.000000000000000e+00
230 230 3.016437966016162e+00
231 161 -1.000000000000000e+00
231 206 -1.000000000000000e+00
231 231 2.034769402120726e+00
232 7 -1.000000000000000e+00
232 12 -1.000000000000000e+00
232 232 9.018547737679944e+00
233 2 -1.000000000000000e+00
233 34 -1.000000000000000e+00
233 233 1.301456806996607e+01
234 11 -1.000000000000000e+00
234 171 -1.000000000000000e+00
234 172 -1.051237725814526e-02
234 234 1.303093794701164e+01
235 1 -1.000000000000000e+00
235 10 -1.000000000000000e+00
235 235 1.101402023639093e+01
236 16 -1.000000000000000e+00
236 204 -1.000000000000000e+00
236 236 9.018026488010456e+00
237 20 -1.000000000000000e+00
237 200 -1.010102590032982e+00
237 237 2.069063427083902e+00
238 16 -1.000000000000000e+00
238 92 -1.000000000000000e+00
238 238 1.804520608257242e+01
239 3 -1.000000000000000e+00
239 62 -1.000000000000000e+00
239 239 7.035517618062434e+00
240 83 -1.000000000000000e+00
240 176 -1.000000000000000e+00
240 240 3.505359803759443e+01
241 1 -1.000000000000000e+00
241 218 -1.000000000000000e+00
241 241 1.510825731810173e+01
242 1 -1.000000000000000e+00
242 87 -1.000000000000000e+00
242 242 1.902871439463330e+01
243 32 -1.000000000000000e+00
243 227 -1.017822343626525e+00
243 243 8.022477530334111e+00
244 48 -1.000000000000000e+00
244 69 -1.000000000000000e+00
244 244 1.003630582967155e+01
245 70 -1.000000000000000e+00
245 151 -1.000000000000000e+00
245 245 5.015570492130561e+00
246 12 -1.000000000000000e+00
246 30 -1.000000000000000e+00
246 246 1.305877209601366e+01
247 17 -1.000000000000000e+00
247 155 -1.000000000000000e+00
247 247 1.211817844334016e+01
248 80 -1.000000000000000e+00
248 189 -1.000000000000000e+00
248 248 7.049109071605207e+00
249 7 -1.000000000000000e+00
249 40 -1.000000000000000e+00
249 249 1.108484725116727e+01
250 5 -1.000000000000000e+00
250 114 -1.000000000000000e+00
250 250 1.002240372598982e+01
251 32 -1.000000000000000e+00
251 133 -1.000000000000000e+00
251 251 1.705266134658815e+01
252 2 -1.000000000000000e+00
252 101 -1.000000000000000e+00
252 252 1.509813590213191e+01
253 51 -1.000000000000000e+00
253 150 -1.000000000000000e+00
253 253 1.305992470056487e+01
254 2 -1.000000000000000e+00
254 5 -1.000000000000000e+00
254 155 -2.403835467535008e-02
254 254 9.089952727612886e+00
255 72 -1.000000000000000e+00
255 114 -1.000000000000000e+00
255 255 6.044716756279858e+00
256 1 -1.000000000000000e+00
256 26 -1.000000000000000e+00
256 256 5.106908779628485e+00
257 56 -1.000000000000000e+00
257 239 -1.000000000000000e+00
257 257 4.006379217014948e+00
258 140 -1.000000000000000e+00
258 178 -1.000000000000000e+00
258 258 5.024526826893368e+00
259 16 -1.000000000000000e+00
259 103 -1.015393791990794e+00
259 259 6.020340204179766e+00
260 3 -2.496207512061200e-02
260 38 -1.000000000000000e+00
260 223 -1.000000000000000e+00
260 260 2.087509386673527e+00
261 27 -1.000000000000000e+00
261 163 -1.000000000000000e+00
261 261 5.011902567199496e+00
262 66 -1.000000000000000e+00
262 156 -1.000000000000000e+00
262 262 6.010849422934683e+00
263 69 -1.000000000000000e+00
263 262 -1.006710992257028e+00
263 263 4.012810615296667e+00
264 57 -1.000000000000000e+00
264 202 -1.000000000000000e+00
264 264 1.505038937133774e+01
265 20 -1.000000000000000e+00
265 177 -1.000000000000000e+00
265 265 4.011376902964199e+00
266 2 -1.000000000000000e+00
266 73 -1.000000000000000e+00
266 266 7.038792515285658e+00
267 48 -1.000000000000000e+00
267 50 -1.000000000000000e+00
267 202 -3.894312027017379e-03
267 267 3.010786019981087e+00
268 1 -1.000000000000000e+00
268 2 -1.000000000000000e+00
268 268 4.061925660059727e+00
269 1 -1.000000000000000e+00
269 210 -1.000000000000000e+00
269 269 3.029634964525201e+00
270 149 -1.000000000000000e+00
270 158 -1.000000000000000e+00
270 270 1.101363099287891e+01
271 66 -1.000000000000000e+00
271 110 -1.000000000000000e+00
271 271 8.049540572478712e+00
272 1 -1.000000000000000e+00
272 167 -1.000000000000000e+00
272 272 2.045720123349882e+00
273 120 -1.000000000000000e+00
273 202 -1.000000000000000e+00
273 273 7.031161207661451e+00
274 38 -1.939063325579553e-02
274 95 -1.000000000000000e+00
274 264 -1.000000000000000e+00
274 274 1.606799200141930e+01
275 89 -1.000000000000000e+00
275 151 -1.000000000000000e+00
275 275 8.015025872547028e+00
276 2 -1.000000000000000e+00
276 141 -1.000000000000000e+00
276 239 -1.000000000000000e+00
276 276 1.403593558677473e+01
277 174 -1.000000000000000e+00
277 266 -1.000000000000000e+00
277 277 4.042593117504560e+00
278 50 -1.000000000000000e+00
278 86 -1.000000000000000e+00
278 278 1.803856710370061e+01
279 9 -1.000000000000000e+00
279 161 -1.000000000000000e+00
279 279 4.023258699221387e+00
280 70 -1.000000000000000e+00
280 104 -1.000000000000000e+00
280 280 1.101868846969878e+01
281 15 -1.000000000000000e+00
281 26 -1.000000000000000e+00
281 281 6.018860068511352e+00
282 16 -1.000000000000000e+00
282 30 -1.000000000000000e+00
282 282 1.205912698170809e+01
283 32 -1.000000000000000e+00
283 204 -1.000000000000000e+00
283 283 9.073592517138783e+00
284 44 -1.000000000000000e+00
284 102 -1.000000000000000e+00
284 284 1.603192964373957e+01
285 1 -1.000000000000000e+00
285 199 -1.000000000000000e+00
285 285 1.001702193155421e+01
286 127 -1.000000000000000e+00
286 207 -1.013577819585952e+00
286 286 4.117768642779926e+00
287 5 -1.000000000000000e+00
287 78 -1.000000000000000e+00
287 287 1.304454991995921e+01
288 57 -1.000000000000000e+00
288 63 -1.888641277055036e-02
288 220 -1.000000000000000e+00
288 288 7.063595654518582e+00
289 5 -1.000000000000000e+00
289 28 -1.000000000000000e+00
289 289 1.105793161699168e+01
290 1 -1.000000000000000e+00
290 240 -1.000000000000000e+00
290 290 5.140920755719578e+00
291 28 -1.000000000000000e+00
291 220 -1.000000000000000e+00
291 291 1.107620454317682e+01
292 27 -1.000000000000000e+00
292 130 -1.000000000000000e+00
292 292 1.405981119356655e+01
293 40 -1.000000000000000e+00
293 236 -1.000000000000000e+00
293 293 5.026408047419704e+00
294 240 -1.000000000000000e+00
294 274 -1.000000000000000e+00
294 294 1.603321388113234e+01
295 28 -1.000000000000000e+00
295 79 -1.000000000000000e+00
295 295 3.029787898765479e+00
296 27 -1.000000000000000e+00
296 229 -1.000000000000000e+00
296 296 1.308149124409758e+01
297 94 -1.000000000000000e+00
297 283 -1.000000000000000e+00
297 297 2.002517135338109e+01
298 5 -1.000000000000000e+00
298 206 -1.000000000000000e+00
298 298 3.025630656559081e+00
299 2 -1.000000000000000e+00
299 12 -1.000000000000000e+00
299 299 2.050007232505840e+00
300 129 -1.000000000000000e+00
300 135 -1.000000000000000e+00
300 300 5.023727359405701e+00
301 144 -1.000000000000000e+00
301 269 -1.001536396980861e+00
301 301 9.026437545552108e+00
302 54 -1.000000000000000e+00
302 133 -1.000000000000000e+00
302 302 6.018099598006480e+00
303 59 -1.000000000000000e+00
303 143 -1.000000000000000e+00
303 303 2.036398306086654e+00
304 7 -1.000000000000000e+00
304 42 -1.000000000000000e+00
304 304 1.804927807332007e+01
305 1 -1.000000000000000e+00
305 2 -1.000000000000000e+00
305 133 -2.736149246096116e-02
305 305 6.122991556633004e+00
306 166 -1.000000000000000e+00
306 174 -1.000000000000000e+00
306 207 -1.000000000000000e+00
306 306 1.101657931223374e+01
307 2 -1.000000000000000e+00
307 279 -1.000000000000000e+00
307 307 6.030288571780988e+00
308 65 -1.000000000000000e+00
308 73 -1.000000000000000e+00
308 308 6.028607509866632e+00
309 62 -1.000000000000000e+00
309 146 -1.000000000000000e+00
309 309 6.038067982551547e+00
310 44 -1.000000000000000e+00
310 112 -1.000000000000000e+00
310 310 2.027064884074478e+00
311 35 -1.000000000000000e+00
311 63 -1.000000000000000e+00
311 311 1.605940570264260e+01
312 36 -1.000000000000000e+00
312 211 -1.000000000000000e+00
312 312 2.035587438939066e+00
313 241 -1.000000000000000e+00
313 280 -1.000000000000000e+00
313 313 1.009582487712752e+01
314 34 -1.000000000000000e+00
314 215 -1.000000000000000e+00
314 314 9.047037105328977e+00
315 4 -1.000000000000000e+00
315 108 -1.000000000000000e+00
315 202 -9.908522887361815e-03
315 315 3.021852743554875e+00
316 109 -2.064086171218222e-03
316 133 -1.000000000000000e+00
316 142 -1.000000000000000e+00
316 316 6.040431913609345e+00
317 5 -1.000000000000000e+00
317 297 -1.000000000000000e+00
317 317 3.052213072417640e+00
318 17 -1.000000000000000e+00
318 197 -1.000000000000000e+00
318 318 1.609257514807145e+01
319 1 -1.000000000000000e+00
319 7 -1.000000000000000e+00
319 319 6.080670846589756e+00
320 155 -1.000000000000000e+00
320 202 -1.000000000000000e+00
320 320 1.501252309500853e+01
321 217 -1.000000000000000e+00
321 278 -1.017128889026493e+00
321 321 5.027338502209270e+00
322 282 -1.000000000000000e+00
322 311 -1.000000000000000e+00
322 322 4.040583610873010e+00
323 115 -1.000000000000000e+00
323 252 -1.000000000000000e+00
323 323 4.023120854325940e+00
324 63 -1.000000000000000e+00
324 142 -1.000000000000000e+00
324 324 3.033398662362587e+00
325 12 -1.000000000000000e+00
325 251 -1.000000000000000e+00
325 325 7.015766288223461e+00
326 1 -1.000000000000000e+00
326 17 -1.000000000000000e+00
326 186 -1.000000000000000e+00
326 326 7.029346271202310e+00
327 5 -1.000000000000000e+00
327 66 -1.000000000000000e+00
327 327 3.320489126571694e+00
328 6 -1.000000000000000e+00
328 87 -1.000000000000000e+00
328 328 5.032322531528306e+00
329 141 -1.000000000000000e+00
329 321 -1.000000000000000e+00
329 329 6.007609210555626e+00
330 16 -1.000000000000000e+00
330 204 -1.000000000000000e+00
330 330 1.501048892073811e+01
331 160 -1.000000000000000e+00
331 174 -1.000000000000000e+00
331 291 -1.000000000000000e+00
331 331 8.036574015018250e+00
332 16 -1.000000000000000e+00
332 45 -1.000000000000000e+00
332 332 8.016688588531768e+00
333 45 -1.000000000000000e+00
333 210 -1.000000000000000e+00
333 333 1.304396261997582e+01
334 36 -1.000000000000000e+00
334 62 -1.000000000000000e+00
334 334 1.603575162556139e+01
335 28 -1.000000000000000e+00
335 50 -1.000000000000000e+00
335 335 1.501328764470026e+01
336 26 -1.000000000000000e+00
336 50 -1.000000000000000e+00
336 171 -4.421213788848941e-03
336 336 7.008084585428997e+00
337 7 -1.000000000000000e+00
337 170 -1.000000000000000e+00
337 337 4.025306974485978e+00
338 140 -1.000000000000000e+00
338 235 -1.000000000000000e+00
338 338 1.303720711160601e+01
339 50 -1.000000000000000e+00
339 175 -1.000000000000000e+00
339 339 8.015326255023632e+00
340 127 -1.000000000000000e+00
340 218 -1.000000000000000e+00
340 340 1.802713087895735e+01
341 44 -1.000000000000000e+00
341 49 -1.000000000000000e+00
341 341 1.204406645683821e+01
342 12 -1.000000000000000e+00
342 243 -1.000000000000000e+00
342 342 6.008992176027434e+00
343 29 -1.002999578938579e+00
343 161 -1.000000000000000e+00
343 343 5.059037743676316e+00
344 70 -1.000000000000000e+00
344 117 -1.000000000000000e+00
344 344 1.200948604074178e+01
345 13 -1.000000000000000e+00
345 335 -1.000000000000000e+00
345 345 1.005219458878561e+01
346 23 -1.000000000000000e+00
346 336 -1.000000000000000e+00
346 346 3.063671063612416e+00
347 18 -1.000000000000000e+00
347 129 -1.000000000000000e+00
347 347 8.034494923094435e+00
348 6 -1.000000000000000e+00
348 10 -1.000000000000000e+00
348 348 7.065532588668057e+00
349 44 -1.000000000000000e+00
349 217 -1.000000000000000e+00
349 349 1.502074811122798e+01
350 10 -1.000000000000000e+00
350 67 -1.000000000000000e+00
350 350 9.031178774152362e+00
351 151 -1.000000000000000e+00
351 345 -1.007928121812209e+00
351 351 3.013494818594882e+00
352 61 -1.000000000000000e+00
352 179 -1.326622685798077e-02
352 291 -1.000000000000000e+00
352 297 -9.568358212873678e-03
352 352 5.235188649055838e+00
353 1 -1.000000000000000e+00
353 114 -1.000000000000000e+00
353 353 8.043761151863800e+00
354 2 -1.000000000000000e+00
354 191 -1.000000000000000e+00
354 354 6.156399809205622e+00
355 88 -1.000000000000000e+00
355 241 -1.000000000000000e+00
355 355 7.015283282905245e+00
356 61 -1.000000000000000e+00
356 313 -1.000000000000000e+00
356 356 1.901242916931723e+01
357 7 -1.000000000000000e+00
357 86 -1.000000000000000e+00
357 357 6.033875266478925e+00
358 3 -1.000000000000000e+00
358 12 -1.000000000000000e+00
358 358 4.039292810751634e+00
359 2 -1.000000000000000e+00
359 140 -1.007777300827605e-02
359 162 -1.000000000000000e+00
359 177 -1.000903503822390e-02
359 231 -2.751143684352601e-02
359 258 -2.274843097027655e-03
359 359 8.161954112065212e+00
360 297 -1.000000000000000e+00
360 349 -1.000000000000000e+00
360 360 7.057745782409054e+00
361 81 -1.000000000000000e+00
361 83 -1.000000000000000e+00
361 352 -9.027904079232910e-03
361 361 1.105123778100532e+01
362 41 -1.000000000000000e+00
362 104 -1.000000000000000e+00
362 362 1.601255788938528e+01
363 174 -1.000000000000000e+00
363 356 -1.000000000000000e+00
363 363 1.702552170401088e+01
364 76 -1.000000000000000e+00
364 142 -1.000000000000000e+00
364 364 8.068505838672564e+00
365 50 -1.000000000000000e+00
365 177 -5.626064487976378e-03
365 359 -1.000000000000000e+00
365 365 5.056251797230607e+00
366 114 -1.000000000000000e+00
366 138 -1.000000000000000e+00
366 366 4.023086013554360e+00
367 64 -1.000000000000000e+00
367 97 -4.275343441126802e-03
367 112 -1.000000000000000e+00
367 367 3.026185215547665e+00
368 1 -1.000000000000000e+00
368 292 -1.000000000000000e+00
368 368 1.002409501058761e+01
369 180 -1.000000000000000e+00
369 275 -1.000000000000000e+00
369 369 1.308338458975200e+01
370 210 -1.000000000000000e+00
370 341 -1.000000000000000e+00
370 370 5.037591905038687e+00
371 7 -1.000000000000000e+00
371 94 -1.984150245806931e-02
371 192 -1.000000000000000e+00
371 371 1.815719985746671e+01
372 66 -1.000000000000000e+00
372 334 -1.000000000000000e+00
372 372 6.026093566824819e+00
373 4 -1.000000000000000e+00
373 177 -1.000000000000000e+00
373 373 1.125212993447499e+01
374 4 -1.000000000000000e+00
374 253 -1.000000000000000e+00
374 374 3.020475494364693e+00
375 28 -1.000000000000000e+00
375 224 -1.000000000000000e+00
375 265 -4.901077673755002e-03
375 375 6.050346846903073e+00
376 79 -1.000000000000000e+00
376 87 -1.000000000000000e+00
376 376 7.060816268241950e+00
377 16 -1.000000000000000e+00
377 50 -1.000000000000000e+00
377 377 1.204239023889661e+01
378 5 -1.000000000000000e+00
378 225 -1.000000000000000e+00
378 378 1.302995752900140e+01
379 28 -1.000000000000000e+00
379 378 -1.000000000000000e+00
379 379 1.805096207699525e+01
380 26 -1.000000000000000e+00
380 149 -1.000000000000000e+00
380 380 5.032884566354240e+00
381 2 -1.000000000000000e+00
381 197 -1.000000000000000e+00
381 282 -2.755990366010803e-02
381 381 5.044825749439597e+00
382 250 -1.000000000000000e+00
382 278 -1.000000000000000e+00
382 382 4.026476113343896e+00
383 1 -1.000000000000000e+00
383 12 -1.000000000000000e+00
383 253 -1.227833747760601e-02
383 383 5.022643593482086e+00
384 16 -1.000000000000000e+00
384 166 -1.000000000000000e+00
384 384 1.701288564373019e+01
385 1 -1.000000000000000e+00
385 17 -1.000000000000000e+00
385 283 -1.025479885271083e+00
385 385 7.067762668551224e+00
386 16 -1.000000000000000e+00
386 128 -1.000000000000000e+00
386 371 -1.012254372420359e+00
386 386 7.069898349573482e+00
387 145 -1.000000000000000e+00
387 233 -1.000000000000000e+00
387 387 4.008778072040955e+00
388 127 -1.000000000000000e+00
388 145 -1.000000000000000e+00
388 388 8.042726458579500e+00
389 240 -1.000000000000000e+00
389 294 -1.000000000000000e+00
389 389 2.028517036939227e+00
390 13 -1.000000000000000e+00
390 108 -1.000000000000000e+00
390 390 3.050128757871456e+00
391 5 -1.000000000000000e+00
391 50 -1.000000000000000e+00
391 391 5.045713344034579e+00
392 1 -1.000000000000000e+00
392 17 -1.000000000000000e+00
392 392 2.070519081790339e+00
393 21 -1.000000000000000e+00
393 50 -1.000000000000000e+00
393 393 1.604845745362701e+01
394 111 -1.000000000000000e+00
394 252 -1.000000000000000e+00
394 313 -2.410835780768912e-02
394 394 4.061964388410805e+00
395 15 -1.000000000000000e+00
395 184 -1.000000000000000e+00
395 395 9.030354808194897e+00
396 51 -1.000000000000000e+00
396 159 -1.020769459247811e+00
396 396 6.042469672646729e+00
397 41 -1.000000000000000e+00
397 73 -1.000000000000000e+00
397 397 5.079631903762987e+00
398 7 -1.000000000000000e+00
398 287 -1.000000000000000e+00
398 398 4.053639157431159e+00
399 1 -1.000000000000000e+00
399 202 -1.060029730677965e-02
399 267 -1.000000000000000e+00
399 399 4.051754976639542e+00
400 46 -1.000000000000000e+00
400 100 -1.000000000000000e+00
400 400 8.014294358062648e+00
401 126 -1.000000000000000e+00
401 371 -1.000000000000000e+00
401 401 9.005143558428834e+00
402 2 -1.000000000000000e+00
402 51 -1.000000000000000e+00
402 82 -1.192744998715997e-02
402 402 8.090582522150592e+00
403 50 -1.000000000000000e+00
403 78 -1.000000000000000e+00
403 403 2.196239605209633e+00
404 50 -1.000000000000000e+00
404 356 -1.000000000000000e+00
404 404 6.049613285886826e+00
405 12 -9.850956906752941e-03
405 246 -1.000000000000000e+00
405 333 -1.000000000000000e+00
405 405 3.050136309340421e+00
406 5 -1.000000000000000e+00
406 112 -1.000000000000000e+00
406 406 1.003856125620715e+01
407 7 -1.000000000000000e+00
407 11 -1.000000000000000e+00
407 407 6.015290237615545e+00
408 50 -1.000000000000000e+00
408 153 -1.000000000000000e+00
408 408 7.013317438341673e+00
409 7 -1.000000000000000e+00
409 66 -1.000000000000000e+00
409 134 -2.915690286907979e-02
409 409 6.041080521158460e+00
410 86 -1.000000000000000e+00
410 127 -1.000000000000000e+00
410 410 1.001551780941685e+01
411 159 -1.000000000000000e+00
411 342 -1.000000000000000e+00
411 411 6.072415157754415e+00
412 191 -1.000000000000000e+00
412 300 -1.003158016981573e+00
412 412 6.043369034175763e+00
413 151 -1.000000000000000e+00
413 207 -1.000000000000000e+00
413 413 4.034635870966839e+00
414 173 -1.000000000000000e+00
414 274 -1.000000000000000e+00
414 414 8.029691808429112e+00
415 220 -1.000000000000000e+00
415 384 -1.000000000000000e+00
415 415 4.038695901659509e+00
416 36 -1.000000000000000e+00
416 284 -1.000000000000000e+00
416 416 1.102058993367266e+01
417 7 -1.000000000000000e+00
417 362 -1.000000000000000e+00
417 417 6.018934037358964e+00
418 10 -1.000000000000000e+00
418 141 -1.000000000000000e+00
418 418 2.011109696793390e+00
419 131 -1.000000000000000e+00
419 159 -1.000000000000000e+00
419 419 2.046839757177599e+00
420 64 -1.000000000000000e+00
420 113 -1.000000000000000e+00
420 420 7.022264748581175e+00
421 101 -1.000000000000000e+00
421 334 -1.000000000000000e+00
421 421 5.042580354790374e+00
422 53 -1.000000000000000e+00
422 164 -1.000000000000000e+00
422 422 5.032385352880631e+00
423 12 -1.000000000000000e+00
423 174 -1.000000000000000e+00
423 423 2.602470744574324e+01
424 50 -1.000000000000000e+00
424 61 -1.000000000000000e+00
424 424 8.034192553463635e+00
425 64 -1.278682283543768e-03
425 73 -1.000000000000000e+00
425 97 -1.000000000000000e+00
425 425 4.018830433837111e+00
426 2 -1.000000000000000e+00
426 113 -1.000000000000000e+00
426 426 5.032698405603807e+00
427 144 -1.000000000000000e+00
427 250 -1.000000000000000e+00
427 427 1.403431020216345e+01
428 304 -1.000000000000000e+00
428 373 -1.000000000000000e+00
428 428 8.015876231039366e+00
429 17 -1.000000000000000e+00
429 271 -1.000000000000000e+00
429 429 6.061198763549169e+00
430 147 -1.000000000000000e+00
430 308 -1.000000000000000e+00
430 430 7.002419348374086e+00
431 38 -1.000000000000000e+00
431 271 -1.000000000000000e+00
431 306 -8.728713499825482e-03
431 431 5.064757396146828e+00
432 7 -1.000000000000000e+00
432 154 -1.000000000000000e+00
432 432 6.025278871880573e+00
433 16 -1.000000000000000e+00
433 187 -1.000000000000000e+00
433 433 3.025657515648808e+00
434 94 -1.000000000000000e+00
434 157 -1.006556727802056e+00
434 434 3.024932231738710e+00
435 1 -1.000000000000000e+00
435 365 -1.000000000000000e+00
435 435 7.006238465087398e+00
436 67 -1.000000000000000e+00
436 141 -1.000000000000000e+00
436 436 1.402171935382790e+01
437 16 -1.000000000000000e+00
437 22 -1.000000000000000e+00
437 354 -3.024134855889780e-02
437 437 4.063757658788608e+00
438 30 -1.000000000000000e+00
438 207 -1.000000000000000e+00
438 438 4.000000000000000e+00
439 152 -1.000000000000000e+00
439 297 -1.000000000000000e+00
439 439 6.027631937858748e+00
440 67 -1.000000000000000e+00
440 329 -1.000000000000000e+00
440 440 2.006066007684417e+00
441 5 -1.000000000000000e+00
441 127 -1.000000000000000e+00
441 441 2.103695684683978e+00
442 4 -1.000000000000000e+00
442 55 -1.000000000000000e+00
442 442 9.054453029462767e+00
443 148 -1.000000000000000e+00
443 296 -1.000000000000000e+00
443 443 1.501580248927623e+01
444 32 -1.000000000000000e+00
444 189 -1.000000000000000e+00
444 444 5.038802914176584e+00
445 159 -1.000000000000000e+00
445 228 -1.000000000000000e+00
445 352 -1.686378046033550e-02
445 445 5.039615887211975e+00
446 2 -1.000000000000000e+00
446 60 -1.010626732100171e+00
446 259 -4.946412188972737e-03
446 446 2.039711820201632e+00
447 16 -1.000000000000000e+00
447 189 -1.000000000000000e+00
447 447 5.100931033587233e+00
448 7 -1.000000000000000e+00
448 247 -1.000000000000000e+00
448 286 -1.385856669741268e-02
448 448 5.023628755296320e+00
449 26 -1.032246841306283e+00
449 423 -1.000000000000000e+00
449 449 3.064113719365395e+00
450 5 -1.000000000000000e+00
450 254 -1.000000000000000e+00
450 450 1.502732259384904e+01
451 40 -1.000000000000000e+00
451 206 -1.000000000000000e+00
451 451 6.014469699205788e+00
452 12 -1.000000000000000e+00
452 191 -1.000000000000000e+00
452 452 5.137990883284399e+00
453 7 -1.000000000000000e+00
453 80 -1.000000000000000e+00
453 453 5.007668692900587e+00
454 2 -1.000000000000000e+00
454 141 -1.000000000000000e+00
454 327 -2.585982972339473e-02
454 454 4.148778538893396e+00
455 28 -1.000000000000000e+00
455 158 -1.000000000000000e+00
455 455 1.204106890513002e+01
456 46 -1.000000000000000e+00
456 71 -1.000000000000000e+00
456 456 3.016883538751261e+00
457 63 -1.000000000000000e+00
457 288 -1.000000000000000e+00
457 457 5.006043616007719e+00
458 111 -1.000000000000000e+00
458 210 -1.000000000000000e+00
458 458 7.015176170652083e+00
459 73 -1.000000000000000e+00
459 280 -1.000000000000000e+00
459 459 4.014757918132000e+00
460 202 -1.549366158725798e-02
460 319 -1.000000000000000e+00
460 407 -1.000000000000000e+00
460 460 2.041542440656892e+00
461 100 -1.000000000000000e+00
461 118 -1.000000000000000e+00
461 461 2.058614011136289e+00
462 197 -1.000000000000000e+00
462 270 -1.000000000000000e+00
462 462 6.031578256464780e+00
463 229 -1.000000000000000e+00
463 233 -1.000000000000000e+00
463 463 1.703042543030572e+01
464 5 -1.000000000000000e+00
464 296 -1.000000000000000e+00
464 464 8.100858878134190e+00
465 7 -1.000000000000000e+00
465 222 -1.000000000000000e+00
465 465 1.401399827971419e+01
466 88 -1.000000000000000e+00
466 274 -1.000000000000000e+00
466 466 4.046254238658610e+00
467 33 -1.000000000000000e+00
467 320 -1.000000000000000e+00
467 467 7.060104967648204e+00
468 4 -1.000000000000000e+00
468 381 -1.000000000000000e+00
468 468 8.017353573292748e+00
469 53 -1.000000000000000e+00
469 393 -1.000000000000000e+00
469 469 4.003353065822735e+00
470 38 -1.000000000000000e+00
470 252 -1.000000000000000e+00
470 470 2.205939568244833e+01
471 1 -1.000000000000000e+00
471 76 -1.000000000000000e+00
471 471 4.036824461771092e+00
472 44 -1.000000000000000e+00
472 49 -1.000000000000000e+00
472 472 5.007581776246952e+00
473 7 -1.000000000000000e+00
473 125 -1.000000000000000e+00
473 473 7.022726913189849e+00
474 91 -1.000000000000000e+00
474 285 -1.000000000000000e+00
474 474 4.063935791034708e+00
475 14 -1.000000000000000e+00
475 33 -1.000000000000000e+00
475 475 1.301519430819723e+01
476 2 -1.000000000000000e+00
476 202 -1.000000000000000e+00
476 390 -2.317314639983108e-02
476 476 5.131500493125345e+00
477 233 -1.000000000000000e+00
477 355 -1.013461228497603e+00
477 477 4.068003107630145e+00
478 2 -1.000000000000000e+00
478 219 -1.695459044610771e-02
478 243 -1.000000000000000e+00
478 478 4.173026670646405e+00
479 17 -1.000000000000000e+00
479 19 -1.000000000000000e+00
479 479 5.077153824214870e+00
480 121 -1.000000000000000e+00
480 150 -1.000000000000000e+00
480 480 2.018624644382125e+00
481 147 -1.000000000000000e+00
481 364 -1.000000000000000e+00
481 421 -1.483424004383875e-02
481 481 3.098099422989208e+00
482 148 -1.000000000000000e+00
482 362 -1.000000000000000e+00
482 482 1.007366814367185e+01
483 10 -1.000000000000000e+00
483 18 -1.000000000000000e+00
483 483 3.020866407035693e+00
484 15 -1.053007111083315e-02
484 122 -1.000000000000000e+00
484 354 -1.000000000000000e+00
484 484 8.138284843609094e+00
485 2 -1.000000000000000e+00
485 76 -1.000000000000000e+00
485 478 -2.599060531701299e-02
485 485 9.056320436574733e+00
486 112 -1.000000000000000e+00
486 153 -1.000000000000000e+00
486 486 5.023724265284396e+00
487 115 -1.000000000000000e+00
487 304 -1.000000000000000e+00
487 487 7.056707953590280e+00
488 341 -1.000000000000000e+00
488 414 -1.000000000000000e+00
488 488 6.047620999305077e+00
489 93 -1.000000000000000e+00
489 147 -1.000000000000000e+00
489 489 3.000000000000000e+00
490 61 -1.000000000000000e+00
490 220 -1.000000000000000e+00
490 490 6.023285674336716e+00
491 9 -1.000000000000000e+00
491 281 -1.000000000000000e+00
491 491 5.038363998464158e+00
492 2 -1.000000000000000e+00
492 334 -1.000000000000000e+00
492 492 2.019567811920119e+00
493 4 -1.000000000000000e+00
493 57 -1.000000000000000e+00
493 493 5.110151071875483e+00
494 75 -1.000000000000000e+00
494 113 -1.000000000000000e+00
494 494 2.091614765712984e+00
495 33 -1.000000000000000e+00
495 39 -1.000000000000000e+00
495 495 6.017777805606044e+00
496 87 -1.000000000000000e+00
496 408 -1.000000000000000e+00
496 496 1.101425620237890e+01
497 136 -1.000000000000000e+00
497 307 -1.000000000000000e+00
497 497 1.701578028242324e+01
498 97 -1.000000000000000e+00
498 128 -1.000000000000000e+00
498 182 -1.345870857910467e-02
498 498 7.033385617140156e+00
499 240 -1.000000000000000e+00
499 474 -1.000000000000000e+00
499 499 1.000910195418742e+01
500 150 -1.000000000000000e+00
500 227 -1.000000000000000e+00
500 500 5.032468696746276e+00
501 66 -1.000000000000000e+00
501 242 -1.000000000000000e+00
501 501 5.046803660925238e+00
502 71 -7.071288782881134e-03
502 158 -1.000000000000000e+00
502 355 -1.000000000000000e+00
502 502 7.052767171844215e+00
503 83 -1.000000000000000e+00
503 177 -1.000000000000000e+00
503 503 5.034749342500429e+00
504 102 -1.000000000000000e+00
504 485 -1.000000000000000e+00
504 504 7.004990910983630e+00
505 9 -1.000000000000000e+00
505 103 -1.000000000000000e+00
505 505 2.030873383103983e+00
506 86 -1.000000000000000e+00
506 255 -1.000000000000000e+00
506 506 5.035824794891502e+00
507 17 -1.000000000000000e+00
507 146 -1.000000000000000e+00
507 425 -6.414637492263541e-03
507 507 8.019119532093093e+00
508 6 -1.000000000000000e+00
508 111 -1.000000000000000e+00
508 508 7.038853248468803e+00
509 43 -1.000000000000000e+00
509 378 -1.000000000000000e+00
509 509 9.015171273507654e+00
510 17 -1.000000000000000e+00
510 211 -1.000000000000000e+00
510 510 5.023425726710633e+00
511 1 -1.000000000000000e+00
511 2 -1.000000000000000e+00
511 511 4.041118134076767e+00
512 28 -1.000000000000000e+00
512 49 -1.000000000000000e+00
512 512 6.031959598122044e+00
513 10 -1.000000000000000e+00
513 39 -1.012279801708126e+00
513 513 2.044320254776577e+00
514 38 -1.000000000000000e+00
514 443 -1.000000000000000e+00
514 514 5.049214023426384e+00
515 1 -1.000000000000000e+00
515 278 -1.000000000000000e+00
515 515 4.022777634696949e+00
516 17 -1.000000000000000e+00
516 32 -1.000000000000000e+00
516 516 1.003004701830142e+01
517 455 -1.000000000000000e+00
517 484 -1.000000000000000e+00
517 517 9.043932972172717e+00
518 188 -1.000000000000000e+00
518 287 -1.000000000000000e+00
518 518 7.032607488805571e+00
519 423 -1.000000000000000e+00
519 506 -1.000000000000000e+00
519 519 9.025125745738757e+00
520 11 -1.000000000000000e+00
520 122 -1.000000000000000e+00
520 520 8.103283256874310e+00
521 101 -1.000000000000000e+00
521 162 -1.000000000000000e+00
521 521 7.065332931184034e+00
522 70 -1.000000000000000e+00
522 331 -1.000000000000000e+00
522 522 2.002748361540266e+01
523 27 -1.000000000000000e+00
523 167 -1.000000000000000e+00
523 523 5.012754138320305e+00
524 340 -1.000000000000000e+00
524 424 -1.000000000000000e+00
524 524 6.010895068028876e+00
525 5 -1.000000000000000e+00
525 211 -1.000000000000000e+00
525 525 8.017761299133005e+00
526 40 -1.000000000000000e+00
526 207 -1.000000000000000e+00
526 441 -1.932135793541510e-02
526 526 5.101121302407717e+00
527 28 -1.000000000000000e+00
527 468 -1.000000000000000e+00
527 527 8.015207435063472e+00
528 27 -1.000000000000000e+00
528 251 -1.000000000000000e+00
528 528 7.030678363178188e+00
529 36 -1.000000000000000e+00
529 121 -1.000000000000000e+00
529 529 9.068836153608714e+00
530 416 -1.000000000000000e+00
530 529 -1.000000000000000e+00
530 530 4.008965627637675e+00
531 1 -1.000000000000000e+00
531 2 -1.000000000000000e+00
531 202 -2.053498823361827e-02
531 531 2.058085790234978e+00
532 58 -1.000000000000000e+00
532 113 -1.000000000000000e+00
532 460 -2.604877906963409e-02
532 532 3.131688613089163e+00
533 4 -1.000000000000000e+00
533 83 -1.000000000000000e+00
533 533 4.031574574810717e+00
534 39 -1.000000000000000e+00
534 455 -1.000000000000000e+00
534 534 3.003796502325872e+00
535 55 -1.000000000000000e+00
535 93 -1.000000000000000e+00
535 535 8.027481371819546e+00
536 45 -1.000000000000000e+00
536 141 -1.000000000000000e+00
536 536 8.021077161596397e+00
537 297 -1.000000000000000e+00
537 451 -1.000000000000000e+00
537 537 4.001318386183860e+00
538 76 -1.000000000000000e+00
538 240 -1.000000000000000e+00
538 538 1.104424758558225e+01
539 32 -1.000000000000000e+00
539 189 -1.000000000000000e+00
539 403 -1.481811016459899e-02
539 539 1.102278418402947e+01
540 28 -1.000000000000000e+00
540 217 -1.000000000000000e+00
540 540 6.035152844602437e+00
541 3 -1.000000000000000e+00
541 420 -1.000000000000000e+00
541 541 1.504739597580348e+01
542 1 -1.000000000000000e+00
542 34 -1.000000000000000e+00
542 542 1.402237124035223e+01
543 86 -1.000000000000000e+00
543 475 -1.000000000000000e+00
543 543 3.017708664528368e+00
544 39 -1.000000000000000e+00
544 160 -1.000000000000000e+00
544 513 -6.635490913691328e-03
544 544 6.034519082062313e+00
545 301 -1.000000000000000e+00
545 340 -1.000000000000000e+00
545 545 8.046095279992214e+00
546 282 -1.000000000000000e+00
546 304 -1.000000000000000e+00
546 546 1.503909812404132e+01
547 307 -1.000000000000000e+00
547 486 -1.000000000000000e+00
547 547 2.013792985000510e+00
548 252 -1.000000000000000e+00
548 470 -1.000000000000000e+00
548 548 3.000000000000000e+00
549 138 -1.000000000000000e+00
549 395 -1.000000000000000e+00
549 549 8.022742108886035e+00
550 95 -1.000000000000000e+00
550 167 -1.000000000000000e+00
550 550 1.207502494250444e+01
551 16 -1.000000000000000e+00
551 142 -1.000000000000000e+00
551 551 1.302181830617666e+01
552 285 -1.005544467126218e+00
552 427 -1.000000000000000e+00
552 552 8.005753768079916e+00
553 345 -1.000000000000000e+00
553 522 -1.000000000000000e+00
553 553 7.021591166303756e+00
554 5 -1.000000000000000e+00
554 214 -1.365620983139824e-03
554 276 -1.000000000000000e+00
554 554 1.001432996469563e+01
555 292 -1.000000000000000e+00
555 308 -1.000000000000000e+00
555 555 4.050448970089662e+00
556 5 -1.000000000000000e+00
556 102 -1.033262656527377e+00
556 556 3.079253711723350e+00
557 220 -1.000000000000000e+00
557 407 -1.000000000000000e+00
557 554 -1.000000000000000e+00
557 557 4.041657028006720e+00
558 61 -1.000000000000000e+00
558 498 -1.000000000000000e+00
558 558 7.028978469821427e+00
559 29 -1.000000000000000e+00
559 240 -1.000000000000000e+00
559 559 4.019078035864787e+00
560 53 -1.000000000000000e+00
560 332 -1.000000000000000e+00
560 560 5.011321292322598e+00
561 2 -1.000000000000000e+00
561 247 -1.026836174335089e+00
561 369 -1.532036605637874e-02
561 561 1.006110646000807e+01
562 1 -1.000000000000000e+00
562 15 -1.000000000000000e+00
562 202 -9.005138345530479e-03
562 399 -2.525039274246586e-02
562 562 9.082163130711118e+00
563 47 -1.000000000000000e+00
563 291 -7.688945636636585e-03
563 423 -1.003048222268800e+00
563 563 2.061965818628303e+00
564 304 -1.000000000000000e+00
564 328 -1.020954709948683e+00
564 564 5.087709365196891e+00
565 21 -1.000000000000000e+00
565 287 -1.000000000000000e+00
565 565 8.067423260245802e+00
566 17 -1.000000000000000e+00
566 158 -1.000000000000000e+00
566 566 5.089259719131470e+00
567 16 -1.000000000000000e+00
567 31 -1.934259125130632e-02
567 40 -1.000000000000000e+00
567 441 -1.452704176140132e-02
567 567 8.061996531426278e+00
568 342 -1.000000000000000e+00
568 455 -1.000000000000000e+00
568 568 6.033907967496569e+00
569 105 -1.000000000000000e+00
569 453 -1.000000000000000e+00
569 569 4.051443177602178e+00
570 10 -1.000000000000000e+00
570 541 -1.000000000000000e+00
570 570 1.202857035144926e+01
571 18 -1.000000000000000e+00
571 470 -1.000000000000000e+00
571 571 2.025655947518462e+00
572 150 -1.000000000000000e+00
572 422 -1.000000000000000e+00
572 572 1.003561688410296e+01
573 79 -1.000000000000000e+00
573 83 -1.000000000000000e+00
573 573 1.104328716658933e+01
574 264 -1.021090317602052e+00
574 483 -1.000000000000000e+00
574 574 2.022587407293264e+00
575 86 -1.000000000000000e+00
575 241 -1.449083988462794e-02
575 349 -1.000000000000000e+00
575 575 6.023778226085737e+00
576 27 -1.000000000000000e+00
576 175 -1.000000000000000e+00
576 576 2.006839109479981e+00
577 17 -1.000000000000000e+00
577 395 -1.000000000000000e+00
577 577 4.042776583738221e+00
578 5 -1.000000000000000e+00
578 502 -1.000000000000000e+00
578 578 3.050332697754064e+00
579 39 -1.000000000000000e+00
579 214 -8.540347974947373e-05
579 228 -2.504174577521159e-02
579 554 -1.000000000000000e+00
579 579 2.057596910479924e+00
580 25 -1.000000000000000e+00
580 32 -1.000000000000000e+00
580 580 2.181183507911408e+00
581 75 -9.544919780169652e-03
581 94 -1.000000000000000e+00
581 235 -1.000000000000000e+00
581 581 4.102122785694616e+00
582 16 -1.000000000000000e+00
582 95 -1.000000000000000e+00
582 582 1.305037924600328e+01
583 103 -1.000000000000000e+00
583 105 -1.000000000000000e+00
583 260 -1.994345366253928e-02
583 583 4.025229991764219e+00
584 20 -1.000000000000000e+00
584 151 -1.652438365392701e-02
584 288 -1.000000000000000e+00
584 413 -1.792581054053653e-02
584 584 1.107625178262603e+01
585 32 -1.000000000000000e+00
585 309 -1.000000000000000e+00
585 585 5.039679458546953e+00
586 17 -1.000000000000000e+00
586 50 -1.000000000000000e+00
586 586 5.039838231917561e+00
587 8 -1.000000000000000e+00
587 143 -1.000000000000000e+00
587 587 9.031393984130219e+00
588 210 -1.000000000000000e+00
588 386 -1.000000000000000e+00
588 588 8.066621096679938e+00
589 17 -1.000000000000000e+00
589 189 -1.000000000000000e+00
589 248 -1.157871347608073e-02
589 589 6.047021961725798e+00
590 51 -1.000000000000000e+00
590 162 -8.972104352741891e-03
590 546 -1.000000000000000e+00
590 590 5.023778607677877e+00
591 424 -1.000000000000000e+00
591 582 -1.000000000000000e+00
591 591 6.022806183117908e+00
592 140 -1.000000000000000e+00
592 178 -1.000000000000000e+00
592 588 -3.217390747032695e-02
592 592 5.041048707138833e+00
593 32 -1.000000000000000e+00
593 34 -1.664322967210978e-02
593 83 -1.000000000000000e+00
593 406 -2.192018028220492e-02
593 593 2.109925145831717e+00
594 249 -1.000000000000000e+00
594 394 -1.000000000000000e+00
594 594 7.109186746349772e+00
595 149 -1.000000000000000e+00
595 512 -1.000000000000000e+00
595 595 6.055689772580884e+00
596 33 -1.000000000000000e+00
596 240 -1.000000000000000e+00
596 596 3.024642155520482e+00
597 69 -1.000000000000000e+00
597 135 -1.801036261520971e-02
597 154 -1.547027918040492e-02
597 473 -1.000000000000000e+00
597 597 8.085737935832919e+00
598 12 -1.000000000000000e+00
598 202 -1.000000000000000e+00
598 598 7.071558356137137e+00
599 19 -1.000000000000000e+00
599 297 -1.000000000000000e+00
599 352 -2.190292983054278e-02
599 599 5.048281897190164e+00
600 164 -1.000000000000000e+00
600 562 -1.000000000000000e+00
600 600 3.047929408023639e+00
601 78 -1.000000000000000e+00
601 158 -1.000000000000000e+00
601 601 1.203260621537869e+01
602 62 -1.000000000000000e+00
602 356 -1.000000000000000e+00
602 602 4.023649509923040e+00
603 16 -1.000000000000000e+00
603 103 -1.000000000000000e+00
603 603 6.038075598307956e+00
604 36 -1.000000000000000e+00
604 470 -1.000000000000000e+00
604 604 5.020221541577457e+00
605 206 -1.000000000000000e+00
605 396 -1.000000000000000e+00
605 605 7.019602276890114e+00
606 19 -1.000000000000000e+00
606 495 -4.961753559118568e-03
606 497 -1.000000000000000e+00
606 606 4.047679606042006e+00
607 245 -1.000000000000000e+00
607 393 -1.000000000000000e+00
607 607 5.038020417490331e+00
608 370 -1.000000000000000e+00
608 588 -1.000000000000000e+00
608 608 6.017352728567104e+00
609 305 -1.000000000000000e+00
609 591 -1.000000000000000e+00
609 609 2.016149084758107e+00
610 2 -1.000000000000000e+00
610 6 -1.000000000000000e+00
610 610 3.059605300389190e+00
611 44 -1.000000000000000e+00
611 50 -1.000000000000000e+00
611 611 8.018097919977528e+00
612 9 -1.000000000000000e+00
612 582 -1.000000000000000e+00
612 612 1.503588402739628e+01
613 18 -1.000000000000000e+00
613 20 -9.990564567303847e-03
613 511 -1.000000000000000e+00
613 613 5.084752369239577e+00
614 27 -1.000000000000000e+00
614 238 -1.000000000000000e+00
614 614 1.608790231357105e+01
615 222 -1.000000000000000e+00
615 363 -1.000000000000000e+00
615 615 1.505642438978038e+01
616 197 -1.000000000000000e+00
616 259 -1.000000000000000e+00
616 616 7.019366048924731e+00
617 7 -1.000000000000000e+00
617 70 -1.000000000000000e+00
617 617 7.023796701911376e+00
618 7 -1.000000000000000e+00
618 23 -1.000000000000000e+00
618 618 5.012925435191776e+00
619 1 -1.000000000000000e+00
619 141 -1.000000000000000e+00
619 619 5.041369488884786e+00
620 240 -1.000000000000000e+00
620 376 -1.000000000000000e+00
620 620 5.028797047072117e+00
621 88 -1.000000000000000e+00
621 137 -1.000000000000000e+00
621 621 3.027316128424911e+00
622 1 -1.000000000000000e+00
622 337 -1.000000000000000e+00
622 622 8.035432726698790e+00
623 182 -1.000000000000000e+00
623 304 -1.000000000000000e+00
623 623 6.031213637726178e+00
624 76 -1.000000000000000e+00
624 208 -1.000000000000000e+00
624 624 8.014905346224863e+00
625 78 -2.241125040634060e-02
625 292 -1.000000000000000e+00
625 377 -1.000000000000000e+00
625 625 9.047104474762852e+00
626 516 -1.000000000000000e+00
626 546 -1.000000000000000e+00
626 626 4.053866425594337e+00
627 30 -1.000000000000000e+00
627 70 -1.000000000000000e+00
627 627 9.048579294940305e+00
628 73 -1.000000000000000e+00
628 408 -1.000000000000000e+00
628 628 6.019866035110716e+00
629 1 -1.000000000000000e+00
629 349 -1.000000000000000e+00
629 629 6.035089409286774e+00
630 120 -1.000000000000000e+00
630 482 -1.000000000000000e+00
630 630 3.000000000000000e+00
631 17 -1.000000000000000e+00
631 65 -1.000000000000000e+00
631 173 -1.173192564056752e-02
631 631 2.024108646610450e+00
632 171 -1.000000000000000e+00
632 409 -1.000000000000000e+00
632 632 1.901513676858057e+01
633 377 -1.000000000000000e+00
633 573 -1.000000000000000e+00
633 633 2.026337808742294e+00
634 11 -1.000000000000000e+00
634 88 -1.000000000000000e+00
634 202 -2.065906427129749e-02
634 634 6.044525138937193e+00
635 5 -1.000000000000000e+00
635 273 -1.000000000000000e+00
635 635 7.008856690738570e+00
636 129 -1.000000000000000e+00
636 285 -1.000000000000000e+00
636 636 6.024173008068722e+00
637 149 -1.000000000000000e+00
637 468 -1.000000000000000e+00
637 637 7.064492413365638e+00
638 110 -1.000000000000000e+00
638 601 -1.000000000000000e+00
638 638 2.016408395379385e+00
639 12 -1.000000000000000e+00
639 50 -1.000000000000000e+00
639 639 8.027050766008637e+00
640 87 -1.015532772050721e+00
640 113 -1.000000000000000e+00
640 640 5.028535688065355e+00
641 28 -1.000000000000000e+00
641 485 -1.000000000000000e+00
641 641 7.048304822142967e+00
642 149 -1.000000000000000e+00
642 577 -1.018854502331096e+00
642 642 6.084668678299375e+00
643 338 -1.000000000000000e+00
643 627 -1.000000000000000e+00
643 643 5.004745551324623e+00
644 67 -1.000000000000000e+00
644 229 -1.000000000000000e+00
644 579 -1.534845072104510e-02
644 644 4.026381433233301e+00
645 36 -1.000000000000000e+00
645 243 -1.000000000000000e+00
645 645 7.026988780680804e+00
646 11 -1.000000000000000e+00
646 101 -1.000000000000000e+00
646 646 4.016395437529893e+00
647 44 -1.000000000000000e+00
647 51 -1.000000000000000e+00
647 647 5.021534376183141e+00
648 5 -1.000000000000000e+00
648 314 -1.000000000000000e+00
648 580 -1.787087368718242e-02
648 593 -1.776973017762361e-02
648 648 3.035640603864806e+00
649 121 -1.000000000000000e+00
649 146 -1.000000000000000e+00
649 649 3.069663806241565e+00
650 32 -1.000000000000000e+00
650 102 -1.000000000000000e+00
650 650 3.026956501930296e+00
651 141 -1.000000000000000e+00
651 522 -1.015534081827726e+00
651 651 6.020613008155970e+00
652 400 -1.000000000000000e+00
652 467 -1.000000000000000e+00
652 652 4.040683243632262e+00
653 5 -1.000000000000000e+00
653 382 -1.000000000000000e+00
653 653 8.011091493654137e+00
654 154 -1.000000000000000e+00
654 470 -1.000000000000000e+00
654 519 -1.132477479118907e-02
654 571 -1.348444290290770e-02
654 654 2.061630184256761e+00
655 83 -1.000000000000000e+00
655 427 -1.000000000000000e+00
655 655 7.023768670354489e+00
656 80 -2.343195307350123e-02
656 93 -1.000000000000000e+00
656 485 -1.000000000000000e+00
656 538 -1.285811944468358e-02
656 656 9.111356299671524e+00
657 420 -1.000000000000000e+00
657 573 -1.000000000000000e+00
657 657 8.040475613612053e+00
658 5 -1.000000000000000e+00
658 36 -1.000000000000000e+00
658 658 6.026263234234246e+00
659 182 -1.000000000000000e+00
659 278 -1.000000000000000e+00
659 659 1.203130900439078e+01
660 63 -1.000000000000000e+00
660 111 -1.000000000000000e+00
660 660 4.048741823657677e+00
661 244 -1.000000000000000e+00
661 253 -1.000000000000000e+00
661 661 1.304925698622606e+01
662 104 -1.000000000000000e+00
662 378 -1.000000000000000e+00
662 662 9.054697194648146e+00
663 341 -1.000000000000000e+00
663 560 -1.000000000000000e+00
663 663 1.801885040072405e+01
664 27 -1.000000000000000e+00
664 410 -1.000000000000000e+00
664 664 7.029415823682424e+00
665 2 -1.000000000000000e+00
665 285 -1.000000000000000e+00
665 665 9.030291829868712e+00
666 34 -1.000000000000000e+00
666 468 -1.000000000000000e+00
666 666 3.038136834251839e+00
667 17 -1.000000000000000e+00
667 96 -1.000000000000000e+00
667 220 -1.597659557740591e-02
667 667 4.053510682632267e+00
668 111 -1.000000000000000e+00
668 657 -1.000000000000000e+00
668 668 7.035891346206795e+00
669 24 -1.000000000000000e+00
669 238 -1.000000000000000e+00
669 669 4.032804894493789e+00
670 54 -1.000000000000000e+00
670 344 -1.000000000000000e+00
670 670 5.016167156847187e+00
671 101 -1.000000000000000e+00
671 131 -1.000000000000000e+00
671 671 3.024761261313948e+00
672 161 -1.000000000000000e+00
672 235 -1.000000000000000e+00
672 672 5.028293646448899e+00
673 51 -1.000000000000000e+00
673 455 -3.513068579421918e-02
673 570 -1.000000000000000e+00
673 673 6.072026944666836e+00
674 16 -1.000000000000000e+00
674 44 -1.000000000000000e+00
674 674 2.003688693649260e+01
675 43 -1.000000000000000e+00
675 241 -1.000000000000000e+00
675 675 6.046856201448912e+00
676 50 -1.000000000000000e+00
676 175 -1.000000000000000e+00
676 676 6.052405878582925e+00
677 5 -1.000000000000000e+00
677 511 -1.000000000000000e+00
677 677 7.008620660535192e+00
678 138 -1.000000000000000e+00
678 286 -1.000000000000000e+00
678 678 6.002879739941102e+00
679 5 -1.000000000000000e+00
679 26 -1.000000000000000e+00
679 679 1.602902899640474e+01
680 181 -1.000000000000000e+00
680 259 -1.000000000000000e+00
680 509 -4.054591146933817e-03
680 680 7.051621261662440e+00
681 115 -1.000000000000000e+00
681 679 -1.000000000000000e+00
681 681 2.115188500573573e+00
682 2 -1.000000000000000e+00
682 137 -1.000000000000000e+00
682 682 1.801791273363855e+01
683 1 -1.000000000000000e+00
683 247 -1.373862470832252e-02
683 369 -1.014453691156084e+00
683 683 3.028192315864406e+00
684 246 -1.000000000000000e+00
684 605 -1.000000000000000e+00
684 684 7.008032218538482e+00
685 1 -1.000000000000000e+00
685 334 -1.000000000000000e+00
685 685 2.056564409525461e+00
686 5 -1.000000000000000e+00
686 274 -1.000000000000000e+00
686 373 -1.890345561742767e-02
686 686 3.036905413418074e+00
687 56 -1.000000000000000e+00
687 132 -1.000000000000000e+00
687 687 5.033760618528547e+00
688 157 -1.015811176558757e+00
688 541 -1.000000000000000e+00
688 688 6.052861027175727e+00
689 2 -1.000000000000000e+00
689 16 -1.000000000000000e+00
689 689 6.042661611389852e+00
690 197 -1.000000000000000e+00
690 490 -1.000000000000000e+00
690 690 5.051156805958086e+00
691 373 -1.000000000000000e+00
691 528 -1.000000000000000e+00
691 691 4.041106579740068e+00
692 114 -1.014147776294004e+00
692 366 -4.804457933809096e-03
692 610 -1.000000000000000e+00
692 692 2.048359445880986e+00
693 465 -1.000000000000000e+00
693 518 -1.000000000000000e+00
693 693 5.026428586278530e+00
694 229 -1.000000000000000e+00
694 632 -1.000000000000000e+00
694 694 3.000000000000000e+00
695 16 -1.000000000000000e+00
695 677 -1.005787185979731e+00
695 695 6.033801497636608e+00
696 311 -1.000000000000000e+00
696 536 -1.000000000000000e+00
696 696 2.037071293775026e+00
697 49 -1.000000000000000e+00
697 661 -1.000000000000000e+00
697 697 6.018501629695732e+00
698 5 -1.000000000000000e+00
698 34 -1.000000000000000e+00
698 698 3.055056289269590e+00
699 4 -1.000000000000000e+00
699 173 -1.000000000000000e+00
699 699 5.026368840319098e+00
700 113 -1.000000000000000e+00
700 439 -1.000000000000000e+00
700 700 7.040575573856397e+00
701 9 -1.000000000000000e+00
701 63 -1.000000000000000e+00
701 701 5.021179720703264e+00
702 70 -1.000000000000000e+00
702 85 -1.000000000000000e+00
702 92 -1.912464293453795e-02
702 702 5.039891988402178e+00
703 69 -1.228081926576048e-02
703 332 -1.000000000000000e+00
703 625 -1.000000000000000e+00
703 703 3.038766801687149e+00
704 46 -1.000000000000000e+00
704 154 -1.000000000000000e+00
704 704 4.020909425241737e+00
705 49 -1.000000000000000e+00
705 284 -1.019470696421022e+00
705 705 4.063551672075902e+00
706 141 -1.000000000000000e+00
706 149 -1.000000000000000e+00
706 706 5.043312965889139e+00
707 24 -1.547589560253472e-02
707 62 -1.000000000000000e+00
707 564 -1.000000000000000e+00
707 669 -1.922409170202661e-02
707 707 2.081737299227447e+00
708 50 -1.000000000000000e+00
708 335 -1.000000000000000e+00
708 708 7.019099826294213e+00
709 304 -1.000000000000000e+00
709 614 -1.000000000000000e+00
709 709 3.016427471006894e+00
710 304 -1.000000000000000e+00
710 467 -1.002295162988577e+00
710 710 3.088105937229777e+00
711 520 -1.000000000000000e+00
711 622 -1.000000000000000e+00
711 711 9.023760116609814e+00
712 104 -1.000000000000000e+00
712 443 -1.000000000000000e+00
712 712 3.000000000000000e+00
713 28 -1.000000000000000e+00
713 51 -1.000000000000000e+00
713 713 2.076954054081726e+00
714 567 -1.000000000000000e+00
714 669 -1.000000000000000e+00
714 714 9.046819618226237e+00
715 66 -1.000000000000000e+00
715 296 -1.000000000000000e+00
715 715 8.027454884879935e+00
716 7 -1.000000000000000e+00
716 236 -1.000000000000000e+00
716 409 -1.192361828937964e-02
716 716 4.129857396529868e+00
717 10 -1.000000000000000e+00
717 426 -1.000000000000000e+00
717 717 4.043100470275827e+00
718 159 -1.000000000000000e+00
718 320 -1.000000000000000e+00
718 467 -1.842148011444838e-02
718 710 -2.892508417211762e-04
718 718 7.018710730956170e+00
719 5 -1.000000000000000e+00
719 428 -1.000000000000000e+00
719 462 -7.599200364836038e-03
719 719 4.012950565457767e+00
720 115 -1.000000000000000e+00
720 329 -1.000000000000000e+00
720 720 5.040917436683033e+00
721 4 -2.131852278585680e-02
721 115 -1.000000000000000e+00
721 605 -1.000000000000000e+00
721 721 2.114252515567042e+00
722 57 -1.000000000000000e+00
722 128 -1.000000000000000e+00
722 722 1.902637416365403e+01
723 88 -1.000000000000000e+00
723 149 -1.000000000000000e+00
723 723 8.037364755203402e+00
724 71 -1.000000000000000e+00
724 488 -1.018983007181780e+00
724 724 3.022500340300455e+00
725 11 -1.000000000000000e+00
725 70 -1.000000000000000e+00
725 725 4.032767081994368e+00
726 34 -1.000000000000000e+00
726 228 -1.000000000000000e+00
726 726 3.036232767784761e+00
727 101 -1.000000000000000e+00
727 384 -1.000000000000000e+00
727 727 6.014996542431382e+00
728 26 -1.000000000000000e+00
728 572 -1.000000000000000e+00
728 728 1.003750960548167e+01
729 46 -1.000000000000000e+00
729 600 -4.623933545110083e-03
729 603 -1.000000000000000e+00
729 729 1.001173421280382e+01
730 5 -1.000000000000000e+00
730 340 -1.000000000000000e+00
730 730 3.080379741438461e+00
731 2 -1.000000000000000e+00
731 34 -1.022988324430133e+00
731 580 -1.802415042566897e-02
731 731 7.155645452323542e+00
732 50 -1.000000000000000e+00
732 423 -1.000000000000000e+00
732 732 3.035673384888571e+00
733 67 -1.000000000000000e+00
733 246 -1.000000000000000e+00
733 386 -1.838246664675803e-02
733 733 4.038523270674555e+00
734 55 -1.000000000000000e+00
734 297 -1.000000000000000e+00
734 734 7.016465092099422e+00
735 322 -1.000000000000000e+00
735 617 -1.000000000000000e+00
735 735 5.016240344149472e+00
736 11 -1.000000000000000e+00
736 356 -1.000000000000000e+00
736 736 6.006807059122842e+00
737 522 -1.000000000000000e+00
737 594 -1.000000000000000e+00
737 737 4.030253996250478e+00
738 69 -1.000000000000000e+00
738 220 -1.000000000000000e+00
738 484 -2.333011085553303e-02
738 738 4.045983559134577e+00
739 43 -1.000000000000000e+00
739 246 -2.989694801534617e-02
739 496 -1.000000000000000e+00
739 739 8.080200646779790e+00
740 113 -1.000000000000000e+00
740 232 -1.000000000000000e+00
740 740 5.066836522880439e+00
741 361 -1.000000000000000e+00
741 481 -8.999292615909138e-04
741 572 -1.000000000000000e+00
741 741 7.014555503940466e+00
742 28 -1.000000000000000e+00
742 120 -1.000000000000000e+00
742 291 -2.193137973253828e-02
742 563 -5.067884963347475e-03
742 742 9.026999264695887e+00
743 220 -1.000000000000000e+00
743 590 -1.000000000000000e+00
743 743 4.065858660460186e+00
744 55 -1.000000000000000e+00
744 234 -1.000000000000000e+00
744 653 -1.054804584286994e-02
744 744 7.020733589494072e+00
745 182 -2.436029028177740e-02
745 395 -1.000000000000000e+00
745 526 -1.000000000000000e+00
745 639 -1.000000000000000e+00
745 745 5.118664155753878e+00
746 17 -1.000000000000000e+00
746 191 -1.426971075247649e-02
746 229 -1.000000000000000e+00
746 746 4.065070328506945e+00
747 83 -1.000000000000000e+00
747 244 -1.000000000000000e+00
747 747 9.039766950862473e+00
748 29 -1.000000000000000e+00
748 546 -2.778167650646855e-02
748 626 -1.000000000000000e+00
748 748 4.065315375883331e+00
749 51 -1.000000000000000e+00
749 241 -1.748944355746729e-02
749 676 -1.000000000000000e+00
749 749 2.042575642143846e+00
750 32 -1.000000000000000e+00
750 276 -1.000000000000000e+00
750 750 3.001745045120732e+00
751 187 -1.000000000000000e+00
751 282 -1.000000000000000e+00
751 322 -6.267468260861482e-03
751 751 5.013098544602261e+00
752 7 -1.000000000000000e+00
752 277 -2.404384029192686e-02
752 722 -1.000000000000000e+00
752 752 3.063389334529195e+00
753 104 -1.000000000000000e+00
753 350 -1.000000000000000e+00
753 753 4.002020384905317e+00
754 4 -1.000000000000000e+00
754 92 -1.321495689838971e-02
754 188 -1.000000000000000e+00
754 617 -1.519060008662633e-02
754 754 3.057207536982107e+00
755 19 -1.258039886605646e-02
755 53 -1.957231564063616e-02
755 149 -1.000000000000000e+00
755 582 -1.014427381028915e+00
755 755 6.085661152628262e+00
756 50 -1.000000000000000e+00
756 151 -1.000000000000000e+00
756 756 5.094652522209548e+00
757 16 -1.000000000000000e+00
757 141 -1.000000000000000e+00
757 757 3.028495443338042e+00
758 6 -1.000000000000000e+00
758 141 -1.000000000000000e+00
758 322 -1.849804014586274e-02
758 758 1.002457480813857e+01
759 96 -1.000000000000000e+00
759 282 -1.000000000000000e+00
759 759 1.004477416662600e+01
760 40 -1.000000000000000e+00
760 145 -1.000000000000000e+00
760 760 4.033914939966773e+00
761 432 -1.000000000000000e+00
761 467 -1.000000000000000e+00
761 761 4.073973879759418e+00
762 36 -1.000000000000000e+00
762 279 -8.774400492337396e-03
762 291 -1.000000000000000e+00
762 762 8.024405577394850e+00
763 282 -1.031567078047979e+00
763 381 -1.000000000000000e+00
763 763 2.054226932834359e+00
764 50 -1.000000000000000e+00
764 727 -1.464962590751098e-02
764 741 -1.000000000000000e+00
764 764 6.058006452426574e+00
765 20 -1.000000000000000e+00
765 613 -1.029758764360691e+00
765 765 3.060336001307546e+00
766 56 -1.000000000000000e+00
766 89 -1.000000000000000e+00
766 766 9.032433577265918e+00
767 7 -1.000000000000000e+00
767 36 -1.000000000000000e+00
767 767 5.044621871929448e+00
768 53 -1.000000000000000e+00
768 635 -1.000000000000000e+00
768 768 5.043448055387851e+00
769 86 -1.000000000000000e+00
769 465 -1.000000000000000e+00
769 769 7.005798529635802e+00
770 281 -1.000000000000000e+00
770 456 -1.016883538751261e+00
770 770 3.016883538751261e+00
771 22 -1.000000000000000e+00
771 680 -1.000000000000000e+00
771 771 3.006336287172025e+00
772 150 -1.000000000000000e+00
772 624 -1.000000000000000e+00
772 772 8.030425947556965e+00
773 250 -1.000000000000000e+00
773 455 -1.000000000000000e+00
773 773 7.090838514793987e+00
774 223 -1.000000000000000e+00
774 282 -1.000000000000000e+00
774 774 7.064279342551001e+00
775 119 -1.000000000000000e+00
775 354 -1.000000000000000e+00
775 527 -1.000000000000000e+00
775 775 7.016494576262147e+00
776 61 -1.000000000000000e+00
776 148 -1.000000000000000e+00
776 776 3.000000000000000e+00
777 116 -1.000000000000000e+00
777 236 -1.000000000000000e+00
777 777 4.013012089890046e+00
778 661 -1.000000000000000e+00
778 697 -1.002127827149975e+00
778 778 2.026307655344821e+00
779 6 -1.000000000000000e+00
779 242 -1.000000000000000e+00
779 311 -2.099126114694242e-02
779 779 4.036703115645838e+00
780 274 -1.000000000000000e+00
780 542 -1.000000000000000e+00
780 780 1.307022597068338e+01
781 49 -1.000000000000000e+00
781 225 -1.481524390791807e-02
781 318 -1.000000000000000e+00
781 498 -1.992690856105082e-02
781 781 6.045231327394405e+00
782 228 -1.000000000000000e+00
782 407 -1.000000000000000e+00
782 782 8.051169183024676e+00
783 11 -1.000000000000000e+00
783 447 -1.632218462740958e-02
783 616 -1.000000000000000e+00
783 783 6.028319534186610e+00
784 10 -1.000000000000000e+00
784 78 -1.000000000000000e+00
784 782 -2.938051093111786e-02
784 784 2.061380570285506e+00
785 191 -1.000000000000000e+00
785 311 -1.000000000000000e+00
785 785 3.044834684337956e+00
786 143 -1.000000000000000e+00
786 746 -1.758916120458916e-02
786 785 -1.000000000000000e+00
786 786 5.032750268038119e+00
787 12 -1.000000000000000e+00
787 264 -1.000000000000000e+00
787 787 9.005629260882046e+00
788 125 -1.000000000000000e+00
788 338 -1.000000000000000e+00
788 390 -2.695561147162503e-02
788 788 4.339312707083320e+00
789 10 -1.000000000000000e+00
789 28 -1.000000000000000e+00
789 789 5.044463088209984e+00
790 443 -1.000000000000000e+00
790 681 -1.303728018360579e-02
790 767 -1.000000000000000e+00
790 790 4.014715016842096e+00
791 15 -1.000000000000000e+00
791 182 -1.000000000000000e+00
791 698 -3.234222359773058e-02
791 791 8.067449618729778e+00
792 1 -1.000000000000000e+00
792 165 -1.500673556990729e-02
792 470 -1.000000000000000e+00
792 792 4.066780743289410e+00
793 238 -1.000000000000000e+00
793 723 -1.000000000000000e+00
793 793 5.036406013610947e+00
794 278 -1.000000000000000e+00
794 349 -1.000000000000000e+00
794 794 4.024888412512752e+00
795 132 -1.000000000000000e+00
795 365 -1.000000000000000e+00
795 795 7.053763111325667e+00
796 76 -1.011770477668898e+00
796 113 -1.709991957677223e-02
796 409 -1.000000000000000e+00
796 471 -2.031422355088182e-02
796 796 3.151410768219653e+00
797 2 -1.000000000000000e+00
797 562 -2.482032094193612e-02
797 762 -1.000000000000000e+00
797 797 6.044216900566988e+00
798 17 -1.000000000000000e+00
798 449 -1.000000000000000e+00
798 798 1.011432198854393e+01
799 82 -1.000000000000000e+00
799 473 -1.000000000000000e+00
799 799 1.102127007844795e+01
800 323 -1.000000000000000e+00
800 592 -1.000000000000000e+00
800 800 8.037587146197177e+00
801 442 -1.000000000000000e+00
801 546 -1.000000000000000e+00
801 801 3.030511140721813e+00
802 293 -1.124556845277788e-02
802 362 -1.000000000000000e+00
802 729 -1.000000000000000e+00
802 802 2.043671275239263e+00
803 430 -1.000000000000000e+00
803 658 -1.000000000000000e+00
803 803 3.000000000000000e+00
804 12 -1.000000000000000e+00
804 120 -1.000000000000000e+00
804 804 3.000000000000000e+00
805 5 -1.000000000000000e+00
805 400 -4.395889219167281e-03
805 417 -1.003433977716615e+00
805 805 5.013001518418328e+00
806 178 -1.000000000000000e+00
806 335 -1.000000000000000e+00
806 806 4.043147612302485e+00
807 91 -1.000000000000000e+00
807 635 -1.000000000000000e+00
807 807 1.004378869202787e+01
808 357 -1.772363623594296e-02
808 373 -1.000000000000000e+00
808 614 -1.000000000000000e+00
808 808 2.115731721536113e+00
809 5 -1.000000000000000e+00
809 28 -1.000000000000000e+00
809 809 3.007457862956832e+00
810 2 -1.000000000000000e+00
810 7 -1.000000000000000e+00
810 810 3.000000000000000e+00
811 26 -1.000000000000000e+00
811 274 -1.448275801898931e-02
811 497 -1.000000000000000e+00
811 811 7.041717581293550e+00
812 207 -1.000000000000000e+00
812 403 -8.904085060473153e-03
812 539 -1.000000000000000e+00
812 595 -2.903463401879043e-02
812 812 2.057428269081796e+00
813 48 -1.000000000000000e+00
813 50 -1.000000000000000e+00
813 83 -1.000000000000000e+00
813 813 7.098196989004175e+00
814 320 -1.000000000000000e+00
814 766 -1.000000000000000e+00
814 814 1.102078454185170e+01
815 229 -1.000000000000000e+00
815 350 -1.000000000000000e+00
815 815 4.051234317991157e+00
816 117 -1.000000000000000e+00
816 800 -1.000000000000000e+00
816 816 6.020001212828046e+00
817 5 -1.000000000000000e+00
817 44 -1.000000000000000e+00
817 533 -2.123475334147396e-02
817 817 7.199351917602684e+00
818 141 -1.000000000000000e+00
818 514 -2.167923268283733e-03
818 525 -1.000000000000000e+00
818 818 1.101345623370533e+01
819 119 -1.000000000000000e+00
819 304 -1.000000000000000e+00
819 819 7.032086781169781e+00
820 201 -1.000000000000000e+00
820 211 -1.000000000000000e+00
820 820 7.034969687279543e+00
821 202 -1.463186110297271e-02
821 212 -1.000000000000000e+00
821 360 -1.000000000000000e+00
821 797 -1.000000000000000e+00
821 821 4.049745764948695e+00
822 362 -1.000000000000000e+00
822 747 -1.000000000000000e+00
822 822 4.010289285693046e+00
823 50 -1.033696152505980e+00
823 663 -1.000000000000000e+00
823 823 1.105351128659153e+01
824 68 -1.000000000000000e+00
824 244 -1.000000000000000e+00
824 824 4.003252901758753e+00
825 152 -1.000000000000000e+00
825 177 -1.000000000000000e+00
825 825 4.037739398995525e+00
826 2 -1.000000000000000e+00
826 180 -1.000000000000000e+00
826 826 7.009568079038637e+00
827 159 -1.000000000000000e+00
827 202 -1.286385294644686e-02
827 619 -1.000000000000000e+00
827 827 2.126907839338312e+00
828 318 -1.000000000000000e+00
828 542 -1.000000000000000e+00
828 828 4.057320679364389e+00
829 44 -1.000000000000000e+00
829 65 -1.000000000000000e+00
829 829 3.017338609998221e+00
830 72 -1.000000000000000e+00
830 278 -1.000000000000000e+00
830 830 4.004454963214247e+00
831 11 -1.000000000000000e+00
831 508 -1.018671111546395e+00
831 831 6.019846996651552e+00
832 2 -1.000000000000000e+00
832 775 -1.000000000000000e+00
832 832 4.015718937917634e+00
833 32 -1.000000000000000e+00
833 49 -1.000000000000000e+00
833 833 7.016485072576094e+00
834 240 -1.000000000000000e+00
834 462 -1.000000000000000e+00
834 757 -1.480000814748283e-02
834 834 1.402495083497404e+01
835 235 -1.000000000000000e+00
835 439 -1.000000000000000e+00
835 835 6.018912415921837e+00
836 253 -1.015489743435108e+00
836 653 -1.000000000000000e+00
836 836 2.035336199872138e+00
837 333 -1.000000000000000e+00
837 642 -1.019926598256106e+00
837 837 5.066899027146840e+00
838 36 -1.000000000000000e+00
838 326 -1.000000000000000e+00
838 838 4.000000000000000e+00
839 80 -1.000000000000000e+00
839 157 -1.000000000000000e+00
839 839 3.042142920540430e+00
840 10 -1.000000000000000e+00
840 72 -1.011615901579725e+00
840 840 5.073575593489744e+00
841 455 -1.000000000000000e+00
841 649 -1.000000000000000e+00
841 841 4.029857873536671e+00
842 241 -1.000000000000000e+00
842 525 -1.000000000000000e+00
842 575 -9.287386201108496e-03
842 842 5.035931695172622e+00
843 102 -1.000000000000000e+00
843 608 -1.000000000000000e+00
843 843 2.022392850285237e+00
844 49 -2.427242789418791e-03
844 60 -1.000000000000000e+00
844 174 -1.000000000000000e+00
844 623 -1.774440223083156e-02
844 795 -6.113299493371145e-04
844 844 5.107765771188205e+00
845 78 -1.000000000000000e+00
845 522 -1.000000000000000e+00
845 845 5.048241538417459e+00
846 320 -1.000000000000000e+00
846 475 -1.000000000000000e+00
846 846 2.009270979670164e+00
847 41 -1.000000000000000e+00
847 465 -1.000000000000000e+00
847 517 -1.000000000000000e+00
847 847 6.031122306361239e+00
848 7 -1.000000000000000e+00
848 380 -1.000000000000000e+00
848 848 4.010445494191304e+00
849 81 -1.000000000000000e+00
849 296 -1.000000000000000e+00
849 587 -1.527738920426265e-02
849 849 1.103297664438058e+01
850 17 -1.000000000000000e+00
850 52 -1.096056080199119e-02
850 88 -1.000000000000000e+00
850 341 -1.000000000000000e+00
850 850 1.115836876173264e+01
851 44 -1.000000000000000e+00
851 341 -1.238685775552863e-02
851 632 -1.000000000000000e+00
851 851 4.033382772138558e+00
852 159 -9.727530263827239e-03
852 331 -1.000000000000000e+00
852 396 -1.000000000000000e+00
852 637 -1.038168206162417e-02
852 852 4.020109212325451e+00
853 69 -1.000000000000000e+00
853 476 -1.000000000000000e+00
853 853 1.006106539123259e+01
854 570 -1.000000000000000e+00
854 717 -1.268843787554682e-02
854 813 -1.000000000000000e+00
854 854 8.068972779320807e+00
855 1 -1.000000000000000e+00
855 759 -1.000000000000000e+00
855 855 4.044931805867729e+00
856 463 -1.000000000000000e+00
856 775 -1.000000000000000e+00
856 856 3.021113100128706e+00
857 344 -1.000000000000000e+00
857 386 -1.000000000000000e+00
857 857 5.049404136989816e+00
858 45 -1.000000000000000e+00
858 195 -1.000000000000000e+00
858 858 3.045885055589280e+00
859 220 -1.000000000000000e+00
859 622 -1.000000000000000e+00
859 859 7.045535624056025e+00
860 32 -1.000000000000000e+00
860 138 -1.000000000000000e+00
860 860 6.026520543689164e+00
861 27 -1.000000000000000e+00
861 296 -1.000000000000000e+00
861 861 1.106771577004661e+01
862 32 -1.000000000000000e+00
862 108 -1.000000000000000e+00
862 862 5.045373572191400e+00
863 32 -1.000000000000000e+00
863 354 -1.000000000000000e+00
863 863 3.078322273219561e+00
864 51 -1.000000000000000e+00
864 55 -1.000000000000000e+00
864 761 -1.894463640626819e-02
864 864 5.058268445833872e+00
865 519 -1.000000000000000e+00
865 664 -1.000000000000000e+00
865 865 3.023432679343953e+00
866 6 -1.000000000000000e+00
866 179 -1.000000000000000e+00
866 866 4.040631196298191e+00
867 256 -1.000000000000000e+00
867 727 -1.000000000000000e+00
867 867 4.016869824688847e+00
868 40 -1.000000000000000e+00
868 358 -1.362887308563700e-02
868 452 -1.000000000000000e+00
868 739 -2.476867175329809e-02
868 868 5.161274092103277e+00
869 240 -1.000000000000000e+00
869 539 -1.000000000000000e+00
869 869 3.039635469724582e+00
870 30 -1.000000000000000e+00
870 165 -1.000000000000000e+00
870 870 7.016872299852271e+00
871 375 -1.000000000000000e+00
871 384 -1.000000000000000e+00
871 871 1.503719950593404e+01
872 292 -1.000000000000000e+00
872 399 -1.000000000000000e+00
872 872 5.041206867702598e+00
873 409 -1.000000000000000e+00
873 421 -1.000000000000000e+00
873 873 3.027026778151084e+00
874 34 -1.000000000000000e+00
874 44 -1.000000000000000e+00
874 874 4.026191164869082e+00
875 56 -1.000000000000000e+00
875 266 -2.196457754677392e-02
875 363 -1.000000000000000e+00
875 875 4.064466415356492e+00
876 121 -1.000000000000000e+00
876 497 -1.000000000000000e+00
876 876 6.030471044171501e+00
877 345 -1.000000000000000e+00
877 665 -1.000000000000000e+00
877 877 5.023146008059481e+00
878 46 -1.000000000000000e+00
878 340 -1.000000000000000e+00
878 878 3.028205116330568e+00
879 4 -1.951575630428622e-02
879 99 -1.000000000000000e+00
879 264 -1.000000000000000e+00
879 879 3.030871367935197e+00
880 398 -1.000000000000000e+00
880 607 -1.206648532527302e-02
880 697 -1.000000000000000e+00
880 880 5.012506671280323e+00
881 8 -2.552170597344398e-02
881 163 -1.000000000000000e+00
881 293 -1.000000000000000e+00
881 715 -1.016587505104176e-02
881 881 2.086379381393993e+00
882 234 -1.000000000000000e+00
882 363 -1.000000000000000e+00
882 882 7.033323069128578e+00
883 43 -1.000000000000000e+00
883 376 -1.000000000000000e+00
883 883 3.034327014587849e+00
884 70 -1.000000000000000e+00
884 156 -1.000000000000000e+00
884 884 1.101433211632932e+01
885 11 -1.000000000000000e+00
885 599 -1.000000000000000e+00
885 885 5.037774880308588e+00
886 147 -1.000000000000000e+00
886 682 -1.000000000000000e+00
886 886 3.000000000000000e+00
887 81 -1.000267277622471e+00
887 320 -1.000000000000000e+00
887 887 3.001106110268805e+00
888 159 -1.000000000000000e+00
888 674 -1.000000000000000e+00
888 888 3.000000000000000e+00
889 115 -1.000000000000000e+00
889 356 -1.000000000000000e+00
889 602 -2.249250091918670e-02
889 889 2.048814182319663e+00
890 25 -1.000000000000000e+00
890 168 -1.697554065064032e-02
890 582 -1.000000000000000e+00
890 890 2.035542029995690e+00
891 89 -1.000000000000000e+00
891 728 -1.000000000000000e+00
891 891 3.024500613731680e+00
892 86 -1.000000000000000e+00
892 202 -1.000000000000000e+00
892 476 -2.190516443895341e-02
892 892 5.072946802522587e+00
893 388 -1.002419805261606e+00
893 661 -1.000000000000000e+00
893 893 1.002938298644450e+01
894 175 -1.000000000000000e+00
894 319 -1.631375983451949e-02
894 813 -1.000000000000000e+00
894 894 2.351640736174471e+00
895 133 -1.000000000000000e+00
895 835 -1.000000000000000e+00
895 895 3.002556658862602e+00
896 2 -1.000000000000000e+00
896 722 -1.000000000000000e+00
896 896 9.050898874695427e+00
897 370 -2.699573518098076e-02
897 759 -1.000000000000000e+00
897 851 -1.000000000000000e+00
897 897 5.040334830566119e+00
898 1 -1.000000000000000e+00
898 43 -1.000000000000000e+00
898 704 -1.000000000000000e+00
898 898 5.020249965905280e+00
899 98 -1.000000000000000e+00
899 664 -1.000000000000000e+00
899 899 2.070073038461325e+00
900 436 -1.000000000000000e+00
900 689 -1.000000000000000e+00
900 900 6.034975985609310e+00
901 66 -1.995623543268399e-02
901 373 -1.000000000000000e+00
901 523 -1.000000000000000e+00
901 901 7.056286062834685e+00
902 21 -1.000000000000000e+00
902 253 -1.000000000000000e+00
902 902 2.058242395661507e+00
903 7 -1.000000000000000e+00
903 187 -1.000000000000000e+00
903 903 7.075368115840917e+00
904 210 -1.000000000000000e+00
904 352 -1.000000000000000e+00
904 445 -2.275210675163881e-02
904 850 -1.555740798287137e-02
904 903 -1.738340216241620e-02
904 904 5.198055197685925e+00
905 280 -3.664429213629582e-03
905 500 -1.019091970410285e+00
905 787 -1.000000000000000e+00
905 905 3.044776752596739e+00
906 199 -1.000000000000000e+00
906 234 -1.000000000000000e+00
906 906 1.505037761077498e+01
907 143 -1.000000000000000e+00
907 161 -1.000000000000000e+00
907 907 9.015192281208114e+00
908 33 -1.000000000000000e+00
908 305 -1.016986176705224e+00
908 908 1.102547052267476e+01
909 2 -1.000000000000000e+00
909 867 -1.010381634700404e+00
909 909 3.029585895998875e+00
910 106 -1.011929651538199e+00
910 522 -1.000000000000000e+00
910 676 -2.357071388652158e-02
910 910 3.040852218194088e+00
911 470 -1.000000000000000e+00
911 519 -1.380097094756871e-02
911 526 -1.000000000000000e+00
911 555 -1.000000000000000e+00
911 654 -4.793373942442811e-03
911 882 -8.997320382345490e-03
911 911 6.027591665272357e+00
912 96 -1.000000000000000e+00
912 195 -1.000000000000000e+00
912 912 6.020996902542639e+00
913 1 -1.000000000000000e+00
913 907 -1.000000000000000e+00
913 913 6.106928730524662e+00
914 2 -3.885906505216691e-02
914 41 -1.000000000000000e+00
914 680 -1.000000000000000e+00
914 914 8.084003190777555e+00
915 347 -1.000000000000000e+00
915 436 -1.000000000000000e+00
915 915 4.005319203789623e+00
916 483 -1.842649030826197e-02
916 635 -1.000000000000000e+00
916 787 -1.000000000000000e+00
916 916 4.048926759112009e+00
917 45 -1.000000000000000e+00
917 614 -1.000000000000000e+00
917 917 7.044934142342291e+00
918 160 -1.000000000000000e+00
918 388 -1.000000000000000e+00
918 918 4.010936739181007e+00
919 28 -1.000000000000000e+00
919 70 -1.000000000000000e+00
919 737 -2.582365557329344e-03
919 919 9.028631015693142e+00
920 104 -1.000000000000000e+00
920 813 -1.000000000000000e+00
920 920 4.034284046770237e+00
921 642 -1.000000000000000e+00
921 792 -1.000000000000000e+00
921 921 8.066103809313573e+00
922 72 -2.325527495134061e-02
922 172 -1.000000000000000e+00
922 508 -1.000000000000000e+00
922 922 6.064343681032307e+00
923 206 -1.000000000000000e+00
923 359 -1.155286583195718e-02
923 572 -1.000000000000000e+00
923 923 7.030469396930743e+00
924 47 -1.000000000000000e+00
924 423 -1.000000000000000e+00
924 924 7.033460307205639e+00
925 87 -1.000000000000000e+00
925 695 -1.000000000000000e+00
925 925 3.004981557190798e+00
926 12 -1.000000000000000e+00
926 739 -1.000000000000000e+00
926 926 9.034638121926152e+00
927 73 -1.000000000000000e+00
927 457 -1.000000000000000e+00
927 800 -1.012021666388166e+00
927 927 5.047187689283926e+00
928 294 -1.000000000000000e+00
928 455 -1.000000000000000e+00
928 928 6.037410165070725e+00
929 769 -1.000000000000000e+00
929 805 -1.000000000000000e+00
929 929 1.104384571127490e+01
930 242 -1.000000000000000e+00
930 462 -1.016933133841952e+00
930 930 3.038352696959383e+00
931 247 -1.000000000000000e+00
931 549 -1.000000000000000e+00
931 627 -1.716070638825136e-02
931 931 1.003357177848460e+01
932 11 -1.000000000000000e+00
932 319 -1.000000000000000e+00
932 932 2.073090445541855e+00
933 18 -1.000000000000000e+00
933 178 -1.000000000000000e+00
933 933 7.019611077942463e+00
934 195 -1.000000000000000e+00
934 928 -1.000000000000000e+00
934 934 5.017000047170699e+00
935 201 -1.000000000000000e+00
935 379 -1.000000000000000e+00
935 935 7.032963010389301e+00
936 143 -1.000000000000000e+00
936 697 -1.000000000000000e+00
936 936 6.023893512307968e+00
937 2 -1.000000000000000e+00
937 337 -1.656399480022895e-02
937 475 -1.000000000000000e+00
937 937 5.072585229552899e+00
938 291 -1.000000000000000e+00
938 790 -1.000000000000000e+00
938 938 8.026706480599460e+00
939 252 -1.021194438528563e+00
939 799 -1.000000000000000e+00
939 939 3.036220849267473e+00
940 475 -1.000000000000000e+00
940 517 -1.000000000000000e+00
940 940 7.036925674253403e+00
941 168 -1.000000000000000e+00
941 431 -1.000000000000000e+00
941 941 6.061684581944327e+00
942 80 -1.000000000000000e+00
942 206 -1.000000000000000e+00
942 942 4.058477045037438e+00
943 1 -1.000000000000000e+00
943 663 -1.000000000000000e+00
943 943 4.039413697017755e+00
944 144 -1.000000000000000e+00
944 693 -1.799684808802425e-02
944 876 -1.156692386897907e-02
944 896 -1.000000000000000e+00
944 944 3.031248458230103e+00
945 32 -1.000000000000000e+00
945 84 -2.428662966580485e-02
945 103 -1.000000000000000e+00
945 126 -1.971697150952812e-02
945 945 4.069981963165224e+00
946 33 -1.000000000000000e+00
946 659 -1.000000000000000e+00
946 946 6.042850589945438e+00
947 1 -1.000000000000000e+00
947 570 -1.000000000000000e+00
947 947 3.058125590625887e+00
948 1 -1.000000000000000e+00
948 34 -1.000000000000000e+00
948 202 -6.224260355291821e-03
948 948 4.046653129335703e+00
949 2 -1.000000000000000e+00
949 158 -4.251438839935113e-04
949 539 -1.000000000000000e+00
949 638 -2.697494625551519e-03
949 673 -6.021757284093716e-03
949 949 6.047946121793739e+00
950 130 -1.000000000000000e+00
950 874 -1.000000000000000e+00
950 938 -1.698242329249479e-02
950 950 4.065650402800966e+00
951 88 -1.000000000000000e+00
951 123 -7.931252572966653e-03
951 294 -1.000000000000000e+00
951 951 7.020339814900121e+00
952 3 -1.000000000000000e+00
952 78 -1.000000000000000e+00
952 167 -1.005006068796707e-02
952 272 -1.444702205964178e-02
952 583 -1.005286538101679e+00
952 952 3.096590925295184e+00
953 16 -1.000000000000000e+00
953 233 -1.000000000000000e+00
953 820 -2.114035644557823e-02
953 953 2.030602672725780e+00
954 242 -1.000000000000000e+00
954 528 -1.000000000000000e+00
954 954 5.028791636892799e+00
955 153 -1.000000000000000e+00
955 348 -1.817302183098239e-02
955 853 -1.000000000000000e+00
955 955 1.002932027081756e+01
956 96 -1.016355644813043e+00
956 450 -1.000000000000000e+00
956 912 -1.727764924957137e-02
956 956 4.033633294062614e+00
957 92 -1.000000000000000e+00
957 379 -1.000000000000000e+00
957 407 -1.152108393060842e-02
957 957 4.052675673983051e+00
958 80 -1.000000000000000e+00
958 464 -1.000000000000000e+00
958 490 -1.000000000000000e+00
958 656 -1.493969218595925e-02
958 958 4.090423784780536e+00
959 360 -1.000000000000000e+00
959 908 -1.000000000000000e+00
959 959 2.015042496485428e+00
960 7 -1.000000000000000e+00
960 955 -1.000000000000000e+00
960 960 4.026492899235659e+00
961 47 -1.898250891216210e-02
961 57 -1.000000000000000e+00
961 427 -1.000000000000000e+00
961 961 4.043720042547341e+00
962 408 -1.000000000000000e+00
962 484 -1.000000000000000e+00
962 962 2.025152895959374e+00
963 48 -1.000000000000000e+00
963 385 -1.000000000000000e+00
963 963 4.093864152731596e+00
964 86 -1.000000000000000e+00
964 286 -1.103143973079001e-02
964 287 -1.000000000000000e+00
964 964 4.040023160815847e+00
965 208 -1.920405858677619e-02
965 232 -1.000000000000000e+00
965 371 -3.829919559833931e-03
965 386 -1.000000000000000e+00
965 965 5.023033978146610e+00
966 31 -1.000000000000000e+00
966 141 -1.000000000000000e+00
966 148 -1.487667887933621e-02
966 966 5.047486260135812e+00
967 93 -1.000000000000000e+00
967 450 -1.000000000000000e+00
967 839 -2.666737429266198e-02
967 967 4.048440238739945e+00
968 32 -1.000000000000000e+00
968 734 -1.000000000000000e+00
968 968 8.105211804648322e+00
969 171 -1.151151137312886e-02
969 336 -1.000000000000000e+00
969 668 -1.000000000000000e+00
969 969 6.040070685696054e+00
970 83 -1.000000000000000e+00
970 152 -1.000000000000000e+00
970 970 2.042191544149048e+00
971 3 -1.000000000000000e+00
971 143 -1.000000000000000e+00
971 971 3.009742047739699e+00
972 80 -1.000000000000000e+00
972 296 -1.000000000000000e+00
972 972 1.006865795846869e+01
973 486 -1.000000000000000e+00
973 852 -1.000000000000000e+00
973 973 4.014753314128342e+00
974 570 -1.000000000000000e+00
974 715 -1.000000000000000e+00
974 974 4.004239011453420e+00
975 42 -1.000000000000000e+00
975 274 -1.000000000000000e+00
975 975 7.115886585502540e+00
976 18 -1.000000000000000e+00
976 70 -1.000000000000000e+00
976 976 6.015649788830624e+00
977 270 -1.000000000000000e+00
977 377 -1.014732316400670e+00
977 977 8.069401647170501e+00
978 2 -1.000000000000000e+00
978 930 -1.000000000000000e+00
978 978 4.024963041265942e+00
979 2 -1.000000000000000e+00
979 75 -1.000000000000000e+00
979 979 6.033414821648806e+00
980 121 -2.015588749293881e-02
980 177 -1.000000000000000e+00
980 223 -1.000000000000000e+00
980 980 7.077622909376892e+00
981 33 -1.000000000000000e+00
981 195 -1.000000000000000e+00
981 981 2.005256800503311e+00
982 75 -5.550402535655818e-03
982 371 -9.607673030363485e-03
982 564 -1.000000000000000e+00
982 965 -1.000000000000000e+00
982 982 6.015158075566020e+00
983 516 -1.000000000000000e+00
983 747 -1.000000000000000e+00
983 801 -7.516455551425358e-03
983 983 3.068587518648517e+00
984 28 -1.251496122257216e-02
984 86 -1.000000000000000e+00
984 141 -1.000000000000000e+00
984 984 4.082749627325347e+00
985 116 -1.000000000000000e+00
985 475 -3.693967690520162e-03
985 797 -1.000000000000000e+00
985 846 -5.296483347935938e-03
985 985 4.026161693686535e+00
986 5 -1.000000000000000e+00
986 30 -1.000000000000000e+00
986 986 4.021607756026212e+00
987 63 -1.000000000000000e+00
987 127 -1.000000000000000e+00
987 987 3.000000000000000e+00
988 17 -1.000000000000000e+00
988 51 -1.000000000000000e+00
988 988 6.011375653083413e+00
989 432 -1.000000000000000e+00
989 573 -1.000000000000000e+00
989 989 3.003808671251265e+00
990 75 -1.369669787545635e-02
990 640 -1.000000000000000e+00
990 815 -1.000000000000000e+00
990 990 5.050482704027194e+00
991 1 -1.000000000000000e+00
991 62 -1.000000000000000e+00
991 991 6.060304774205248e+00
992 116 -1.000000000000000e+00
992 859 -1.012401678000415e+00
992 992 4.023959897346569e+00
993 484 -1.341599237670941e-02
993 514 -1.000000000000000e+00
993 929 -1.000000000000000e+00
993 993 4.048269831354834e+00
994 27 -1.000000000000000e+00
994 551 -1.000000000000000e+00
994 735 -8.873222625436846e-03
994 994 9.072136931433969e+00
995 19 -1.000000000000000e+00
995 102 -1.000000000000000e+00
995 995 3.000000000000000e+00
996 530 -1.000000000000000e+00
996 591 -1.000000000000000e+00
996 996 4.007179041927618e+00
997 250 -1.000000000000000e+00
997 738 -1.000000000000000e+00
997 997 2.049062542805486e+00
998 10 -1.000000000000000e+00
998 144 -1.000000000000000e+00
998 998 4.000000000000000e+00
999 4 -1.000000000000000e+00
999 442 -1.000000000000000e+00
999 999 3.000000000000000e+00
1000 142 -1.000000000000000e+00
1000 632 -1.000000000000000e+00
1000 1000 3.021465441677987e+00
1001 8 -1.000000000000000e+00
1001 40 -1.000000000000000e+00
1001 237 -2.942899319684954e-02
1001 1001 3.047925007112463e+00
1002 194 -1.000000000000000e+00
1002 429 -1.000000000000000e+00
1002 1002 4.035598486360031e+00
1003 56 -1.000000000000000e+00
1003 369 -1.000000000000000e+00
1003 649 -2.141624873307006e-02
1003 1003 5.104610968536705e+00
1004 90 -1.008062760953489e+00
1004 189 -1.000000000000000e+00
1004 1004 3.015668096667691e+00
1005 8 -1.000000000000000e+00
1005 334 -1.000000000000000e+00
1005 1005 5.038097877268575e+00
1006 36 -1.000000000000000e+00
1006 75 -1.000000000000000e+00
1006 1006 2.036019406538945e+00
1007 332 -1.000000000000000e+00
1007 541 -1.000000000000000e+00
1007 857 -1.767574169169890e-02
1007 1007 1.502069289445363e+01
1008 439 -1.076065036829666e-02
1008 522 -1.000000000000000e+00
1008 614 -1.000000000000000e+00
1008 835 -7.951058850960351e-03
1008 1008 1.005171198035661e+01
1009 522 -1.000000000000000e+00
1009 541 -1.000000000000000e+00
1009 1009 4.022391845604769e+00
1010 23 -1.000000000000000e+00
1010 402 -1.000000000000000e+00
1010 1010 3.053730062470668e+00
1011 122 -1.000000000000000e+00
1011 673 -1.228113011708834e-02
1011 759 -1.000000000000000e+00
1011 1011 3.047998906988149e+00
1012 47 -1.000000000000000e+00
1012 653 -1.000000000000000e+00
1012 1012 4.029709930949041e+00
1013 1 -1.000000000000000e+00
1013 857 -3.365852228230844e-03
1013 1007 -1.000000000000000e+00
1013 1013 3.006995219244014e+00
1014 17 -1.000000000000000e+00
1014 262 -1.000000000000000e+00
1014 1014 6.050628252598571e+00
1015 19 -1.000000000000000e+00
1015 53 -1.000000000000000e+00
1015 1015 4.035749205417357e+00
1016 7 -1.000000000000000e+00
1016 368 -1.000000000000000e+00
1016 1016 9.030486379022943e+00
1017 1 -1.000000000000000e+00
1017 290 -2.185337054497874e-02
1017 313 -1.000000000000000e+00
1017 565 -1.000000000000000e+00
1017 1017 5.060526620718616e+00
1018 249 -1.000000000000000e+00
1018 753 -1.000000000000000e+00
1018 1018 2.025929888211785e+00
1019 101 -1.000000000000000e+00
1019 675 -1.000000000000000e+00
1019 1019 1.002773646261023e+01
1020 11 -1.000000000000000e+00
1020 723 -1.000000000000000e+00
1020 1020 2.043797757158472e+00
1021 528 -2.385821333802066e-02
1021 553 -1.074840774410742e-02
1021 598 -1.000000000000000e+00
1021 691 -2.064774284865617e-02
1021 755 -1.000000000000000e+00
1021 1021 7.067512462551665e+00
1022 29 -1.000000000000000e+00
1022 137 -1.072391394382144e-02
1022 777 -1.000000000000000e+00
1022 1022 4.011631968029187e+00
1023 16 -1.000000000000000e+00
1023 139 -1.000000000000000e+00
1023 1023 5.049891897417465e+00
1024 1 -1.000000000000000e+00
1024 202 -1.022353299443830e-02
1024 363 -1.000000000000000e+00
1024 1024 5.038605018251423e+00
1025 349 -1.013461297870345e+00
1025 653 -1.000000000000000e+00
1025 1025 7.042124651996848e+00
1026 32 -1.000000000000000e+00
1026 244 -1.000000000000000e+00
1026 403 -3.229942254506173e-02
1026 1026 4.056440389017472e+00
1027 747 -1.000000000000000e+00
1027 954 -1.000000000000000e+00
1027 1027 7.072381059261394e+00
1028 79 -1.000000000000000e+00
1028 161 -1.000000000000000e+00
1028 1028 4.038373445270212e+00
1029 49 -1.000000000000000e+00
1029 517 -1.000000000000000e+00
1029 868 -2.401822445837502e-02
1029 1029 8.050263436627599e+00
1030 78 -1.000000000000000e+00
1030 603 -1.000000000000000e+00
1030 1030 6.025592905369926e+00
1031 92 -1.000000000000000e+00
1031 415 -1.000000000000000e+00
1031 614 -4.274863344349506e-03
1031 916 -1.000000000000000e+00
1031 1031 5.017003071344387e+00
1032 88 -1.000000000000000e+00
1032 285 -6.590812111633108e-03
1032 411 -1.000000000000000e+00
1032 1032 4.012059268435936e+00
1033 129 -1.359570532657793e-02
1033 146 -1.000000000000000e+00
1033 309 -1.225263992518730e-02
1033 601 -1.000000000000000e+00
1033 1033 4.105217797515371e+00
1034 818 -1.000000000000000e+00
1034 972 -1.014467223099433e+00
1034 1034 5.031020863475206e+00
1035 77 -1.000000000000000e+00
1035 521 -1.000000000000000e+00
1035 1035 1.105757782120558e+01
1036 111 -1.000000000000000e+00
1036 588 -1.000000000000000e+00
1036 1036 3.001595113560664e+00
1037 100 -1.000000000000000e+00
1037 226 -7.377091394214158e-03
1037 297 -1.000000000000000e+00
1037 1037 2.010119956793925e+00
1038 265 -6.475825290444163e-03
1038 375 -1.817475925831369e-02
1038 562 -1.000000000000000e+00
1038 682 -1.000000000000000e+00
1038 1038 6.057740981240370e+00
1039 257 -1.000000000000000e+00
1039 756 -1.000000000000000e+00
1039 1039 4.009405567347355e+00
1040 362 -1.000000000000000e+00
1040 897 -1.000000000000000e+00
1040 1040 1.005427524708464e+01
1041 794 -1.000000000000000e+00
1041 903 -1.000000000000000e+00
1041 1041 4.027984065815462e+00
1042 385 -1.000000000000000e+00
1042 661 -1.000000000000000e+00
1042 1042 2.040778837881339e+00
1043 675 -1.000000000000000e+00
1043 1021 -1.000000000000000e+00
1043 1043 3.019312398344754e+00
1044 138 -1.000000000000000e+00
1044 373 -1.874232693092030e-02
1044 582 -1.000000000000000e+00
1044 1044 6.048545868793012e+00
1045 27 -1.000000000000000e+00
1045 399 -1.000000000000000e+00
1045 1045 6.023908054896932e+00
1046 164 -1.000000000000000e+00
1046 305 -4.873535490341453e-03
1046 884 -1.000000000000000e+00
1046 1046 8.012090500547924e+00
1047 372 -1.000000000000000e+00
1047 604 -1.012098345951097e+00
1047 1047 4.059679153151505e+00
1048 161 -1.000000000000000e+00
1048 405 -1.163787385753038e-02
1048 660 -1.000000000000000e+00
1048 1048 5.060212538345765e+00
1049 166 -1.000000000000000e+00
1049 674 -1.000000000000000e+00
1049 1049 3.009088435207457e+00
1050 588 -1.000000000000000e+00
1050 630 -1.000000000000000e+00
1050 1050 5.050441271617760e+00
1051 264 -1.320976338604669e-02
1051 787 -1.000000000000000e+00
1051 875 -1.000000000000000e+00
1051 1051 2.034449719272675e+00
1052 70 -1.000000000000000e+00
1052 195 -1.000000000000000e+00
1052 1052 4.031429062363517e+00
1053 722 -1.000000000000000e+00
1053 918 -1.000000000000000e+00
1053 1053 9.038020386376957e+00
1054 11 -1.000000000000000e+00
1054 89 -1.000000000000000e+00
1054 352 -2.183717406937134e-02
1054 361 -2.223823333139330e-02
1054 1054 3.069131548857846e+00
1055 287 -1.000000000000000e+00
1055 893 -1.000000000000000e+00
1055 1055 2.013100532846205e+00
1056 55 -1.000000000000000e+00
1056 156 -1.000000000000000e+00
1056 1056 3.058368353889397e+00
1057 83 -1.000000000000000e+00
1057 834 -1.000000000000000e+00
1057 1057 4.064854393972996e+00
1058 162 -1.552876690525815e-02
1058 330 -1.000000000000000e+00
1058 747 -1.000000000000000e+00
1058 1053 -1.000000000000000e+00
1058 1058 9.040780875921689e+00
1059 66 -1.000000000000000e+00
1059 79 -1.000000000000000e+00
1059 372 -1.676824680563677e-02
1059 901 -1.592931247449039e-02
1059 1059 5.054740913199940e+00
1060 16 -1.000000000000000e+00
1060 436 -1.000000000000000e+00
1060 1060 6.065700738794628e+00
1061 140 -1.027762660940228e+00
1061 261 -1.000000000000000e+00
1061 923 -1.891653109878580e-02
1061 1061 2.063379216046442e+00
1062 112 -1.000000000000000e+00
1062 350 -1.000000000000000e+00
1062 1062 5.027982896363326e+00
1063 12 -1.000000000000000e+00
1063 744 -1.000000000000000e+00
1063 1063 4.015848097542170e+00
1064 1 -1.000000000000000e+00
1064 297 -1.000000000000000e+00
1064 1064 2.048519378081795e+00
1065 47 -1.000000000000000e+00
1065 762 -1.000000000000000e+00
1065 1065 1.101628380973058e+01
1066 195 -1.000000000000000e+00
1066 764 -1.000000000000000e+00
1066 1066 1.402218257781370e+01
1067 136 -1.000000000000000e+00
1067 284 -1.000000000000000e+00
1067 1067 3.000000000000000e+00
1068 141 -1.000000000000000e+00
1068 754 -1.000000000000000e+00
1068 1068 4.034496796492877e+00
1069 573 -1.000000000000000e+00
1069 646 -1.009931586011827e+00
1069 1069 5.039189195226395e+00
1070 10 -1.000000000000000e+00
1070 229 -1.654603387811786e-02
1070 443 -1.000000000000000e+00
1070 1070 5.047828179564197e+00
1071 7 -1.000000000000000e+00
1071 166 -1.000000000000000e+00
1071 1071 2.043763260763276e+00
1072 382 -5.757436343018832e-03
1072 653 -1.000543447811267e+00
1072 744 -1.000000000000000e+00
1072 1072 5.042891225987977e+00
1073 69 -1.000000000000000e+00
1073 795 -1.018120310082331e+00
1073 844 -1.094366504260306e-03
1073 1073 2.019214676586591e+00
1074 141 -1.000000000000000e+00
1074 156 -2.271850548750343e-02
1074 189 -1.000000000000000e+00
1074 1074 4.036894029943732e+00
1075 55 -1.000000000000000e+00
1075 264 -2.189585285281936e-03
1075 916 -1.000000000000000e+00
1075 1075 4.014881989703428e+00
1076 587 -1.000000000000000e+00
1076 1008 -1.000000000000000e+00
1076 1076 9.028812920558533e+00
1077 2 -1.000000000000000e+00
1077 412 -1.010137447039741e+00
1077 1077 2.020620300600855e+00
1078 154 -1.000000000000000e+00
1078 280 -1.000000000000000e+00
1078 479 -2.050115429257812e-02
1078 1078 4.021377720365524e+00
1079 356 -1.000000000000000e+00
1079 861 -2.845717642327956e-02
1079 928 -1.000000000000000e+00
1079 1060 -1.717688071685392e-02
1079 1079 5.045634057140133e+00
1080 182 -1.000000000000000e+00
1080 529 -1.405474083355876e-02
1080 914 -1.000000000000000e+00
1080 1080 3.032771665766520e+00
1081 657 -1.000000000000000e+00
1081 714 -1.000000000000000e+00
1081 1081 1.002516298665257e+01
1082 135 -1.000000000000000e+00
1082 597 -1.000000000000000e+00
1082 1082 2.037801567160203e+00
1083 7 -1.000000000000000e+00
1083 325 -1.000000000000000e+00
1083 1083 7.013306230754361e+00
1084 359 -1.000000000000000e+00
1084 590 -1.000000000000000e+00
1084 1084 1.302485050845467e+01
1085 197 -1.000000000000000e+00
1085 1044 -1.000000000000000e+00
1085 1085 4.028463638706356e+00
1086 251 -1.000000000000000e+00
1086 414 -1.000000000000000e+00
1086 1086 2.016286277302203e+00
1087 78 -1.000000000000000e+00
1087 487 -1.000000000000000e+00
1087 1087 2.065876376785485e+00
1088 56 -1.000000000000000e+00
1088 1014 -1.000000000000000e+00
1088 1088 3.024998377601227e+00
1089 28 -1.000000000000000e+00
1089 758 -1.000000000000000e+00
1089 1089 6.041956473927185e+00
1090 268 -1.000000000000000e+00
1090 395 -6.103905088384600e-03
1090 955 -1.000000000000000e+00
1090 1090 4.025776490602242e+00
1091 137 -1.000000000000000e+00
1091 179 -1.000000000000000e+00
1091 1091 5.056974949946477e+00
1092 285 -1.000000000000000e+00
1092 525 -1.000000000000000e+00
1092 1092 4.044477184399936e+00
1093 516 -1.000000000000000e+00
1093 527 -1.000000000000000e+00
1093 626 -1.160328297444989e-02
1093 1079 -1.000000000000000e+00
1093 1093 5.025896982860568e+00
1094 174 -1.000000000000000e+00
1094 841 -1.000000000000000e+00
1094 1094 8.047502743618534e+00
1095 50 -1.000000000000000e+00
1095 103 -3.267471088051709e-03
1095 259 -1.000000000000000e+00
1095 446 -9.282660835482766e-03
1095 1095 6.012550131923534e+00
1096 154 -1.000000000000000e+00
1096 400 -1.000000000000000e+00
1096 1096 5.015443558202399e+00
1097 379 -1.000000000000000e+00
1097 924 -1.000000000000000e+00
1097 1097 3.000000000000000e+00
1098 708 -1.011597988259731e+00
1098 1062 -1.002641896001891e+00
1098 1098 4.014239884261621e+00
1099 265 -1.000000000000000e+00
1099 375 -1.001319539453021e+00
1099 1099 4.034617853098987e+00
1100 4 -2.624846473136165e-02
1100 48 -1.000000000000000e+00
1100 115 -1.000000000000000e+00
1100 394 -3.785603060311669e-02
1100 493 -1.146297588043593e-02
1100 879 -1.135561163091094e-02
1100 1100 4.140367870385936e+00
1101 7 -1.000000000000000e+00
1101 199 -3.035672035950984e-03
1101 1032 -1.000000000000000e+00
1101 1033 -1.157862243061487e-02
1101 1101 8.014614294466567e+00
1102 1 -1.000000000000000e+00
1102 56 -1.000000000000000e+00
1102 128 -1.000000000000000e+00
1102 360 -2.837801279241805e-02
1102 1102 7.093191075242876e+00
1103 142 -1.000000000000000e+00
1103 625 -1.000000000000000e+00
1103 1000 -6.862699364932611e-03
1103 1103 5.013615617893601e+00
1104 218 -1.000000000000000e+00
1104 334 -1.000000000000000e+00
1104 499 -7.759968530873151e-03
1104 1104 5.014312881337315e+00
1105 464 -1.000000000000000e+00
1105 663 -1.000000000000000e+00
1105 1105 6.123379338451477e+00
1106 711 -1.000000000000000e+00
1106 1065 -1.000000000000000e+00
1106 1069 -5.639820560711978e-03
1106 1106 4.011029392700523e+00
1107 164 -1.000000000000000e+00
1107 584 -1.000000000000000e+00
1107 1107 3.041110584794271e+00
1108 17 -1.000000000000000e+00
1108 300 -2.056934242412744e-02
1108 333 -1.000000000000000e+00
1108 412 -4.270960580510883e-03
1108 1108 6.024840303004638e+00
1109 16 -1.000000000000000e+00
1109 21 -1.000000000000000e+00
1109 1109 4.021417631990825e+00
1110 182 -1.000000000000000e+00
1110 529 -8.955058850705378e-03
1110 1095 -1.000000000000000e+00
1110 1110 3.012240471027025e+00
1111 63 -1.000000000000000e+00
1111 88 -1.000000000000000e+00
1111 1111 2.030984845185306e+00
1112 6 -1.000000000000000e+00
1112 318 -1.000000000000000e+00
1112 1112 4.012167227674678e+00
1113 353 -1.000000000000000e+00
1113 632 -1.000000000000000e+00
1113 1113 2.034275225784425e+00
1114 1 -1.000000000000000e+00
1114 5 -1.000000000000000e+00
1114 202 -1.181471668780807e-02
1114 1114 2.029770237818874e+00
1115 21 -1.000000000000000e+00
1115 50 -1.000000000000000e+00
1115 1115 3.037825478271100e+00
1116 340 -1.000000000000000e+00
1116 434 -1.000000000000000e+00
1116 688 -1.635570685130667e-02
1116 1116 4.027126035224605e+00
1117 27 -1.000000000000000e+00
1117 73 -1.782391511365608e-02
1117 463 -1.000000000000000e+00
1117 1117 5.096520423851461e+00
1118 33 -1.000000000000000e+00
1118 1022 -1.000000000000000e+00
1118 1118 4.028852753137154e+00
1119 137 -7.729060574112561e-03
1119 621 -1.014764884580392e+00
1119 859 -1.000000000000000e+00
1119 1119 4.053770185694820e+00
1120 264 -1.000000000000000e+00
1120 503 -1.379068643656475e-02
1120 504 -1.000000000000000e+00
1120 834 -1.000000000000000e+00
1120 1120 5.019384193692031e+00
1121 9 -1.000000000000000e+00
1121 931 -1.000000000000000e+00
1121 1121 5.024462859235250e+00
1122 23 -1.000000000000000e+00
1122 125 -1.000000000000000e+00
1122 622 -1.647752491827501e-02
1122 1122 3.097614447978334e+00
1123 7 -1.000000000000000e+00
1123 326 -1.002126027466922e+00
1123 906 -4.805112539257992e-03
1123 1030 -3.213554111835009e-03
1123 1123 8.118057815024207e+00
1124 570 -1.000000000000000e+00
1124 994 -1.000000000000000e+00
1124 1124 7.037776881733663e+00
1125 242 -1.000000000000000e+00
1125 420 -1.000000000000000e+00
1125 1125 3.081466504351841e+00
1126 283 -1.000000000000000e+00
1126 699 -1.000000000000000e+00
1126 1126 2.018818764083610e+00
1127 249 -1.103143304370231e-02
1127 338 -1.000000000000000e+00
1127 656 -1.000000000000000e+00
1127 1127 3.024972006856125e+00
1128 304 -1.000000000000000e+00
1128 819 -1.012251324272560e+00
1128 1128 4.062859072395863e+00
1129 270 -1.000000000000000e+00
1129 613 -5.701114281934381e-03
1129 761 -1.000000000000000e+00
1129 1129 4.016831615181037e+00
1130 68 -1.000000000000000e+00
1130 1057 -1.000000000000000e+00
1130 1130 6.014298689555572e+00
1131 97 -1.000000000000000e+00
1131 543 -8.286841877153445e-03
1131 656 -1.000000000000000e+00
1131 1131 4.029899928273344e+00
1132 80 -1.015815116379571e+00
1132 253 -1.000000000000000e+00
1132 490 -7.077932974036698e-03
1132 958 -6.494357882453698e-03
1132 1132 5.038485154522939e+00
1133 550 -1.000000000000000e+00
1133 923 -1.000000000000000e+00
1133 1133 4.043915889039877e+00
1134 291 -1.000000000000000e+00
1134 510 -1.000000000000000e+00
1134 563 -3.620927217575631e-03
1134 1134 5.041826139738848e+00
1135 5 -1.000000000000000e+00
1135 106 -1.000000000000000e+00
1135 155 -2.230805903133739e-02
1135 478 -2.769053838906439e-02
1135 1135 6.098703041832485e+00
1136 69 -1.009798977933028e+00
1136 789 -1.000000000000000e+00
1136 1136 3.045943728564252e+00
1137 2 -1.000000000000000e+00
1137 622 -1.000000000000000e+00
1137 858 -1.843035018112660e-02
1137 1137 4.198480154444400e+00
1138 204 -1.000000000000000e+00
1138 673 -1.000000000000000e+00
1138 1138 4.030691584405527e+00
1139 327 -2.657894133129767e-02
1139 391 -1.000000000000000e+00
1139 627 -1.000000000000000e+00
1139 1139 2.100190843821332e+00
1140 16 -1.000000000000000e+00
1140 141 -1.000000000000000e+00
1140 156 -4.910975800828356e-03
1140 1140 2.017582519666709e+00
1141 180 -3.646912090484034e-02
1141 834 -1.000000000000000e+00
1141 908 -1.000000000000000e+00
1141 1141 5.065196744280851e+00
1142 363 -1.000000000000000e+00
1142 634 -1.000000000000000e+00
1142 875 -1.520575341377879e-02
1142 1142 3.027576691614779e+00
1143 2 -1.000000000000000e+00
1143 1021 -1.000000000000000e+00
1143 1143 4.024159434086262e+00
1144 178 -1.000000000000000e+00
1144 614 -1.000000000000000e+00
1144 1144 2.033868477976539e+00
1145 682 -1.000000000000000e+00
1145 799 -1.000000000000000e+00
1145 1145 6.031104717139869e+00
1146 87 -1.000000000000000e+00
1146 443 -1.000000000000000e+00
1146 464 -2.420127570637540e-02
1146 881 -1.413983463403209e-02
1146 1146 3.075786693456200e+00
1147 102 -1.000000000000000e+00
1147 725 -1.000000000000000e+00
1147 1147 4.042349562227274e+00
1148 106 -1.000000000000000e+00
1148 214 -5.916841145432348e-03
1148 554 -1.000000000000000e+00
1148 1148 7.010547819985532e+00
1149 966 -1.000000000000000e+00
1149 1016 -1.000000000000000e+00
1149 1149 5.077123195652954e+00
1150 1 -1.000000000000000e+00
1150 202 -1.800895434333610e-02
1150 210 -1.000000000000000e+00
1150 813 -3.249775091348300e-02
1150 1150 5.050506705256819e+00
1151 19 -1.000000000000000e+00
1151 66 -1.018176594277087e+00
1151 901 -7.310599264004981e-03
1151 1059 -2.204335391981295e-02
1151 1151 5.110268639256594e+00
1152 174 -1.012844086870681e+00
1152 885 -1.000000000000000e+00
1152 1152 2.023328710872286e+00
1153 68 -1.586100464782197e-02
1153 544 -1.000000000000000e+00
1153 722 -1.000000000000000e+00
1153 1153 8.030892555618633e+00
1154 7 -1.000000000000000e+00
1154 828 -1.000000000000000e+00
1154 1154 4.030920771634403e+00
1155 95 -1.000000000000000e+00
1155 663 -1.000000000000000e+00
1155 1155 3.032743650938270e+00
1156 107 -1.000000000000000e+00
1156 1153 -1.000000000000000e+00
1156 1156 4.042507162613354e+00
1157 401 -1.002098659620041e+00
1157 639 -1.000000000000000e+00
1157 1157 9.010964141265045e+00
1158 69 -1.000000000000000e+00
1158 249 -1.000000000000000e+00
1158 1018 -1.669763290173926e-03
1158 1158 6.029395305696656e+00
1159 153 -1.000000000000000e+00
1159 349 -1.000000000000000e+00
1159 408 -5.783386922685460e-03
1159 962 -3.784232581484401e-03
1159 1159 2.026684935914430e+00
1160 87 -1.000000000000000e+00
1160 1035 -1.000000000000000e+00
1160 1160 8.018904046597585e+00
1161 241 -3.617430662839427e-02
1161 575 -1.000000000000000e+00
1161 761 -1.000000000000000e+00
1161 1161 3.040397992779650e+00
1162 30 -1.000000000000000e+00
1162 266 -1.000000000000000e+00
1162 766 -1.798742489709785e-02
1162 1142 -1.237093820100045e-02
1162 1162 4.054799871396822e+00
1163 179 -1.000000000000000e+00
1163 809 -1.000000000000000e+00
1163 1163 1.402199686902065e+01
1164 7 -1.000000000000000e+00
1164 661 -1.000000000000000e+00
1164 1053 -7.330190254867514e-03
1164 1164 3.024175581640102e+00
1165 488 -2.072339996648090e-02
1165 751 -1.000000000000000e+00
1165 799 -1.000000000000000e+00
1165 1165 5.023683907213752e+00
1166 206 -1.000000000000000e+00
1166 410 -1.000000000000000e+00
1166 1166 4.035853139722087e+00
1167 177 -1.000000000000000e+00
1167 826 -7.602637803497715e-03
1167 1045 -1.000000000000000e+00
1167 1167 5.040074277953747e+00
1168 13 -1.000000000000000e+00
1168 954 -1.000000000000000e+00
1168 1168 3.009107137794359e+00
1169 82 -1.000000000000000e+00
1169 95 -1.000000000000000e+00
1169 1169 5.034452625630974e+00
1170 1 -1.000000000000000e+00
1170 283 -1.000000000000000e+00
1170 1042 -2.701820648476181e-02
1170 1170 9.059797558747050e+00
1171 195 -1.528396464349212e-02
1171 525 -7.702777263161719e-03
1171 852 -1.000000000000000e+00
1171 981 -4.961820141731044e-03
1171 1066 -1.000000000000000e+00
1171 1171 2.053053024900412e+00
1172 73 -1.000000000000000e+00
1172 938 -1.000000000000000e+00
1172 1172 2.016972577317761e+00
1173 5 -1.000000000000000e+00
1173 950 -2.661598777271282e-02
1173 1058 -1.025252109016430e+00
1173 1173 3.138551233412531e+00
1174 83 -1.000000000000000e+00
1174 674 -1.000000000000000e+00
1174 1174 3.037890615057645e+00
1175 335 -1.000000000000000e+00
1175 807 -1.000000000000000e+00
1175 1175 8.027813486397678e+00
1176 327 -2.655585003492122e-02
1176 615 -1.000000000000000e+00
1176 691 -1.000000000000000e+00
1176 1176 7.115723397740834e+00
1177 1041 -1.014980239680117e+00
1177 1046 -1.000000000000000e+00
1177 1177 5.016637769322434e+00
1178 75 -1.000000000000000e+00
1178 516 -1.000000000000000e+00
1178 1178 7.014160768491722e+00
1179 616 -1.000000000000000e+00
1179 1155 -1.000000000000000e+00
1179 1179 5.028869521312853e+00
1180 1 -1.000000000000000e+00
1180 894 -2.952304480074217e-02
1180 975 -1.000000000000000e+00
1180 1180 2.057278474231606e+00
1181 16 -1.000000000000000e+00
1181 679 -1.000000000000000e+00
1181 1181 2.020712573765766e+00
1182 37 -8.237160635366132e-03
1182 120 -1.577350376374893e-02
1182 150 -1.104622272039940e-02
1182 220 -9.775002342753568e-03
1182 222 -1.000000000000000e+00
1182 250 -1.173592402412922e-02
1182 463 -1.000000000000000e+00
1182 993 -7.380112022447928e-03
1182 1182 5.284231633124358e+00
1183 57 -1.000000000000000e+00
1183 377 -1.000000000000000e+00
1183 1183 3.011985346990607e+00
1184 546 -1.000000000000000e+00
1184 974 -1.000000000000000e+00
1184 1184 5.065835631125124e+00
1185 1 -1.000000000000000e+00
1185 393 -1.000000000000000e+00
1185 606 -9.630802514079374e-03
1185 1185 8.078662994035303e+00
1186 291 -1.000000000000000e+00
1186 986 -1.007846815834073e+00
1186 1186 3.036210120888351e+00
1187 781 -1.000000000000000e+00
1187 1076 -1.000000000000000e+00
1187 1187 5.032998308596427e+00
1188 82 -1.711437669001636e-02
1188 305 -1.000000000000000e+00
1188 474 -1.000000000000000e+00
1188 1188 2.048970403439923e+00
1189 67 -1.000000000000000e+00
1189 1175 -1.000000000000000e+00
1189 1189 3.029251843079598e+00
1190 59 -1.000000000000000e+00
1190 393 -1.000000000000000e+00
1190 1190 3.000000000000000e+00
1191 41 -1.000000000000000e+00
1191 234 -1.000000000000000e+00
1191 1191 5.136490226616677e+00
1192 36 -1.000000000000000e+00
1192 860 -1.000000000000000e+00
1192 1192 4.020525982921228e+00
1193 241 -1.000000000000000e+00
1193 848 -1.000000000000000e+00
1193 1193 4.006083378132803e+00
1194 420 -1.000000000000000e+00
1194 428 -9.437767638776717e-03
1194 566 -1.000000000000000e+00
1194 608 -1.000000000000000e+00
1194 1194 5.066526865609108e+00
1195 219 -2.141115105452801e-02
1195 968 -1.000000000000000e+00
1195 1030 -1.000000000000000e+00
1195 1195 7.048516829265729e+00
1196 71 -6.952393245863771e-03
1196 130 -1.007619941228806e+00
1196 285 -1.000000000000000e+00
1196 502 -3.703939770472713e-03
1196 1196 3.088533876068692e+00
1197 47 -1.000000000000000e+00
1197 427 -1.000000000000000e+00
1197 1197 2.029756873302515e+00
1198 668 -1.000000000000000e+00
1198 901 -4.604226215140583e-03
1198 1151 -1.000000000000000e+00
1198 1198 4.012096241105954e+00
1199 75 -1.884945116871289e-02
1199 356 -1.000000000000000e+00
1199 982 -1.000000000000000e+00
1199 1199 2.028053759719209e+00
1200 594 -1.134730396838287e-02
1200 645 -1.000000000000000e+00
1200 774 -1.000000000000000e+00
1200 1200 2.016261530056479e+00
1201 144 -1.000000000000000e+00
1201 327 -2.017584508489603e-02
1201 357 -1.000000000000000e+00
1201 1201 2.040644694191637e+00
1202 154 -1.000000000000000e+00
1202 473 -8.009101129306377e-03
1202 1094 -1.000000000000000e+00
1202 1202 4.023412054512246e+00
1203 728 -1.000000000000000e+00
1203 1121 -1.000000000000000e+00
1203 1203 3.093071036312481e+00
1204 160 -1.000000000000000e+00
1204 420 -1.580409859895580e-02
1204 994 -1.000000000000000e+00
1204 1204 5.026297805154958e+00
1205 396 -1.000000000000000e+00
1205 507 -1.000000000000000e+00
1205 637 -2.201865000799347e-02
1205 1205 4.030123276586311e+00
1206 264 -1.000000000000000e+00
1206 1145 -1.000000000000000e+00
1206 1206 4.008617345506525e+00
1207 238 -1.000000000000000e+00
1207 403 -6.228674353839519e-03
1207 463 -1.000000000000000e+00
1207 1115 -3.013467559735224e-02
1207 1207 6.036363349951192e+00
1208 594 -1.000000000000000e+00
1208 612 -1.000000000000000e+00
1208 1208 3.000168979408242e+00
1209 189 -1.000000000000000e+00
1209 427 -1.000000000000000e+00
1209 1209 4.033096198602388e+00
1210 400 -1.000000000000000e+00
1210 985 -1.000000000000000e+00
1210 1210 5.008712858809100e+00
1211 10 -1.000000000000000e+00
1211 176 -1.404692095094487e-02
1211 1150 -1.000000000000000e+00
1211 1211 8.024611580615222e+00
1212 47 -1.000000000000000e+00
1212 140 -1.000000000000000e+00
1212 1212 3.007242036502920e+00
1213 252 -1.000000000000000e+00
1213 721 -1.193657507091785e-02
1213 1046 -1.000000000000000e+00
1213 1213 3.028724642207619e+00
1214 21 -1.000000000000000e+00
1214 780 -1.000000000000000e+00
1214 1214 1.204950093891568e+01
1215 497 -1.005557762402939e+00
1215 701 -1.000000000000000e+00
1215 709 -1.000000000000000e+00
1215 1215 7.031144050036906e+00
1216 302 -1.000000000000000e+00
1216 597 -1.000000000000000e+00
1216 1216 4.017318980162617e+00
1217 1 -1.000000000000000e+00
1217 178 -1.000000000000000e+00
1217 588 -1.181520491824373e-02
1217 843 -3.002912804266678e-03
1217 1217 2.083659138419446e+00
1218 104 -1.000000000000000e+00
1218 164 -1.000000000000000e+00
1218 927 -7.095148073296554e-03
1218 1218 3.009032445762897e+00
1219 133 -2.375821953615048e-02
1219 251 -1.000000000000000e+00
1219 908 -1.000000000000000e+00
1219 1219 2.034503283658657e+00
1220 5 -1.000000000000000e+00
1220 141 -1.000000000000000e+00
1220 327 -1.728323407078161e-02
1220 1220 3.037198561613413e+00
1221 416 -1.001478394922639e+00
1221 1065 -1.000000000000000e+00
1221 1221 2.016449705444316e+00
1222 61 -1.017912336573138e+00
1222 828 -1.000000000000000e+00
1222 1208 -7.975402169017748e-05
1222 1222 3.040186485267418e+00
1223 44 -1.000000000000000e+00
1223 240 -1.000000000000000e+00
1223 1223 4.064369132462696e+00
1224 100 -5.234372267532578e-03
1224 226 -1.014986323171735e+00
1224 1204 -1.000000000000000e+00
1224 1224 2.055827646445551e+00
1225 57 -1.000000000000000e+00
1225 499 -1.000000000000000e+00
1225 1225 8.015680997188346e+00
1226 106 -1.000000000000000e+00
1226 1090 -1.000000000000000e+00
1226 1226 5.041338984416266e+00
1227 222 -1.000000000000000e+00
1227 479 -1.000000000000000e+00
1227 1227 8.033160666529753e+00
1228 5 -1.000000000000000e+00
1228 110 -1.000000000000000e+00
1228 1228 3.035546244482572e+00
1229 5 -1.000000000000000e+00
1229 296 -1.000000000000000e+00
1229 1229 2.010089251195493e+00
1230 152 -1.000000000000000e+00
1230 208 -1.000000000000000e+00
1230 1230 3.000000000000000e+00
1231 13 -1.000000000000000e+00
1231 284 -1.000000000000000e+00
1231 1231 5.081242441566716e+00
1232 1 -1.000000000000000e+00
1232 202 -8.157400561486729e-03
1232 1057 -1.000000000000000e+00
1232 1232 4.032672968386994e+00
1233 253 -1.000000000000000e+00
1233 377 -1.000000000000000e+00
1233 902 -1.190985715135130e-02
1233 1233 6.022338976309517e+00
1234 159 -1.000000000000000e+00
1234 980 -1.000000000000000e+00
1234 1234 2.006220788234596e+00
1235 111 -6.258110507414587e-03
1235 424 -1.000000000000000e+00
1235 660 -1.000000000000000e+00
1235 1235 4.023824996961713e+00
1236 85 -1.000000000000000e+00
1236 587 -1.000000000000000e+00
1236 1236 4.005766394671570e+00
1237 90 -1.000000000000000e+00
1237 1178 -1.011653991037051e+00
1237 1237 3.018535791048650e+00
1238 317 -2.494209189453711e-02
1238 478 -1.000000000000000e+00
1238 578 -2.272938540749556e-02
1238 1098 -1.000000000000000e+00
1238 1220 -1.991532754263138e-02
1238 1238 5.281336712837864e+00
1239 2 -1.000000000000000e+00
1239 352 -1.702865167310147e-02
1239 361 -1.000000000000000e+00
1239 1239 3.044135028415644e+00
1240 356 -1.000000000000000e+00
1240 858 -1.000000000000000e+00
1240 1137 -1.988039724960398e-02
1240 1238 -2.715298302743352e-02
1240 1240 4.047033380277037e+00
1241 23 -1.000000000000000e+00
1241 117 -1.000000000000000e+00
1241 1241 3.065610241774529e+00
1242 384 -1.000000000000000e+00
1242 637 -1.071893777712396e-02
1242 1017 -1.000000000000000e+00
1242 1242 3.025831101926653e+00
1243 79 -1.000000000000000e+00
1243 595 -1.000000000000000e+00
1243 1243 4.019150678415667e+00
1244 21 -1.000000000000000e+00
1244 27 -1.000000000000000e+00
1244 1244 3.000000000000000e+00
1245 255 -1.000000000000000e+00
1245 410 -1.000000000000000e+00
1245 899 -1.358001468907550e-02
1245 1178 -1.000000000000000e+00
1245 1245 5.045650819653910e+00
1246 2 -1.000000000000000e+00
1246 221 -1.000000000000000e+00
1246 222 -1.000000000000000e+00
1246 1246 3.055972782905326e+00
1247 585 -1.000000000000000e+00
1247 933 -1.000000000000000e+00
1247 1087 -1.572006953886325e-02
1247 1247 4.082807487371896e+00
1248 1076 -1.006306974587597e+00
1248 1115 -1.000000000000000e+00
1248 1248 2.018351791657882e+00
1249 7 -3.744878823732978e-02
1249 277 -1.000000000000000e+00
1249 1014 -1.000000000000000e+00
1249 1249 3.055153446190560e+00
1250 961 -1.000000000000000e+00
1250 1035 -1.000000000000000e+00
1250 1250 3.049734518558002e+00
1251 397 -1.000000000000000e+00
1251 561 -1.000000000000000e+00
1251 1251 7.040495456495478e+00
1252 233 -1.001881863819933e+00
1252 259 -1.000000000000000e+00
1252 1252 9.075089003617062e+00
1253 335 -1.000000000000000e+00
1253 806 -2.268368413497869e-02
1253 942 -1.000000000000000e+00
1253 1253 2.041605150913478e+00
1254 16 -1.000000000000000e+00
1254 529 -1.000000000000000e+00
1254 1254 3.000000000000000e+00
1255 31 -1.000000000000000e+00
1255 518 -1.015777120073007e+00
1255 1255 2.043207379653455e+00
1256 82 -1.000000000000000e+00
1256 393 -1.000000000000000e+00
1256 474 -1.535542135077234e-02
1256 1165 -1.000000000000000e+00
1256 1256 5.065467333380654e+00
1257 13 -2.232775483936959e-02
1257 104 -1.000000000000000e+00
1257 398 -1.000000000000000e+00
1257 854 -1.347732585868139e-02
1257 1257 7.050229569085121e+00
1258 32 -1.000000000000000e+00
1258 529 -1.000000000000000e+00
1258 1053 -5.958286942689019e-03
1258 1258 4.049847962403027e+00
1259 878 -1.000000000000000e+00
1259 1053 -1.000000000000000e+00
1259 1259 4.004116990487351e+00
1260 180 -1.000000000000000e+00
1260 674 -1.000000000000000e+00
1260 788 -1.786644788289293e-02
1260 947 -3.565944605270343e-02
1260 1260 4.053525893935596e+00
1261 183 -1.000000000000000e+00
1261 823 -1.000000000000000e+00
1261 1261 6.048153403249168e+00
1262 197 -1.012168257430835e+00
1262 290 -1.000000000000000e+00
1262 1262 4.043625529149741e+00
1263 665 -1.000000000000000e+00
1263 980 -1.000000000000000e+00
1263 1263 3.032418517057922e+00
1264 1 -1.000000000000000e+00
1264 16 -1.000000000000000e+00
1264 202 -2.815102356532774e-02
1264 1264 1.008249591261776e+01
1265 297 -1.000000000000000e+00
1265 788 -1.000000000000000e+00
1265 859 -3.493582171182460e-03
1265 1265 9.020725838759814e+00
1266 76 -1.000000000000000e+00
1266 193 -2.468879105315497e-02
1266 917 -1.000000000000000e+00
1266 1266 3.035116490981255e+00
1267 138 -1.008062555196131e+00
1267 549 -1.000000000000000e+00
1267 1267 2.047582142157193e+00
1268 88 -1.000000000000000e+00
1268 1195 -1.000000000000000e+00
1268 1268 5.041107224185024e+00
1269 22 -1.000000000000000e+00
1269 592 -8.874799668505658e-03
1269 615 -1.000000000000000e+00
1269 843 -1.184956212639533e-02
1269 1144 -8.712451690746163e-03
1269 1217 -1.455758008831953e-03
1269 1269 4.057965903512502e+00
1270 179 -1.000000000000000e+00
1270 496 -1.004558405017613e+00
1270 538 -1.000000000000000e+00
1270 1270 5.012017663828304e+00
1271 71 -1.000000000000000e+00
1271 486 -1.000000000000000e+00
1271 547 -4.512352302278005e-03
1271 1271 6.012537560278189e+00
1272 70 -1.000000000000000e+00
1272 450 -1.000000000000000e+00
1272 1272 3.057436888711098e+00
1273 17 -1.000000000000000e+00
1273 204 -1.007059889639209e+00
1273 224 -1.546301638188885e-02
1273 1273 2.086015484109756e+00
1274 32 -1.000000000000000e+00
1274 411 -1.000000000000000e+00
1274 863 -2.171279816467406e-02
1274 1274 2.043811466922201e+00
1275 32 -1.000000000000000e+00
1275 639 -1.000000000000000e+00
1275 1275 2.084067234762918e+00
1276 168 -1.831912487864093e-02
1276 393 -1.000000000000000e+00
1276 755 -1.000000000000000e+00
1276 1276 5.030536431676375e+00
1277 158 -1.000000000000000e+00
1277 1261 -1.000000000000000e+00
1277 1277 2.031394953554863e+00
1278 276 -1.000000000000000e+00
1278 451 -1.011899581064708e+00
1278 1278 2.037528557844901e+00
1279 124 -1.000000000000000e+00
1279 316 -1.000000000000000e+00
1279 965 -1.000000000000000e+00
1279 1279 3.017352455018941e+00
1280 934 -1.000000000000000e+00
1280 1243 -1.000000000000000e+00
1280 1280 3.046284363781803e+00
1281 635 -1.000000000000000e+00
1281 854 -1.000000000000000e+00
1281 1281 4.026548197038307e+00
1282 93 -1.000000000000000e+00
1282 1127 -1.000000000000000e+00
1282 1158 -7.393019664975292e-03
1282 1282 8.032484789111294e+00
1283 254 -1.000000000000000e+00
1283 1103 -1.000000000000000e+00
1283 1283 6.056420168205996e+00
1284 44 -1.000000000000000e+00
1284 509 -1.000000000000000e+00
1284 1284 3.000000000000000e+00
1285 170 -1.000000000000000e+00
1285 356 -1.000000000000000e+00
1285 1184 -1.344998451415676e-02
1285 1285 7.031214481842095e+00
1286 240 -2.767699589732386e-02
1286 290 -2.367471520660555e-02
1286 559 -1.354478439446584e-02
1286 917 -1.000000000000000e+00
1286 1084 -1.000000000000000e+00
1286 1286 3.122118156642671e+00
1287 162 -1.000000000000000e+00
1287 521 -1.432106902936186e-02
1287 743 -1.000000000000000e+00
1287 1287 3.073758777835440e+00
1288 69 -1.000000000000000e+00
1288 232 -1.000000000000000e+00
1288 1288 6.060707983302071e+00
1289 14 -1.000000000000000e+00
1289 1124 -1.018305278820138e+00
1289 1289 2.020484897384700e+00
1290 362 -1.000000000000000e+00
1290 682 -1.000000000000000e+00
1290 1290 3.014075328900971e+00
1291 1 -1.000000000000000e+00
1291 732 -2.000370889283822e-02
1291 1175 -1.000000000000000e+00
1291 1291 2.062233786189178e+00
1292 309 -1.000000000000000e+00
1292 339 -1.000000000000000e+00
1292 1292 5.008495540386632e+00
1293 674 -1.000000000000000e+00
1293 1068 -1.000000000000000e+00
1293 1199 -9.204308550496025e-03
1293 1293 5.058127485645865e+00
1294 1 -1.000000000000000e+00
1294 562 -2.308727868118517e-02
1294 788 -1.648030087743900e-02
1294 907 -1.000000000000000e+00
1294 1294 6.039567579558624e+00
1295 47 -1.000000000000000e+00
1295 423 -1.000000000000000e+00
1295 1295 5.006744665206715e+00
1296 34 -1.000000000000000e+00
1296 90 -1.000000000000000e+00
1296 174 -2.237677055368823e-02
1296 1152 -6.477496706458807e-03
1296 1296 3.056832593224160e+00
1297 161 -1.000000000000000e+00
1297 436 -1.000000000000000e+00
1297 1297 4.016658378881599e+00
1298 116 -1.000000000000000e+00
1298 931 -1.000000000000000e+00
1298 1298 6.052042672125475e+00
1299 89 -1.000000000000000e+00
1299 202 -1.000000000000000e+00
1299 1299 3.018556590368054e+00
1300 853 -1.000000000000000e+00
1300 938 -1.000000000000000e+00
1300 1287 -1.933706143808907e-02
1300 1300 5.038432660065109e+00
1301 113 -1.000000000000000e+00
1301 401 -3.044898808793131e-03
1301 1157 -1.001398616605769e+00
1301 1301 4.011737513141093e+00
1302 102 -1.000000000000000e+00
1302 556 -7.633194950455370e-03
1302 949 -1.000000000000000e+00
1302 1302 4.028079994358076e+00
1303 11 -1.000000000000000e+00
1303 47 -1.000000000000000e+00
1303 850 -1.309603415616961e-02
1303 1303 4.136435054148311e+00
1304 340 -1.000000000000000e+00
1304 813 -1.000000000000000e+00
1304 1304 6.024553581406002e+00
1305 2 -1.000000000000000e+00
1305 423 -1.000000000000000e+00
1305 971 -6.271232102889343e-05
1305 1305 3.004386641522999e+00
1306 152 -1.000000000000000e+00
1306 781 -1.000000000000000e+00
1306 1028 -1.610392984454488e-02
1306 1306 2.080563710100608e+00
1307 95 -1.000000000000000e+00
1307 198 -2.923433104913448e-02
1307 355 -1.822054407642254e-03
1307 387 -1.273153830572919e-03
1307 870 -1.000000000000000e+00
1307 1252 -6.231419264579189e-03
1307 1307 3.121697570543783e+00
1308 133 -1.000000000000000e+00
1308 708 -1.004249809370298e+00
1308 1062 -1.866382775035888e-03
1308 1308 2.006116192145334e+00
1309 2 -1.000000000000000e+00
1309 88 -1.000000000000000e+00
1309 979 -1.000000000000000e+00
1309 1309 9.033145811189916e+00
1310 7 -1.000000000000000e+00
1310 336 -3.663371640147825e-03
1310 969 -1.017791690806003e+00
1310 1310 3.045043612669181e+00
1311 67 -1.000000000000000e+00
1311 590 -1.000000000000000e+00
1311 1311 5.004957893757177e+00
1312 72 -1.000000000000000e+00
1312 90 -3.800369892509223e-02
1312 371 -1.000000000000000e+00
1312 1312 4.041099785022898e+00
1313 104 -1.000000000000000e+00
1313 863 -1.000000000000000e+00
1313 1313 3.051366041176344e+00
1314 143 -1.000000000000000e+00
1314 769 -1.000000000000000e+00
1314 788 -2.020518420115181e-02
1314 1314 7.036646554658126e+00
1315 148 -1.000000000000000e+00
1315 792 -1.273540935776379e-02
1315 845 -1.498755940493883e-02
1315 921 -1.000000000000000e+00
1315 1315 3.027722968762703e+00
1316 55 -1.000000000000000e+00
1316 469 -6.778583314265169e-04
1316 624 -1.000000000000000e+00
1316 1316 9.047524018983701e+00
1317 151 -1.000000000000000e+00
1317 584 -1.000000000000000e+00
1317 1317 4.049297312148195e+00
1318 66 -1.000000000000000e+00
1318 245 -1.000000000000000e+00
1318 398 -1.744977278433612e-02
1318 1318 4.077101809842484e+00
1319 81 -1.000000000000000e+00
1319 142 -1.019246848810244e+00
1319 368 -1.000000000000000e+00
1319 1103 -3.623759117651641e-03
1319 1319 4.027782490084918e+00
1320 251 -1.000000000000000e+00
1320 273 -1.880124074854344e-02
1320 807 -1.000000000000000e+00
1320 1320 3.029001046144188e+00
1321 73 -1.000000000000000e+00
1321 263 -1.005861280327890e+00
1321 1321 2.011906601925753e+00
1322 1 -1.000000000000000e+00
1322 49 -1.000000000000000e+00
1322 894 -2.621785545746216e-02
1322 1322 3.073169001609888e+00
1323 27 -1.000000000000000e+00
1323 294 -1.000000000000000e+00
1323 576 -4.975304507810498e-03
1323 1323 4.080715061737912e+00
1324 33 -1.000000000000000e+00
1324 871 -1.000000000000000e+00
1324 1324 3.000000000000000e+00
1325 6 -1.221879955991134e-02
1325 525 -1.000000000000000e+00
1325 779 -1.000000000000000e+00
1325 1325 4.042376108036512e+00
1326 7 -1.000000000000000e+00
1326 509 -1.000000000000000e+00
1326 1326 2.037924115811821e+00
1327 311 -6.235479972284103e-03
1327 447 -1.162923512378564e-02
1327 659 -1.000000000000000e+00
1327 675 -1.411025671889109e-02
1327 711 -1.000000000000000e+00
1327 1327 7.147610421519664e+00
1328 320 -1.000000000000000e+00
1328 567 -1.000000000000000e+00
1328 605 -7.996551758479756e-03
1328 684 -5.208587522574817e-03
1328 1328 3.077542478372234e+00
1329 171 -1.000000000000000e+00
1329 294 -1.000000000000000e+00
1329 1329 3.015665978784152e+00
1330 68 -1.000000000000000e+00
1330 861 -1.000000000000000e+00
1330 928 -2.172123631071024e-02
1330 1330 2.084244281389055e+00
1331 6 -1.000000000000000e+00
1331 197 -1.000000000000000e+00
1331 1331 1.003810280449289e+01
1332 97 -1.000000000000000e+00
1332 495 -1.000000000000000e+00
1332 1243 -1.006279981628156e+00
1332 1280 -1.847456056650899e-02
1332 1332 5.046919236250501e+00
1333 140 -1.000000000000000e+00
1333 209 -1.000000000000000e+00
1333 1333 6.027327164828224e+00
1334 71 -1.000000000000000e+00
1334 343 -2.697483211788345e-02
1334 908 -1.000000000000000e+00
1334 1334 8.061251159723259e+00
1335 479 -1.000000000000000e+00
1335 585 -1.252430979464694e-02
1335 614 -1.017891171170259e+00
1335 1335 4.054321535997669e+00
1336 102 -1.000000000000000e+00
1336 219 -1.651932739399883e-02
1336 485 -1.000000000000000e+00
1336 1336 2.033514115693634e+00
1337 93 -1.000000000000000e+00
1337 110 -2.640923108917477e-02
1337 826 -1.000000000000000e+00
1337 1016 -2.750357650113654e-02
1337 1176 -2.977531798014017e-02
1337 1337 4.228742826098241e+00
1338 482 -1.023854881176728e+00
1338 901 -1.000000000000000e+00
1338 1338 5.032646111973924e+00
1339 333 -1.000000000000000e+00
1339 447 -1.000000000000000e+00
1339 1327 -1.473898224837004e-02
1339 1339 3.037003955737886e+00
1340 56 -1.475514461860949e-02
1340 118 -1.000000000000000e+00
1340 289 -1.000000000000000e+00
1340 1340 3.026416986228467e+00
1341 512 -1.000000000000000e+00
1341 1034 -1.000000000000000e+00
1341 1341 6.066333974884147e+00
1342 482 -1.000000000000000e+00
1342 1182 -1.000000000000000e+00
1342 1342 3.011575974431437e+00
1343 93 -1.000000000000000e+00
1343 656 -3.217582991378677e-02
1343 1132 -9.097747286877468e-03
1343 1185 -1.000000000000000e+00
1343 1343 5.118967796486452e+00
1344 659 -1.000000000000000e+00
1344 1227 -1.009291670310061e+00
1344 1344 3.035061180524836e+00
1345 137 -1.000000000000000e+00
1345 341 -1.000000000000000e+00
1345 1345 3.000000000000000e+00
1346 229 -1.000000000000000e+00
1346 1070 -1.001374363169529e+00
1346 1346 2.015988419494496e+00
1347 455 -1.000000000000000e+00
1347 652 -8.308943401148058e-03
1347 849 -1.000000000000000e+00
1347 1347 5.012735647312982e+00
1348 7 -1.000000000000000e+00
1348 566 -1.000000000000000e+00
1348 1348 2.094670303971826e+00
1349 2 -1.000000000000000e+00
1349 127 -1.000000000000000e+00
1349 603 -2.454004780954891e-02
1349 1123 -7.816349287940873e-03
1349 1349 4.062612243247437e+00
1350 361 -1.000000000000000e+00
1350 1214 -1.000000000000000e+00
1350 1350 9.036772858275096e+00
1351 170 -1.000000000000000e+00
1351 877 -1.000000000000000e+00
1351 1351 5.016821859938027e+00
1352 249 -1.000000000000000e+00
1352 908 -1.000000000000000e+00
1352 1352 3.032169736396747e+00
1353 1 -1.000000000000000e+00
1353 335 -1.000000000000000e+00
1353 942 -1.408440004938903e-02
1353 1353 4.028876673064173e+00
1354 783 -1.000000000000000e+00
1354 807 -1.576790409229452e-02
1354 1320 -1.000000000000000e+00
1354 1354 3.035492383097927e+00
1355 2 -1.000000000000000e+00
1355 655 -1.000000000000000e+00
1355 1355 4.059430380129371e+00
1356 157 -1.000000000000000e+00
1356 855 -1.010874092054761e+00
1356 1356 7.026132616018755e+00
1357 70 -1.000000000000000e+00
1357 308 -1.015638795037489e+00
1357 1357 2.047991331229083e+00
1358 379 -1.000000000000000e+00
1358 773 -1.013425722040131e+00
1358 1358 3.026269938262690e+00
1359 972 -1.012674007698347e+00
1359 1104 -1.000000000000000e+00
1359 1359 4.035297020512120e+00
1360 464 -1.000000000000000e+00
1360 496 -1.000000000000000e+00
1360 1360 5.030280565718885e+00
1361 298 -1.000000000000000e+00
1361 424 -1.596316328259517e-02
1361 618 -1.000000000000000e+00
1361 1361 5.032930150929098e+00
1362 88 -1.000000000000000e+00
1362 113 -1.000000000000000e+00
1362 1362 4.049138516361281e+00
1363 378 -1.600531350177855e-02
1363 380 -1.000000000000000e+00
1363 1154 -1.000000000000000e+00
1363 1363 4.016327725436498e+00
1364 463 -1.013822807977552e+00
1364 614 -1.000000000000000e+00
1364 1364 2.037990193075400e+00
1365 56 -1.000000000000000e+00
1365 277 -1.000000000000000e+00
1365 1365 4.038003410402722e+00
1366 17 -1.023366216755243e+00
1366 150 -1.000000000000000e+00
1366 1182 -1.769813928556455e-02
1366 1366 2.064463691774843e+00
1367 159 -1.000000000000000e+00
1367 211 -1.000000000000000e+00
1367 1367 2.038540450549489e+00
1368 5 -1.000000000000000e+00
1368 196 -1.310299863794910e-02
1368 711 -1.000000000000000e+00
1368 1368 6.039414257521377e+00
1369 164 -1.000000000000000e+00
1369 423 -1.000000000000000e+00
1369 659 -1.063322416514150e-02
1369 1369 2.044170664494356e+00
1370 7 -1.000000000000000e+00
1370 307 -1.092264695303994e-02
1370 762 -1.015631176902512e+00
1370 1076 -1.263928183185357e-02
1370 1370 2.052678790702756e+00
1371 50 -1.000000000000000e+00
1371 375 -1.182149027602850e-02
1371 1038 -1.016697544236694e+00
1371 1099 -1.000000000000000e+00
1371 1371 4.028519034512723e+00
1372 108 -1.000000000000000e+00
1372 552 -1.000000000000000e+00
1372 1372 3.000000000000000e+00
1373 527 -1.000000000000000e+00
1373 1241 -1.000000000000000e+00
1373 1373 3.050485107094966e+00
1374 83 -1.020148154665006e+00
1374 1237 -1.000000000000000e+00
1374 1374 3.048650443115963e+00
1375 17 -1.000000000000000e+00
1375 127 -1.000000000000000e+00
1375 145 -9.735903050847624e-03
1375 1001 -1.849601391561357e-02
1375 1375 4.129918283594992e+00
1376 264 -1.000000000000000e+00
1376 1147 -1.000000000000000e+00
1376 1376 4.021784820217445e+00
1377 16 -1.000000000000000e+00
1377 107 -1.857866861908081e-02
1377 984 -1.000000000000000e+00
1377 1377 4.045146173283990e+00
1378 430 -1.001459037442594e+00
1378 684 -1.000000000000000e+00
1378 1378 3.011318305960859e+00
1379 6 -1.000000000000000e+00
1379 623 -1.000000000000000e+00
1379 1379 3.045072121887561e+00
1380 17 -1.000000000000000e+00
1380 436 -1.000000000000000e+00
1380 1380 4.046136615229377e+00
1381 32 -1.000000000000000e+00
1381 983 -1.000000000000000e+00
1381 1381 5.030107236129569e+00
1382 499 -1.000000000000000e+00
1382 1240 -1.000000000000000e+00
1382 1382 3.000000000000000e+00
1383 350 -1.000000000000000e+00
1383 421 -1.000000000000000e+00
1383 815 -1.485189127599956e-02
1383 1383 3.025680965636472e+00
1384 57 -1.000000000000000e+00
1384 1133 -1.000000000000000e+00
1384 1384 4.005895946669557e+00
1385 582 -1.000000000000000e+00
1385 661 -1.028554503709098e+00
1385 1053 -5.759334882324248e-03
1385 1385 2.054128966622950e+00
1386 782 -1.000000000000000e+00
1386 957 -1.000000000000000e+00
1386 1386 4.025092190226939e+00
1387 1095 -1.000000000000000e+00
1387 1256 -8.828934758584985e-03
1387 1331 -1.000000000000000e+00
1387 1387 3.019163971302439e+00
1388 634 -1.000000000000000e+00
1388 738 -1.000000000000000e+00
1388 1388 4.009989008120981e+00
1389 538 -1.000000000000000e+00
1389 739 -1.000000000000000e+00
1389 1389 9.046081529707951e+00
1390 598 -1.000000000000000e+00
1390 722 -1.000000000000000e+00
1390 1390 2.045004857305645e+00
1391 92 -1.000000000000000e+00
1391 204 -1.000000000000000e+00
1391 1273 -3.910287796074751e-03
1391 1391 2.009708961444099e+00
1392 658 -1.000000000000000e+00
1392 964 -1.000000000000000e+00
1392 1392 3.004294862558552e+00
1393 131 -1.027834145929036e+00
1393 291 -1.000000000000000e+00
1393 1393 3.066222509672327e+00
1394 518 -1.683036873256329e-02
1394 643 -1.000000000000000e+00
1394 850 -1.000000000000000e+00
1394 1255 -2.405959221423223e-02
1394 1394 5.078249315604372e+00
1395 96 -1.017797715090727e+00
1395 663 -1.000000000000000e+00
1395 1395 6.028494786516608e+00
1396 46 -1.000000000000000e+00
1396 301 -1.000000000000000e+00
1396 573 -1.310124912070822e-02
1396 989 -1.457220194508962e-03
1396 1259 -3.642095323717167e-03
1396 1396 3.076526249175505e+00
1397 25 -1.000000000000000e+00
1397 297 -1.000000000000000e+00
1397 798 -3.082671132269351e-02
1397 1397 4.053114141971411e+00
1398 69 -1.000000000000000e+00
1398 356 -1.000000000000000e+00
1398 1398 4.031906114336416e+00
1399 67 -1.000000000000000e+00
1399 195 -1.000000000000000e+00
1399 1399 3.019534821259183e+00
1400 4 -1.000000000000000e+00
1400 607 -1.000000000000000e+00
1400 1400 5.037636740929522e+00
1401 404 -1.000000000000000e+00
1401 678 -1.000000000000000e+00
1401 1401 4.023830398201404e+00
1402 91 -1.000000000000000e+00
1402 550 -7.720999726727861e-03
1402 780 -1.000000000000000e+00
1402 1402 3.019131404895790e+00
1403 203 -2.402701150889950e-02
1403 255 -1.000000000000000e+00
1403 402 -1.329348378162067e-02
1403 1169 -1.000000000000000e+00
1403 1403 6.075413776447649e+00
1404 1025 -1.000000000000000e+00
1404 1130 -1.000000000000000e+00
1404 1381 -1.505108125205725e-02
1404 1404 6.084195539217558e+00
1405 632 -1.000000000000000e+00
1405 1343 -1.000000000000000e+00
1405 1405 3.022802270880736e+00
1406 529 -1.000000000000000e+00
1406 598 -1.964094581340676e-02
1406 1003 -1.000000000000000e+00
1406 1406 8.036892509517109e+00
1407 151 -1.000000000000000e+00
1407 1007 -1.000000000000000e+00
1407 1107 -2.161926526483346e-02
1407 1407 2.048325795307958e+00
1408 347 -1.000000000000000e+00
1408 946 -1.000000000000000e+00
1408 1408 6.012911875741594e+00
1409 349 -1.000000000000000e+00
1409 488 -1.000000000000000e+00
1409 1409 4.038067848752712e+00
1410 23 -1.000000000000000e+00
1410 289 -1.000000000000000e+00
1410 1410 3.004117620479247e+00
1411 369 -1.000000000000000e+00
1411 379 -1.000000000000000e+00
1411 561 -1.894991961660141e-02
1411 1411 3.026484168653312e+00
1412 229 -1.196528111932335e-02
1412 584 -1.000000000000000e+00
1412 632 -1.000000000000000e+00
1412 1412 3.032733529107904e+00
1413 86 -1.000000000000000e+00
1413 587 -1.000000000000000e+00
1413 849 -1.058746137580070e-02
1413 1413 3.027897886900055e+00
1414 5 -1.000000000000000e+00
1414 36 -1.000000000000000e+00
1414 826 -1.965441235139145e-03
1414 1414 6.022143662632684e+00
1415 7 -1.000000000000000e+00
1415 1038 -7.907647693997276e-04
1415 1099 -1.274462941751333e-02
1415 1371 -1.000000000000000e+00
1415 1415 2.013535394186913e+00
1416 2 -1.000000000000000e+00
1416 847 -1.000000000000000e+00
1416 1416 2.035235954567321e+00
1417 284 -1.000000000000000e+00
1417 1294 -1.000000000000000e+00
1417 1417 2.039618250421033e+00
1418 2 -1.000000000000000e+00
1418 476 -1.000000000000000e+00
1418 1418 2.041890803431747e+00
1419 21 -1.000000000000000e+00
1419 36 -1.000000000000000e+00
1419 645 -2.134593689884613e-02
1419 1419 3.062021898218271e+00
1420 450 -1.000000000000000e+00
1420 1038 -1.000000000000000e+00
1420 1420 5.025115238215871e+00
1421 7 -1.000000000000000e+00
1421 936 -1.000000000000000e+00
1421 1421 6.057207736519915e+00
1422 88 -1.000000000000000e+00
1422 126 -1.000000000000000e+00
1422 1422 3.006520166239000e+00
1423 2 -1.000000000000000e+00
1423 1368 -1.000000000000000e+00
1423 1423 3.113939809586096e+00
1424 992 -1.003701673048606e+00
1424 1265 -1.000000000000000e+00
1424 1424 3.011963666597607e+00
1425 1 -1.000000000000000e+00
1425 194 -1.007209488116074e+00
1425 1425 4.031330200925287e+00
1426 6 -1.000000000000000e+00
1426 16 -1.000000000000000e+00
1426 363 -8.624773406563467e-03
1426 875 -1.342902479996546e-02
1426 1162 -6.537656567361528e-03
1426 1426 3.075853879057369e+00
1427 773 -1.449703637769805e-02
1427 1092 -1.000000000000000e+00
1427 1132 -1.000000000000000e+00
1427 1427 5.024161487096151e+00
1428 14 -1.020318030132048e+00
1428 78 -1.000000000000000e+00
1428 1428 3.055952451562255e+00
1429 5 -1.000000000000000e+00
1429 78 -1.000000000000000e+00
1429 1429 5.040016762645540e+00
1430 115 -1.000000000000000e+00
1430 118 -1.324820468691142e-02
1430 461 -1.592839283737752e-02
1430 565 -1.000000000000000e+00
1430 1430 6.122103906094483e+00
1431 13 -1.000000000000000e+00
1431 546 -1.000000000000000e+00
1431 1431 2.033600537063995e+00
1432 350 -1.000000000000000e+00
1432 1031 -1.000000000000000e+00
1432 1432 3.000000000000000e+00
1433 210 -1.000000000000000e+00
1433 884 -1.000000000000000e+00
1433 1433 3.013635461283223e+00
1434 26 -1.000000000000000e+00
1434 31 -1.000000000000000e+00
1434 1434 2.015086440392072e+00
1435 307 -1.019365924827948e+00
1435 1076 -1.009176686483593e+00
1435 1248 -7.132246957278955e-04
1435 1370 -1.348568501535126e-02
1435 1435 4.078284337804727e+00
1436 51 -1.000000000000000e+00
1436 496 -1.000000000000000e+00
1436 1436 2.023997481449493e+00
1437 70 -1.000000000000000e+00
1437 657 -1.000000000000000e+00
1437 1437 4.021834000840432e+00
1438 156 -1.920754423816283e-02
1438 519 -1.000000000000000e+00
1438 615 -2.932250188036054e-02
1438 728 -1.000000000000000e+00
1438 1438 6.066068489896288e+00
1439 95 -1.000000000000000e+00
1439 815 -1.000000000000000e+00
1439 855 -1.277035310027290e-02
1439 1356 -1.326474506431741e-02
1439 1439 8.026035098164590e+00
1440 36 -1.000000000000000e+00
1440 164 -1.000000000000000e+00
1440 1440 3.064349694015311e+00
1441 1 -1.000000000000000e+00
1441 834 -1.000000000000000e+00
1441 1319 -1.000000000000000e+00
1441 1441 6.045011116768502e+00
1442 66 -1.000000000000000e+00
1442 1035 -1.000000000000000e+00
1442 1151 -3.173080718114663e-02
1442 1442 4.037868462451386e+00
1443 465 -1.000000000000000e+00
1443 517 -1.644376483210649e-02
1443 847 -1.142189199741548e-02
1443 1430 -1.000000000000000e+00
1443 1443 3.043235193804266e+00
1444 7 -1.000000000000000e+00
1444 1403 -1.000000000000000e+00
1444 1444 4.058382344005855e+00
1445 17 -1.000000000000000e+00
1445 150 -1.124972477292413e-02
1445 1182 -5.451897479095203e-03
1445 1341 -1.000000000000000e+00
1445 1445 3.016701622252020e+00
1446 67 -1.000000000000000e+00
1446 75 -5.508874142322832e-03
1446 371 -1.002653713642720e-02
1446 1333 -1.000000000000000e+00
1446 1446 2.015535411278750e+00
1447 49 -1.000000000000000e+00
1447 63 -1.000000000000000e+00
1447 1447 2.036467237266112e+00
1448 527 -1.000000000000000e+00
1448 779 -1.000000000000000e+00
1448 1448 5.018086878759252e+00
1449 977 -1.000000000000000e+00
1449 1134 -1.038205212521272e+00
1449 1449 2.070991716877275e+00
1450 117 -1.000000000000000e+00
1450 870 -1.002958715940585e+00
1450 1450 2.017104086467777e+00
1451 2 -1.000000000000000e+00
1451 1035 -1.000000000000000e+00
1451 1451 3.000000000000000e+00
1452 36 -1.000000000000000e+00
1452 353 -1.000000000000000e+00
1452 1452 3.000000000000000e+00
1453 891 -1.000000000000000e+00
1453 1026 -1.000000000000000e+00
1453 1453 4.087023637062038e+00
1454 679 -1.000000000000000e+00
1454 1323 -1.000000000000000e+00
1454 1454 3.030848061137077e+00
1455 183 -1.000000000000000e+00
1455 761 -2.205302539496660e-02
1455 1161 -1.000000000000000e+00
1455 1455 2.062956974052570e+00
1456 36 -1.002762983307684e+00
1456 312 -2.122610373353089e-02
1456 1006 -1.596341310586865e-02
1456 1084 -1.000000000000000e+00
1456 1456 3.107411113834531e+00
1457 435 -1.000000000000000e+00
1457 473 -1.000000000000000e+00
1457 1457 4.000000000000000e+00
1458 487 -6.141037679589613e-03
1458 1163 -1.000000000000000e+00
1458 1247 -1.000000000000000e+00
1458 1420 -1.000000000000000e+00
1458 1458 7.020769590810255e+00
1459 498 -1.000000000000000e+00
1459 976 -1.000000000000000e+00
1459 1459 8.007502142662419e+00
1460 7 -1.000000000000000e+00
1460 34 -1.000000000000000e+00
1460 1460 5.018401471593608e+00
1461 17 -1.000000000000000e+00
1461 1404 -1.000000000000000e+00
1461 1461 3.000000000000000e+00
1462 50 -1.000000000000000e+00
1462 401 -1.000000000000000e+00
1462 1462 4.049390704822414e+00
1463 46 -1.000000000000000e+00
1463 287 -2.180197581501150e-02
1463 1350 -1.000000000000000e+00
1463 1396 -6.294763106235340e-03
1463 1463 2.028096738921247e+00
1464 51 -1.000000000000000e+00
1464 341 -1.000000000000000e+00
1464 415 -1.664782179812753e-02
1464 1464 5.053307393439169e+00
1465 6 -1.000000000000000e+00
1465 30 -1.000000000000000e+00
1465 144 -1.000000000000000e+00
1465 196 -1.629472610494741e-03
1465 988 -4.630630106258314e-03
1465 1368 -1.491522453485687e-02
1465 1465 6.031166661469013e+00
1466 206 -1.000000000000000e+00
1466 507 -1.000000000000000e+00
1466 723 -1.000000000000000e+00
1466 1466 3.000000000000000e+00
1467 818 -1.000000000000000e+00
1467 1462 -1.000000000000000e+00
1467 1467 6.009913270463937e+00
1468 160 -1.000000000000000e+00
1468 513 -4.929919845054748e-03
1468 615 -1.000000000000000e+00
1468 1468 2.010575008947783e+00
1469 335 -1.000000000000000e+00
1469 1157 -1.000000000000000e+00
1469 1408 -8.528482216811985e-03
1469 1469 4.034421942395109e+00
1470 39 -1.010956837373326e+00
1470 1163 -1.000000000000000e+00
1470 1470 2.026430212405496e+00
1471 799 -1.000000000000000e+00
1471 1389 -1.000000000000000e+00
1471 1471 5.015535456664806e+00
1472 2 -1.000000000000000e+00
1472 182 -1.000000000000000e+00
1472 1472 6.025031519061959e+00
1473 10 -1.000000000000000e+00
1473 289 -1.000000000000000e+00
1473 1473 4.004142104898659e+00
1474 163 -1.000000000000000e+00
1474 1414 -1.000000000000000e+00
1474 1474 5.023699215906245e+00
1475 520 -1.000000000000000e+00
1475 1028 -1.000000000000000e+00
1475 1475 3.000000000000000e+00
1476 97 -1.000000000000000e+00
1476 112 -1.000000000000000e+00
1476 1476 2.030630475648632e+00
1477 1 -1.000000000000000e+00
1477 243 -1.000000000000000e+00
1477 1477 4.072493167964147e+00
1478 158 -1.000000000000000e+00
1478 700 -1.000000000000000e+00
1478 1478 4.033501337750790e+00
1479 384 -1.000000000000000e+00
1479 674 -1.000000000000000e+00
1479 1479 3.000000000000000e+00
1480 350 -1.000000000000000e+00
1480 1222 -1.000000000000000e+00
1480 1480 5.024260129529670e+00
1481 63 -1.000000000000000e+00
1481 101 -1.000000000000000e+00
1481 606 -1.000000000000000e+00
1481 650 -1.453112532818632e-02
1481 1481 6.039017896769184e+00
1482 4 -1.593188657682184e-02
1482 99 -1.943030636439988e-02
1482 562 -1.000000000000000e+00
1482 939 -1.502641073890998e-02
1482 1301 -1.000000000000000e+00
1482 1482 6.097784868972852e+00
1483 925 -1.004981557190798e+00
1483 1007 -1.000000000000000e+00
1483 1483 2.004981557190798e+00
1484 252 -1.019846941385846e+00
1484 731 -1.000000000000000e+00
1484 1482 -2.931603538902751e-02
1484 1484 3.049162976774873e+00
1485 771 -1.000000000000000e+00
1485 1135 -1.000000000000000e+00
1485 1485 3.020535326550129e+00
1486 12 -1.000000000000000e+00
1486 320 -1.000000000000000e+00
1486 666 -9.372052564729885e-03
1486 1486 8.055363144102456e+00
1487 479 -1.957254332242670e-02
1487 663 -1.000000000000000e+00
1487 1202 -1.000000000000000e+00
1487 1487 2.031531882579237e+00
1488 157 -1.000000000000000e+00
1488 318 -1.000000000000000e+00
1488 1488 2.027312878212361e+00
1489 178 -1.009414719236225e+00
1489 1217 -1.067885276285254e-02
1489 1269 -1.000000000000000e+00
1489 1489 6.061417571679661e+00
1490 393 -1.702264445087803e-02
1490 507 -1.000000000000000e+00
1490 607 -1.007449332955407e+00
1490 1490 3.045839274252466e+00
1491 153 -1.000000000000000e+00
1491 921 -1.788482775912052e-02
1491 1350 -1.000000000000000e+00
1491 1491 4.034514199267487e+00
1492 132 -1.000000000000000e+00
1492 551 -1.000000000000000e+00
1492 623 -1.346923549534658e-02
1492 1492 2.072658491362287e+00
1493 49 -1.000000000000000e+00
1493 318 -1.000000000000000e+00
1493 844 -7.551706775404116e-04
1493 1493 2.016808986015003e+00
1494 113 -1.000000000000000e+00
1494 1460 -1.000000000000000e+00
1494 1494 4.066804710244927e+00
1495 318 -1.000000000000000e+00
1495 800 -1.000000000000000e+00
1495 1495 4.018247897796304e+00
1496 481 -8.116368508043476e-03
1496 651 -1.000000000000000e+00
1496 741 -1.000000000000000e+00
1496 1496 2.016025710414236e+00
1497 62 -1.000000000000000e+00
1497 75 -1.000000000000000e+00
1497 208 -1.411584153676360e-02
1497 1497 5.035026139489111e+00
1498 13 -1.000000000000000e+00
1498 88 -1.000000000000000e+00
1498 1498 2.054635303939271e+00
1499 113 -1.000000000000000e+00
1499 913 -1.000000000000000e+00
1499 1499 7.039359683138498e+00
1500 78 -1.000000000000000e+00
1500 292 -1.000000000000000e+00
1500 555 -1.863319314822129e-02
1500 1500 3.031280549264145e+00
1501 181 -1.000000000000000e+00
1501 264 -1.000000000000000e+00
1501 1501 3.022234293656492e+00
1502 386 -1.000000000000000e+00
1502 850 -1.521832347658495e-02
1502 885 -1.000000000000000e+00
1502 1502 3.044165700132162e+00
1503 508 -1.000000000000000e+00
1503 1143 -1.000000000000000e+00
1503 1503 6.008258872437493e+00
1504 33 -1.026394515363293e+00
1504 70 -1.000000000000000e+00
1504 596 -1.925060778718597e-02
1504 627 -1.000000000000000e+00
1504 1504 4.051898075577024e+00
1505 214 -1.003236152992719e+00
1505 838 -1.000000000000000e+00
1505 1505 3.027327749731487e+00
1506 56 -1.000000000000000e+00
1506 186 -1.010353748533905e+00
1506 461 -2.156097331284822e-02
1506 1506 5.084541492159382e+00
1507 158 -8.975454274769682e-03
1507 673 -1.000000000000000e+00
1507 727 -1.000000000000000e+00
1507 841 -1.648555551319586e-02
1507 949 -1.030108519064692e-02
1507 1507 2.052400776020642e+00
1508 193 -1.000000000000000e+00
1508 1029 -2.624521216922438e-02
1508 1225 -1.000000000000000e+00
1508 1508 2.071201229206224e+00
1509 96 -1.016400627818419e+00
1509 723 -1.000000000000000e+00
1509 1227 -1.000000000000000e+00
1509 1509 3.025507844287395e+00
1510 2 -1.000000000000000e+00
1510 791 -1.000000000000000e+00
1510 1510 2.031671354352895e+00
1511 88 -1.000000000000000e+00
1511 548 -1.000000000000000e+00
1511 600 -1.016068054494532e+00
1511 1511 4.023635839351473e+00
1512 3 -1.000000000000000e+00
1512 272 -1.758771057401931e-02
1512 762 -1.000000000000000e+00
1512 952 -1.594917485138180e-02
1512 1512 4.058330259281810e+00
1513 663 -1.000000000000000e+00
1513 1148 -1.000000000000000e+00
1513 1513 5.006684974083274e+00
1514 83 -1.026112566537327e+00
1514 227 -1.000000000000000e+00
1514 757 -3.759645100158907e-03
1514 1374 -1.036273864881367e-02
1514 1514 4.110577662155266e+00
1515 10 -1.000000000000000e+00
1515 67 -1.000000000000000e+00
1515 1515 2.017693777037824e+00
1516 586 -2.360583677562898e-02
1516 782 -1.000000000000000e+00
1516 1137 -1.000000000000000e+00
1516 1406 -1.000000000000000e+00
1516 1516 4.092693288183188e+00
1517 10 -1.000000000000000e+00
1517 78 -1.000000000000000e+00
1517 1517 4.022581891240906e+00
1518 202 -8.408939983767441e-03
1518 553 -1.000000000000000e+00
1518 619 -1.000000000000000e+00
1518 1518 2.041309149820502e+00
1519 427 -9.327835414605133e-03
1519 552 -1.000000000000000e+00
1519 1012 -1.000000000000000e+00
1519 1519 8.029592166527159e+00
1520 132 -1.000000000000000e+00
1520 301 -1.000000000000000e+00
1520 844 -3.054559002579562e-04
1520 1520 2.037165387623678e+00
1521 335 -1.000000000000000e+00
1521 388 -1.000000000000000e+00
1521 1350 -8.687146348404423e-03
1521 1521 6.054596883409407e+00
1522 342 -1.000000000000000e+00
1522 664 -1.000000000000000e+00
1522 1522 3.001930471684161e+00
1523 616 -1.000000000000000e+00
1523 994 -1.000000000000000e+00
1523 1523 3.033655964874018e+00
1524 39 -1.337165315915427e-03
1524 160 -1.000000000000000e+00
1524 513 -7.510494382835361e-03
1524 742 -1.000000000000000e+00
1524 1468 -5.645089102727941e-03
1524 1524 2.014492748801479e+00
1525 6 -1.000000000000000e+00
1525 287 -1.000000000000000e+00
1525 696 -1.772125111540094e-02
1525 783 -1.199734955920043e-02
1525 1325 -3.015730847660073e-02
1525 1525 3.143577968906139e+00
1526 254 -1.000000000000000e+00
1526 384 -1.000000000000000e+00
1526 1137 -2.101886553941835e-02
1526 1337 -2.260073953553743e-02
1526 1526 3.043619605074956e+00
1527 251 -1.000000000000000e+00
1527 753 -1.002020384905318e+00
1527 1527 3.002020384905317e+00
1528 78 -1.000000000000000e+00
1528 1265 -1.000000000000000e+00
1528 1528 7.080153450646880e+00
1529 26 -1.000000000000000e+00
1529 281 -4.806662336221634e-03
1529 940 -1.000000000000000e+00
1529 1529 3.015626877967749e+00
1530 104 -1.000000000000000e+00
1530 626 -1.000000000000000e+00
1530 1530 2.024490547847743e+00
1531 16 -1.000000000000000e+00
1531 83 -1.000000000000000e+00
1531 374 -1.594671974184801e-03
1531 533 -1.033982146924307e-02
1531 817 -1.534873029467602e-02
1531 1130 -1.789091924143068e-03
1531 1531 2.121819473237867e+00
1532 17 -1.000000000000000e+00
1532 369 -1.000000000000000e+00
1532 1532 4.013253097155115e+00
1533 49 -1.000000000000000e+00
1533 677 -1.000000000000000e+00
1533 695 -1.497467123190945e-02
1533 1533 2.032473852367368e+00
1534 364 -9.174286733611364e-04
1534 688 -1.000000000000000e+00
1534 904 -1.000000000000000e+00
1534 1534 8.017136347920090e+00
1535 102 -1.000000000000000e+00
1535 884 -1.000000000000000e+00
1535 1535 6.029744001821112e+00
1536 5 -1.000000000000000e+00
1536 281 -1.000000000000000e+00
1536 1536 2.034127162386458e+00
1537 7 -1.000000000000000e+00
1537 566 -1.849443621217177e-02
1537 659 -1.000000000000000e+00
1537 1537 2.091487933652688e+00
1538 478 -1.000000000000000e+00
1538 1426 -1.000000000000000e+00
1538 1538 1.302821180833737e+01
1539 141 -1.000000000000000e+00
1539 173 -1.000000000000000e+00
1539 1539 5.052427406870031e+00
1540 101 -1.000000000000000e+00
1540 366 -1.000000000000000e+00
1540 1540 3.009152549831632e+00
1541 656 -1.000000000000000e+00
1541 818 -1.000000000000000e+00
1541 1541 4.007058764641768e+00
1542 193 -1.000000000000000e+00
1542 599 -1.000000000000000e+00
1542 1542 3.008597718001980e+00
1543 16 -1.000000000000000e+00
1543 89 -1.000000000000000e+00
1543 134 -2.171891979302544e-02
1543 428 -6.438463400589243e-03
1543 716 -1.839497220447110e-02
1543 1154 -1.261693159417008e-02
1543 1348 -2.676884522229566e-02
1543 1543 5.104274577770932e+00
1544 439 -1.687128749045110e-02
1544 463 -1.000000000000000e+00
1544 835 -1.666997741542541e-03
1544 1008 -1.000000000000000e+00
1544 1544 3.031543456796811e+00
1545 240 -1.000000000000000e+00
1545 344 -1.000000000000000e+00
1545 1520 -1.862751306965392e-02
1545 1545 8.034374677484491e+00
1546 17 -1.000000000000000e+00
1546 250 -1.000000000000000e+00
1546 1182 -9.972656394159122e-03
1546 1546 3.029877144931485e+00
1547 750 -1.001745045120732e+00
1547 807 -1.000000000000000e+00
1547 1547 3.001745045120732e+00
1548 204 -1.000000000000000e+00
1548 414 -1.319165041965687e-02
1548 736 -3.719244955524943e-03
1548 1086 -8.009586710038553e-03
1548 1157 -1.000000000000000e+00
1548 1548 3.038671607538214e+00
1549 300 -1.000000000000000e+00
1549 1215 -1.000000000000000e+00
1549 1549 4.040518395751453e+00
1550 192 -1.000000000000000e+00
1550 504 -1.000000000000000e+00
1550 1550 3.007904081197779e+00
1551 195 -1.000000000000000e+00
1551 613 -3.048188895739775e-03
1551 765 -7.073939922976755e-03
1551 1129 -1.000000000000000e+00
1551 1551 5.010122128818717e+00
1552 1 -1.000000000000000e+00
1552 323 -1.068162164921695e-02
1552 551 -1.000000000000000e+00
1552 1100 -1.454188253771069e-02
1552 1552 5.087479536447891e+00
1553 34 -1.000000000000000e+00
1553 406 -1.664107592494955e-02
1553 1453 -1.000000000000000e+00
1553 1553 4.053681148447231e+00
1554 7 -1.000000000000000e+00
1554 443 -1.000000000000000e+00
1554 566 -1.763987154168803e-02
1554 900 -1.000000000000000e+00
1554 1194 -1.996930274024832e-02
1554 1554 4.097536509317749e+00
1555 599 -1.000000000000000e+00
1555 1303 -3.335935141261688e-02
1555 1421 -1.000000000000000e+00
1555 1555 3.047472797433453e+00
1556 144 -1.000000000000000e+00
1556 506 -2.293095491147772e-02
1556 840 -1.014784193401738e+00
1556 1556 3.037715148313216e+00
1557 32 -1.000000000000000e+00
1557 44 -1.148627061107551e-02
1557 230 -6.532430934920312e-03
1557 1025 -1.000000000000000e+00
1557 1557 2.037144399652417e+00
1558 57 -1.000000000000000e+00
1558 938 -1.000000000000000e+00
1558 1287 -1.749617668145563e-02
1558 1558 5.038773646708140e+00
1559 182 -1.000000000000000e+00
1559 498 -1.000000000000000e+00
1559 1559 2.038850468853010e+00
1560 11 -1.000000000000000e+00
1560 798 -2.048360630419399e-02
1560 904 -2.327000567050982e-02
1560 1351 -1.000000000000000e+00
1560 1560 3.043753611974704e+00
1561 238 -2.698426219673752e-04
1561 318 -1.000000000000000e+00
1561 1467 -1.000000000000000e+00
1561 1561 5.039768963682200e+00
1562 119 -1.023266229728302e+00
1562 869 -1.000000000000000e+00
1562 1562 2.041254103458035e+00
1563 20 -1.000000000000000e+00
1563 506 -1.289383998002427e-02
1563 922 -1.010880355384059e+00
1563 1563 4.038007913548646e+00
1564 86 -1.000000000000000e+00
1564 1045 -1.432321236633671e-02
1564 1227 -1.000000000000000e+00
1564 1564 4.055836493022224e+00
1565 823 -1.000000000000000e+00
1565 968 -1.000000000000000e+00
1565 1565 8.068546053961329e+00
1566 318 -1.127047148909138e-02
1566 828 -1.821280987230845e-02
1566 924 -1.000000000000000e+00
1566 1040 -1.000000000000000e+00
1566 1112 -1.159897247586512e-02
1566 1566 3.056216349699065e+00
1567 567 -1.000000000000000e+00
1567 800 -1.000000000000000e+00
1567 859 -1.000000000000000e+00
1567 1419 -1.000000000000000e+00
1567 1567 5.019252632023799e+00
1568 70 -1.000000000000000e+00
1568 340 -1.000874111038466e+00
1568 524 -8.933675161269446e-03
1568 1568 4.011869863671817e+00
1569 204 -1.687214233419389e-02
1569 496 -1.000000000000000e+00
1569 1138 -2.067819911946596e-02
1569 1439 -1.000000000000000e+00
1569 1569 4.037550341453660e+00
1570 173 -1.616346933410615e-02
1570 251 -1.000000000000000e+00
1570 829 -8.659967541712846e-03
1570 1102 -1.000000000000000e+00
1570 1570 4.063162503805827e+00
1571 140 -1.000000000000000e+00
1571 1089 -6.439192912717120e-03
1571 1309 -1.000000000000000e+00
1571 1571 9.006520075621165e+00
1572 2 -1.000000000000000e+00
1572 226 -1.011898704053078e+00
1572 1037 -1.853055546181174e-03
1572 1224 -2.533895096590665e-03
1572 1572 2.016285654695849e+00
1573 463 -1.000000000000000e+00
1573 1030 -2.237935125809118e-02
1573 1123 -9.147450277471875e-04
1573 1349 -1.000000000000000e+00
1573 1573 2.090218135464058e+00
1574 29 -4.876527692404217e-03
1574 340 -1.000000000000000e+00
1574 343 -1.000000000000000e+00
1574 1574 3.040067020608484e+00
1575 567 -1.000000000000000e+00
1575 1257 -1.000000000000000e+00
1575 1575 2.031688191141161e+00
1576 93 -1.000000000000000e+00
1576 107 -1.000000000000000e+00
1576 1576 3.006714279380386e+00
1577 33 -1.000000000000000e+00
1577 598 -1.000000000000000e+00
1577 1577 5.021573958269680e+00
1578 360 -1.000000000000000e+00
1578 1327 -1.000000000000000e+00
1578 1578 5.039803538784059e+00
1579 137 -1.000000000000000e+00
1579 1008 -1.000000000000000e+00
1579 1579 3.000890647142036e+00
1580 219 -1.000000000000000e+00
1580 251 -3.554521095825115e-02
1580 884 -1.011720548479284e+00
1580 1535 -1.796806763067961e-02
1580 1580 4.082615325779350e+00
1581 24 -1.000000000000000e+00
1581 204 -1.000000000000000e+00
1581 461 -2.112464498606347e-02
1581 1581 4.028940309767525e+00
1582 457 -1.000000000000000e+00
1582 532 -1.000000000000000e+00
1582 1582 4.045717233710733e+00
1583 12 -1.883190036472309e-02
1583 1048 -1.000000000000000e+00
1583 1532 -1.000000000000000e+00
1583 1583 7.038583860721082e+00
1584 47 -1.016176616615237e+00
1584 1145 -1.000000000000000e+00
1584 1584 3.049660501885398e+00
1585 379 -1.000000000000000e+00
1585 1191 -1.000000000000000e+00
1585 1585 2.080450211390730e+00
1586 455 -1.000000000000000e+00
1586 679 -1.000000000000000e+00
1586 1586 3.056618786623235e+00
1587 465 -1.000000000000000e+00
1587 915 -1.003323085488952e+00
1587 1587 2.004785755659942e+00
1588 12 -1.000000000000000e+00
1588 88 -1.000000000000000e+00
1588 1498 -1.388577033749942e-02
1588 1588 4.031909823430551e+00
1589 836 -1.836251346284997e-02
1589 1394 -1.000000000000000e+00
1589 1584 -1.000000000000000e+00
1589 1589 8.028307049862335e+00
1590 284 -1.000000000000000e+00
1590 612 -1.000000000000000e+00
1590 1590 5.035051704743086e+00
1591 311 -1.000000000000000e+00
1591 1027 -1.002833412767119e+00
1591 1591 2.011945527103860e+00
1592 50 -1.000000000000000e+00
1592 304 -1.000000000000000e+00
1592 1332 -5.255301365470603e-03
1592 1592 4.021269361177213e+00
1593 108 -1.000000000000000e+00
1593 991 -1.000000000000000e+00
1593 1593 5.026880528945441e+00
1594 370 -1.000000000000000e+00
1594 854 -1.000000000000000e+00
1594 1594 6.036191187540138e+00
1595 178 -1.000000000000000e+00
1595 240 -1.000000000000000e+00
1595 1595 5.023611263844137e+00
1596 88 -1.000000000000000e+00
1596 236 -1.000000000000000e+00
1596 1596 6.046163289256824e+00
1597 7 -1.000000000000000e+00
1597 641 -1.000000000000000e+00
1597 1554 -1.368423343354977e-02
1597 1597 2.026210993943024e+00
1598 705 -1.000000000000000e+00
1598 935 -1.000000000000000e+00
1598 1231 -1.410284009297885e-02
1598 1598 3.034384276033337e+00
1599 10 -1.000000000000000e+00
1599 426 -1.000000000000000e+00
1599 684 -1.000000000000000e+00
1599 717 -2.024336197015672e-02
1599 854 -9.101553440238804e-03
1599 1599 4.029344915410396e+00
1600 7 -1.000000000000000e+00
1600 859 -1.000964369331212e+00
1600 1600 4.019103087817530e+00
1601 2 -1.000000000000000e+00
1601 202 -1.000000000000000e+00
1601 1601 4.040512065058134e+00
1602 436 -1.000000000000000e+00
1602 650 -1.242537660210940e-02
1602 1481 -1.008768155644004e+00
1602 1602 3.079628115725793e+00
1603 929 -1.000000000000000e+00
1603 1429 -1.000000000000000e+00
1603 1603 3.006771378853902e+00
1604 93 -1.000000000000000e+00
1604 140 -1.000000000000000e+00
1604 1604 3.015920688350979e+00
1605 94 -1.000000000000000e+00
1605 617 -1.000000000000000e+00
1605 1605 3.028627806915979e+00
1606 238 -1.011850048689326e+00
1606 1458 -1.000000000000000e+00
1606 1606 4.023436424202655e+00
1607 44 -1.000000000000000e+00
1607 705 -1.033802009546446e+00
1607 1231 -2.697362974977249e-03
1607 1607 3.036499372521424e+00
1608 68 -1.000000000000000e+00
1608 226 -1.000000000000000e+00
1608 1037 -8.898098535290086e-04
1608 1224 -6.387991044558694e-04
1608 1608 4.001528608957985e+00
1609 339 -1.000000000000000e+00
1609 1389 -1.000000000000000e+00
1609 1609 5.020941591227533e+00
1610 502 -1.000000000000000e+00
1610 1519 -1.000000000000000e+00
1610 1610 3.009342994809928e+00
1611 349 -1.000000000000000e+00
1611 1059 -1.000000000000000e+00
1611 1611 3.026664301284794e+00
1612 330 -1.000000000000000e+00
1612 550 -1.000000000000000e+00
1612 1612 2.040867679571155e+00
1613 680 -1.000000000000000e+00
1613 1149 -1.000000000000000e+00
1613 1613 3.000000000000000e+00
1614 497 -1.000000000000000e+00
1614 539 -1.000000000000000e+00
1614 1565 -2.150789019257178e-02
1614 1614 2.079314473513564e+00
1615 477 -1.000000000000000e+00
1615 775 -9.430635013232290e-03
1615 832 -1.000000000000000e+00
1615 1615 6.022351614353548e+00
1616 136 -3.273716016543924e-03
1616 281 -2.312559163387771e-03
1616 380 -1.000000000000000e+00
1616 449 -8.725932461081300e-03
1616 1292 -1.000000000000000e+00
1616 1434 -5.674886019439834e-04
1616 1472 -1.082116945046547e-02
1616 1529 -1.082021563152773e-02
1616 1536 -1.352867629051867e-02
1616 1616 2.071653802824041e+00
1617 384 -1.002547372873218e+00
1617 871 -3.746461396421418e-03
1617 1314 -1.000000000000000e+00
1617 1617 4.010836644044889e+00
1618 2 -1.000000000000000e+00
1618 674 -1.001073673262045e+00
1618 1618 2.021348202319349e+00
1619 50 -1.000000000000000e+00
1619 62 -1.000000000000000e+00
1619 595 -2.665513856209308e-02
1619 1453 -1.532378321771838e-02
1619 1619 3.088271232774224e+00
1620 1148 -1.000000000000000e+00
1620 1260 -1.000000000000000e+00
1620 1582 -2.566386050854960e-02
1620 1620 2.126225040029200e+00
1621 11 -1.000000000000000e+00
1621 91 -1.442432478464351e-02
1621 923 -1.000000000000000e+00
1621 1387 -1.033503654385378e-02
1621 1621 4.054586088858030e+00
1622 882 -1.000000000000000e+00
1622 1215 -1.000000000000000e+00
1622 1622 3.052371265439862e+00
1623 1 -1.000000000000000e+00
1623 82 -1.000000000000000e+00
1623 1623 3.087976013084273e+00
1624 45 -1.000000000000000e+00
1624 442 -1.000000000000000e+00
1624 1333 -1.000000000000000e+00
1624 1624 3.034853750927649e+00
1625 61 -1.000000000000000e+00
1625 83 -1.000000000000000e+00
1625 687 -1.654760407316260e-02
1625 1222 -7.382382825342126e-03
1625 1480 -1.776978874660633e-02
1625 1625 2.073366857907827e+00
1626 7 -1.000000000000000e+00
1626 716 -1.255287520474844e-02
1626 1543 -1.000000000000000e+00
1626 1626 2.035873000637769e+00
1627 1 -1.000000000000000e+00
1627 93 -1.000000000000000e+00
1627 180 -2.671428084306612e-02
1627 1627 3.056747000075815e+00
1628 385 -1.000000000000000e+00
1628 1102 -1.000000000000000e+00
1628 1628 1.102707409354328e+01
1629 670 -1.009757908863025e+00
1629 722 -1.000000000000000e+00
1629 1629 3.044118572081000e+00
1630 406 -1.000000000000000e+00
1630 475 -1.000000000000000e+00
1630 1630 5.018172576949446e+00
1631 16 -1.000000000000000e+00
1631 28 -1.000000000000000e+00
1631 512 -2.166102712898534e-02
1631 1341 -1.526490979527921e-02
1631 1631 2.153163784013632e+00
1632 8 -1.000000000000000e+00
1632 1146 -1.000000000000000e+00
1632 1376 -1.000000000000000e+00
1632 1632 7.036649920264395e+00
1633 1083 -1.000000000000000e+00
1633 1311 -1.000000000000000e+00
1633 1633 4.013130690073724e+00
1634 644 -1.000000000000000e+00
1634 1225 -1.000000000000000e+00
1634 1508 -4.495601703699934e-02
1634 1634 3.062226608319375e+00
1635 798 -1.000000000000000e+00
1635 1254 -1.000000000000000e+00
1635 1303 -1.943595702348637e-02
1635 1635 2.057249226969335e+00
1636 335 -4.154705150932673e-03
1636 507 -1.000000000000000e+00
1636 806 -1.014316781653976e+00
1636 1253 -7.792016578810052e-03
1636 1353 -1.479227301478377e-02
1636 1636 2.041055776398502e+00
1637 236 -1.000000000000000e+00
1637 715 -1.000000000000000e+00
1637 1637 2.048691604607170e+00
1638 466 -2.652346969979938e-02
1638 723 -1.000000000000000e+00
1638 940 -1.000000000000000e+00
1638 1638 2.058950452653483e+00
1639 61 -1.020467391162585e+00
1639 549 -1.000000000000000e+00
1639 1625 -1.731187378399649e-02
1639 1639 2.070522355149509e+00
1640 1382 -1.000000000000000e+00
1640 1448 -1.000000000000000e+00
1640 1640 4.024055328699852e+00
1641 9 -1.000000000000000e+00
1641 244 -1.393161958138574e-02
1641 812 -1.948955000253230e-02
1641 823 -1.000000000000000e+00
1641 1641 3.125394663968331e+00
1642 147 -3.611521749739673e-03
1642 176 -1.000000000000000e+00
1642 1211 -1.000000000000000e+00
1642 1642 2.032930891474174e+00
1643 174 -1.000000000000000e+00
1643 623 -1.000000000000000e+00
1643 1643 8.024164357562858e+00
1644 48 -1.000000000000000e+00
1644 229 -1.012695941495525e+00
1644 1346 -1.461405632496652e-02
1644 1644 5.027309997820491e+00
1645 408 -1.000000000000000e+00
1645 491 -1.000000000000000e+00
1645 1203 -3.898186913169102e-03
1645 1645 2.020183996906987e+00
1646 242 -1.000000000000000e+00
1646 248 -1.000000000000000e+00
1646 377 -1.000000000000000e+00
1646 1125 -2.267115527413044e-02
1646 1646 4.042136839398714e+00
1647 2 -1.000000000000000e+00
1647 679 -1.015082180934924e-02
1647 681 -1.926074416845899e-02
1647 767 -1.014552516620441e+00
1647 1647 4.074454108617809e+00
1648 292 -1.000000000000000e+00
1648 674 -1.006468101784675e+00
1648 1648 2.014108632935106e+00
1649 798 -1.000000000000000e+00
1649 859 -1.000000000000000e+00
1649 1649 3.033351717368931e+00
1650 199 -1.000000000000000e+00
1650 1204 -1.000000000000000e+00
1650 1650 2.009865213635892e+00
1651 1 -1.000000000000000e+00
1651 212 -3.059220573518559e-02
1651 788 -1.000000000000000e+00
1651 975 -2.890720445416042e-02
1651 1651 4.059499410189346e+00
1652 12 -1.000000000000000e+00
1652 240 -1.000000000000000e+00
1652 452 -1.489281100358263e-02
1652 1652 4.045803147899606e+00
1653 999 -1.000000000000000e+00
1653 1304 -1.005035984346396e+00
1653 1653 7.015915988714382e+00
1654 2 -1.000000000000000e+00
1654 1103 -1.000000000000000e+00
1654 1654 3.027832101515806e+00
1655 357 -1.000000000000000e+00
1655 871 -1.000000000000000e+00
1655 1622 -2.744555865304017e-02
1655 1655 4.065932400412955e+00
1656 344 -1.000000000000000e+00
1656 391 -1.000000000000000e+00
1656 1656 4.019186614964616e+00
1657 594 -1.000000000000000e+00
1657 1005 -1.000000000000000e+00
1657 1657 7.010814641201250e+00
1658 16 -1.000000000000000e+00
1658 240 -1.000000000000000e+00
1658 290 -1.728262900823009e-02
1658 1658 3.026710998508952e+00
1659 12 -1.946437956603148e-02
1659 44 -1.000000000000000e+00
1659 926 -1.000000000000000e+00
1659 1225 -5.810995747835112e-03
1659 1659 5.056891938323980e+00
1660 112 -1.000000000000000e+00
1660 1271 -1.000000000000000e+00
1660 1476 -8.819899352625967e-03
1660 1660 3.062770619185872e+00
1661 22 -1.000000000000000e+00
1661 69 -1.000000000000000e+00
1661 1661 2.048348256375311e+00
1662 102 -1.000000000000000e+00
1662 282 -1.000000000000000e+00
1662 758 -1.006076767992709e+00
1662 763 -2.265985478638021e-02
1662 1662 3.038368245585764e+00
1663 28 -1.000000000000000e+00
1663 255 -1.971630978904805e-02
1663 402 -1.000000000000000e+00
1663 1010 -1.943921978523775e-02
1663 1663 8.076074522553096e+00
1664 682 -1.000000000000000e+00
1664 722 -1.000000000000000e+00
1664 1664 3.000000000000000e+00
1665 118 -1.000000000000000e+00
1665 858 -2.745470540815402e-02
1665 1016 -1.000000000000000e+00
1665 1238 -2.334958710127408e-02
1665 1665 4.077762952895964e+00
1666 632 -1.000000000000000e+00
1666 840 -1.000000000000000e+00
1666 1113 -1.480500612476563e-02
1666 1666 2.033856143889102e+00
1667 402 -1.000000000000000e+00
1667 570 -1.000000000000000e+00
1667 1667 3.027563137354333e+00
1668 195 -1.000000000000000e+00
1668 435 -1.003209173047854e+00
1668 1668 4.009822794283727e+00
1669 105 -1.000000000000000e+00
1669 345 -1.000000000000000e+00
1669 705 -1.027896610843332e-02
1669 1003 -1.000000000000000e+00
1669 1231 -1.040419871740177e-02
1669 1669 4.061066754228237e+00
1670 36 -1.000000000000000e+00
1670 778 -4.019606567200401e-03
1670 1160 -1.000000000000000e+00
1670 1670 6.023850691754734e+00
1671 2 -1.000000000000000e+00
1671 1632 -1.000000000000000e+00
1671 1671 3.056344518503871e+00
1672 16 -6.869652963711512e-03
1672 74 -5.814233881776020e-03
1672 454 -1.000000000000000e+00
1672 1561 -1.000000000000000e+00
1672 1672 6.086539545765775e+00
1673 69 -1.000000000000000e+00
1673 78 -1.000000000000000e+00
1673 292 -1.973089748648267e-02
1673 1673 2.034804365008265e+00
1674 229 -1.000000000000000e+00
1674 565 -1.000000000000000e+00
1674 679 -1.887817459538680e-02
1674 681 -2.563385468126551e-02
1674 1674 2.063385595277938e+00
1675 193 -1.846909207915058e-02
1675 218 -1.000000000000000e+00
1675 249 -1.000000000000000e+00
1675 1675 5.099248881260388e+00
1676 18 -1.000000000000000e+00
1676 549 -1.230689033814197e-02
1676 976 -1.217827311480480e-02
1676 1601 -1.000000000000000e+00
1676 1676 4.087345582896170e+00
1677 4 -1.262235299497919e-02
1677 115 -1.954924023896837e-02
1677 252 -1.737416254779963e-02
1677 323 -1.243923267672363e-02
1677 575 -1.000000000000000e+00
1677 939 -1.000000000000000e+00
1677 1677 3.087144546997599e+00
1678 379 -1.000000000000000e+00
1678 1523 -1.000000000000000e+00
1678 1678 2.028919401984218e+00
1679 313 -1.000000000000000e+00
1679 347 -1.000000000000000e+00
1679 1571 -1.000000000000000e+00
1679 1679 3.038320345974656e+00
1680 674 -1.000000000000000e+00
1680 819 -1.755668549847927e-02
1680 1128 -1.004200482821852e+00
1680 1680 2.034216861900723e+00
1681 234 -1.000000000000000e+00
1681 283 -2.193793531567526e-02
1681 318 -2.442898259122011e-02
1681 1175 -1.000000000000000e+00
1681 1681 4.046366917906895e+00
1682 236 -1.000000000000000e+00
1682 551 -1.000000000000000e+00
1682 777 -7.562876003639026e-03
1682 1596 -1.467241937341807e-02
1682 1682 4.053085958765600e+00
1683 21 -1.000000000000000e+00
1683 219 -1.785190391468155e-02
1683 578 -2.760331234656858e-02
1683 612 -1.000000000000000e+00
1683 1683 4.077991549847781e+00
1684 188 -1.000000000000000e+00
1684 353 -1.000000000000000e+00
1684 1684 3.044969851192167e+00
1685 5 -1.000000000000000e+00
1685 1552 -1.000000000000000e+00
1685 1685 7.037833935878173e+00
1686 182 -1.000000000000000e+00
1686 411 -2.495421205435162e-02
1686 520 -1.000000000000000e+00
1686 1686 2.092719897512265e+00
1687 906 -1.000000000000000e+00
1687 1121 -1.000000000000000e+00
1687 1687 3.004286888307615e+00
1688 450 -1.000000000000000e+00
1688 873 -1.027026778151084e+00
1688 1688 3.027026778151084e+00
1689 180 -2.472718713631536e-02
1689 212 -1.000000000000000e+00
1689 791 -1.000000000000000e+00
1689 1689 8.074491015999962e+00
1690 1341 -1.000000000000000e+00
1690 1541 -1.000000000000000e+00
1690 1690 5.014120125686317e+00
1691 181 -1.101886496596673e-02
1691 509 -1.000000000000000e+00
1691 612 -1.000000000000000e+00
1691 680 -1.249513256548710e-02
1691 1691 4.026272171858702e+00
1692 17 -1.000000000000000e+00
1692 423 -1.000000000000000e+00
1692 484 -1.619393760093625e-02
1692 1182 -3.623377013534607e-02
1692 1692 4.052427707736283e+00
1693 3 -1.000000000000000e+00
1693 272 -1.368539071622085e-02
1693 716 -1.000000000000000e+00
1693 952 -8.139868946098555e-03
1693 1693 5.021825259662319e+00
1694 29 -1.000000000000000e+00
1694 193 -1.997613312114402e-02
1694 740 -2.218978222980671e-02
1694 1675 -1.000000000000000e+00
1694 1694 5.042165915350950e+00
1695 21 -1.000000000000000e+00
1695 32 -1.000000000000000e+00
1695 1695 4.015545427137886e+00
1696 311 -1.000000000000000e+00
1696 1665 -1.000000000000000e+00
1696 1696 3.000000000000000e+00
1697 342 -3.131460173020869e-04
1697 414 -1.000000000000000e+00
1697 432 -1.011438791589106e+00
1697 1697 4.012215426715734e+00
1698 28 -1.000000000000000e+00
1698 600 -3.546975329921977e-03
1698 802 -1.059297897781329e-02
1698 1513 -1.002082013954643e+00
1698 1698 9.085246368019080e+00
1699 5 -1.000000000000000e+00
1699 238 -1.000000000000000e+00
1699 327 -2.203400991681764e-02
1699 1699 5.055458678582686e+00
1700 115 -1.000000000000000e+00
1700 1247 -1.717223390860123e-02
1700 1458 -1.014628553130665e+00
1700 1700 6.048710272217629e+00
1701 118 -1.000000000000000e+00
1701 627 -1.453568934222356e-02
1701 1252 -1.000000000000000e+00
1701 1298 -1.000000000000000e+00
1701 1701 4.065718006404024e+00
1702 342 -1.007352521941400e+00
1702 879 -1.000000000000000e+00
1702 1522 -1.357466468862219e-04
1702 1702 2.019946552879071e+00
1703 57 -1.000000000000000e+00
1703 1264 -1.000000000000000e+00
1703 1703 5.039850780251315e+00
1704 113 -1.000000000000000e+00
1704 796 -1.552986025366770e-02
1704 1519 -1.000000000000000e+00
1704 1704 2.043399872843304e+00
1705 345 -1.000000000000000e+00
1705 426 -1.000000000000000e+00
1705 717 -1.016867043012368e-02
1705 1281 -1.292600694838116e-02
1705 1575 -1.768232998097634e-03
1705 1705 2.076046025486090e+00
1706 124 -1.000000000000000e+00
1706 1652 -1.000000000000000e+00
1706 1706 6.006984212271476e+00
1707 605 -1.000000000000000e+00
1707 1170 -1.000000000000000e+00
1707 1707 3.006844358208955e+00
1708 516 -1.000000000000000e+00
1708 578 -1.000000000000000e+00
1708 1708 3.084090949164382e+00
1709 499 -1.000000000000000e+00
1709 711 -1.000000000000000e+00
1709 1709 2.030231184096278e+00
1710 347 -1.000000000000000e+00
1710 665 -1.000000000000000e+00
1710 910 -5.351852769366778e-03
1710 1710 3.028125352249153e+00
1711 62 -1.000000000000000e+00
1711 1444 -1.000000000000000e+00
1711 1711 4.014887385287256e+00
1712 50 -1.316160757215534e-02
1712 403 -2.048519284770718e-02
1712 595 -1.000000000000000e+00
1712 1115 -7.690802673747488e-03
1712 1175 -1.000000000000000e+00
1712 1453 -1.205396639368573e-02
1712 1516 -2.533173170670719e-02
1712 1712 4.186194291409674e+00
1713 550 -1.000000000000000e+00
1713 1056 -1.017156817915601e+00
1713 1612 -1.632210197695264e-02
1713 1713 2.033478919892553e+00
1714 454 -1.000000000000000e+00
1714 850 -1.000000000000000e+00
1714 1149 -2.982719935992195e-02
1714 1714 3.033769159731385e+00
1715 95 -1.000000000000000e+00
1715 280 -1.000000000000000e+00
1715 500 -1.013376726335992e+00
1715 905 -6.503035212062558e-03
1715 1715 4.047415129843727e+00
1716 141 -1.000000000000000e+00
1716 330 -1.000000000000000e+00
1716 1716 4.023258506454361e+00
1717 15 -1.000000000000000e+00
1717 376 -1.497230466660912e-02
1717 378 -1.395221549962114e-02
1717 845 -1.000000000000000e+00
1717 883 -8.731836702196957e-03
1717 1717 4.076290493148572e+00
1718 144 -1.000000000000000e+00
1718 183 -2.966671747529308e-02
1718 570 -1.000000000000000e+00
1718 1070 -1.000000000000000e+00
1718 1718 6.053804396160787e+00
1719 262 -1.000000000000000e+00
1719 1439 -1.000000000000000e+00
1719 1719 5.028397761378567e+00
1720 38 -1.000000000000000e+00
1720 274 -1.000000000000000e+00
1720 811 -5.022668790859977e-03
1720 1720 2.036141589249708e+00
1721 302 -1.009857878061534e+00
1721 1459 -1.000000000000000e+00
1721 1721 8.054973504984329e+00
1722 219 -1.333701222877719e-02
1722 662 -1.000000000000000e+00
1722 1699 -1.000000000000000e+00
1722 1722 2.054608439641539e+00
1723 119 -1.007548501635373e+00
1723 509 -1.000000000000000e+00
1723 1562 -7.699991020769668e-03
1723 1723 3.030961910788959e+00
1724 91 -1.000000000000000e+00
1724 474 -2.310980869730319e-02
1724 1387 -1.000000000000000e+00
1724 1663 -1.016199392962811e+00
1724 1724 3.080175383227178e+00
1725 8 -1.000000000000000e+00
1725 274 -1.000000000000000e+00
1725 296 -1.883835131737882e-02
1725 881 -1.506553708128115e-02
1725 1725 2.033903888398660e+00
1726 931 -1.000000000000000e+00
1726 1185 -1.000000000000000e+00
1726 1726 4.024955568678678e+00
1727 522 -1.000000000000000e+00
1727 1009 -1.290095550348160e-02
1727 1288 -1.000000000000000e+00
1727 1727 2.065176393240554e+00
1728 632 -1.000000000000000e+00
1728 680 -1.000000000000000e+00
1728 1728 2.023964545308231e+00
1729 157 -1.000000000000000e+00
1729 928 -1.000000000000000e+00
1729 1288 -1.152909875389056e-02
1729 1729 3.022093614152377e+00
1730 406 -1.000000000000000e+00
1730 1300 -1.000000000000000e+00
1730 1730 3.032671358237795e+00
1731 193 -1.000000000000000e+00
1731 1577 -1.012778031102620e+00
1731 1731 2.060284847851800e+00
1732 542 -1.000000000000000e+00
1732 1058 -1.000000000000000e+00
1732 1173 -3.938512068326498e-02
1732 1732 3.105179904938650e+00
1733 572 -1.017392410481955e+00
1733 1426 -2.177670686216556e-02
1733 1538 -1.015721909136742e+00
1733 1733 2.088031915425166e+00
1734 758 -1.000000000000000e+00
1734 1425 -1.000000000000000e+00
1734 1734 7.013535543596099e+00
1735 195 -1.000000000000000e+00
1735 1002 -1.000000000000000e+00
1735 1735 2.021307673091518e+00
1736 51 -1.000000000000000e+00
1736 1194 -1.000000000000000e+00
1736 1736 4.044438445752167e+00
1737 1 -1.000000000000000e+00
1737 88 -1.000000000000000e+00
1737 866 -1.984505902586660e-02
1737 1331 -3.216483107229905e-02
1737 1737 1.209076036448491e+01
1738 1503 -1.000000000000000e+00
1738 1737 -1.000000000000000e+00
1738 1738 3.029304060493425e+00
1739 193 -1.000000000000000e+00
1739 1494 -2.378477909484535e-02
1739 1499 -1.000000000000000e+00
1739 1739 2.085255970369909e+00
1740 11 -1.000000000000000e+00
1740 941 -1.000000000000000e+00
1740 1740 3.027771399330531e+00
1741 374 -1.888082239050770e-02
1741 546 -1.000000000000000e+00
1741 817 -2.193118892879606e-02
1741 1154 -1.000000000000000e+00
1741 1531 -3.114769074248706e-03
1741 1741 3.043926780393552e+00
1742 132 -1.000000000000000e+00
1742 736 -1.000000000000000e+00
1742 1742 4.015442541061311e+00
1743 464 -1.734499619989957e-02
1743 1097 -1.000000000000000e+00
1743 1632 -1.000000000000000e+00
1743 1743 2.025887282246478e+00
1744 26 -1.000000000000000e+00
1744 817 -1.000000000000000e+00
1744 1057 -2.994413005293571e-02
1744 1531 -1.623345546296449e-02
1744 1744 3.073441839750886e+00
1745 423 -1.000000000000000e+00
1745 882 -1.000000000000000e+00
1745 1577 -8.795927167059677e-03
1745 1745 1.302923326532809e+01
1746 7 -1.000000000000000e+00
1746 436 -1.000000000000000e+00
1746 566 -2.103368351445199e-02
1746 716 -2.230591127732029e-02
1746 1746 4.043339594791772e+00
1747 410 -1.000000000000000e+00
1747 552 -1.000000000000000e+00
1747 1245 -3.207080496483442e-02
1747 1747 4.055724987664896e+00
1748 238 -1.000000000000000e+00
1748 583 -1.000000000000000e+00
1748 900 -2.247487883322712e-02
1748 1748 5.032858319584466e+00
1749 694 -1.000000000000000e+00
1749 1123 -1.000000000000000e+00
1749 1749 5.017428379840432e+00
1750 158 -1.000000000000000e+00
1750 1186 -1.000000000000000e+00
1750 1750 2.017932986226889e+00
1751 30 -1.000000000000000e+00
1751 180 -3.221187652914693e-02
1751 913 -2.754027511198023e-02
1751 1748 -1.000000000000000e+00
1751 1751 4.147724739998906e+00
1752 384 -1.000000000000000e+00
1752 996 -1.001143297720168e+00
1752 1752 2.014823808527420e+00
1753 706 -1.000000000000000e+00
1753 1400 -1.000000000000000e+00
1753 1662 -9.631622806674161e-03
1753 1753 4.011591195225960e+00
1754 70 -1.000000000000000e+00
1754 1227 -1.006403465225688e+00
1754 1393 -1.479488585613086e-02
1754 1754 2.043091486370579e+00
1755 17 -1.000000000000000e+00
1755 206 -1.000000000000000e+00
1755 365 -1.100688200400580e-02
1755 1755 2.037615112530792e+00
1756 68 -1.000000000000000e+00
1756 111 -9.077491735881850e-03
1756 116 -1.000000000000000e+00
1756 356 -1.000000000000000e+00
1756 1235 -6.252725602039071e-03
1756 1437 -1.259982087582084e-02
1756 1756 5.051210403788774e+00
1757 693 -8.431738190505203e-03
1757 896 -1.003444470693258e+00
1757 944 -1.684686273100182e-03
1757 1716 -1.008694029016703e+00
1757 1757 2.069724460356239e+00
1758 26 -1.009499812423295e+00
1758 56 -1.000000000000000e+00
1758 380 -7.044555921740716e-03
1758 1536 -2.059848609593917e-02
1758 1758 2.068186622135956e+00
1759 326 -1.000000000000000e+00
1759 906 -1.000000000000000e+00
1759 1123 -1.136241290304604e-02
1759 1759 2.051645195113598e+00
1760 2 -1.000000000000000e+00
1760 299 -3.166119435029741e-02
1760 610 -3.816064185632558e-02
1760 937 -1.000000000000000e+00
1760 1760 3.069821836206623e+00
1761 7 -1.000000000000000e+00
1761 99 -1.000000000000000e+00
1761 1761 6.079712504668112e+00
1762 202 -1.000000000000000e+00
1762 587 -1.000000000000000e+00
1762 849 -6.705166082615198e-03
1762 1762 4.008841629461161e+00
1763 137 -1.000000000000000e+00
1763 908 -1.000000000000000e+00
1763 1022 -9.080540853658296e-04
1763 1119 -2.241601626241913e-02
1763 1763 2.024982139599375e+00
1764 102 -1.344622389485479e-02
1764 304 -1.000000000000000e+00
1764 328 -1.000000000000000e+00
1764 1764 6.036322854284112e+00
1765 26 -1.000000000000000e+00
1765 540 -1.000000000000000e+00
1765 1343 -1.000000000000000e+00
1765 1765 4.019682935705064e+00
1766 361 -1.000000000000000e+00
1766 393 -1.000000000000000e+00
1766 515 -1.000000000000000e+00
1766 1425 -1.065380329600939e-02
1766 1766 4.012755729526863e+00
1767 171 -1.000000000000000e+00
1767 764 -1.000000000000000e+00
1767 1767 2.017859768059747e+00
1768 1331 -1.000000000000000e+00
1768 1363 -1.000000000000000e+00
1768 1768 4.023976778254212e+00
1769 11 -1.000000000000000e+00
1769 341 -1.000000000000000e+00
1769 1769 4.014591386493885e+00
1770 44 -1.000000000000000e+00
1770 814 -1.000000000000000e+00
1770 1557 -6.186964650062700e-03
1770 1770 2.019594239585694e+00
1771 628 -1.000000000000000e+00
1771 962 -4.400069670765712e-03
1771 1489 -1.000000000000000e+00
1771 1771 3.029244696610818e+00
1772 1076 -1.000000000000000e+00
1772 1549 -1.010271915988568e+00
1772 1772 2.017101476422919e+00
1773 234 -1.000000000000000e+00
1773 482 -1.000000000000000e+00
1773 1773 2.043471537678244e+00
1774 189 -1.000000000000000e+00
1774 341 -1.000000000000000e+00
1774 1774 3.000000000000000e+00
1775 197 -1.000000000000000e+00
1775 894 -2.429324246765266e-02
1775 1403 -1.000000000000000e+00
1775 1775 4.109026815798957e+00
1776 2 -1.000000000000000e+00
1776 329 -1.000000000000000e+00
1776 832 -1.536889331794490e-02
1776 1776 8.042289285551695e+00
1777 162 -1.000000000000000e+00
1777 743 -1.666241665450025e-02
1777 979 -1.000000000000000e+00
1777 1777 2.030475106323763e+00
1778 274 -1.000000000000000e+00
1778 800 -1.465504386933130e-02
1778 927 -1.142201515173688e-02
1778 1218 -1.000000000000000e+00
1778 1420 -1.358070857252603e-02
1778 1778 3.075290441819265e+00
1779 274 -1.000000000000000e+00
1779 1066 -1.000000000000000e+00
1779 1779 2.025219923762278e+00
1780 680 -1.000000000000000e+00
1780 1395 -1.000000000000000e+00
1780 1454 -1.144242279835336e-02
1780 1780 3.014287173969705e+00
1781 17 -1.000000000000000e+00
1781 19 -1.000000000000000e+00
1781 1781 6.038383877135960e+00
1782 333 -1.936781858426705e-02
1782 706 -1.000000000000000e+00
1782 837 -1.000000000000000e+00
1782 1427 -1.000000000000000e+00
1782 1782 5.040274956260808e+00
1783 18 -1.000000000000000e+00
1783 249 -1.000000000000000e+00
1783 269 -6.094836572083209e-03
1783 301 -7.689880053993974e-03
1783 1783 4.013784716626077e+00
1784 867 -1.003110105818818e+00
1784 1764 -1.000000000000000e+00
1784 1784 3.011941930410280e+00
1785 273 -1.000000000000000e+00
1785 359 -3.564039987047238e-02
1785 365 -2.158221183759828e-02
1785 992 -1.000000000000000e+00
1785 1785 7.057222611708070e+00
1786 18 -1.000000000000000e+00
1786 195 -1.000000000000000e+00
1786 1786 2.022517622824169e+00
1787 264 -1.389970506435980e-02
1787 471 -1.000000000000000e+00
1787 574 -1.497089691211017e-03
1787 787 -1.000000000000000e+00
1787 916 -1.527013688342308e-02
1787 1787 3.032972696327105e+00
1788 185 -1.000000000000000e+00
1788 433 -1.339712621351363e-02
1788 1499 -1.000000000000000e+00
1788 1788 6.027211097451908e+00
1789 212 -1.000000000000000e+00
1789 1653 -1.010880004367986e+00
1789 1789 2.017605085507260e+00
1790 42 -1.019590494013742e+00
1790 554 -4.927276564600639e-03
1790 644 -1.000000000000000e+00
1790 1505 -2.409159673876818e-02
1790 1790 2.048609367317111e+00
1791 520 -1.920413201959509e-02
1791 615 -1.000000000000000e+00
1791 755 -1.000000000000000e+00
1791 1791 5.042780290268897e+00
1792 183 -9.564374691354110e-03
1792 283 -1.000000000000000e+00
1792 786 -1.000000000000000e+00
1792 1792 2.086768540284222e+00
1793 465 -1.006983935860575e+00
1793 1416 -1.969246507018294e-02
1793 1668 -1.000000000000000e+00
1793 1793 5.052206355818003e+00
1794 240 -1.000000000000000e+00
1794 517 -1.466060669355459e-02
1794 1793 -1.000000000000000e+00
1794 1794 2.020737159178250e+00
1795 275 -1.014257635188296e+00
1795 1316 -1.000000000000000e+00
1795 1795 5.030526299110017e+00
1796 295 -1.014640842183678e+00
1796 1389 -1.000000000000000e+00
1796 1796 6.031561990337747e+00
1797 70 -1.000000000000000e+00
1797 758 -1.000000000000000e+00
1797 1797 6.028315626126556e+00
1798 5 -1.000000000000000e+00
1798 1156 -1.000000000000000e+00
1798 1341 -1.770447594345556e-02
1798 1631 -1.224242640552223e-02
1798 1798 3.029946902348978e+00
1799 908 -1.000000000000000e+00
1799 1252 -1.000000000000000e+00
1799 1799 6.026224952265715e+00
1800 50 -1.000000000000000e+00
1800 352 -1.000000000000000e+00
1800 1800 3.038149876834149e+00
1801 57 -1.000000000000000e+00
1801 1100 -1.746318776709110e-02
1801 1482 -1.000000000000000e+00
1801 1552 -8.944683721712563e-03
1801 1801 2.026407871488804e+00
1802 14 -1.000000000000000e+00
1802 152 -1.000000000000000e+00
1802 1802 3.034637949042890e+00
1803 102 -1.000000000000000e+00
1803 241 -1.000000000000000e+00
1803 1803 2.023937244733928e+00
1804 116 -8.034272543504233e-03
1804 475 -1.000000000000000e+00
1804 985 -5.477707178850088e-03
1804 1264 -1.000000000000000e+00
1804 1804 3.019652916105847e+00
1805 2 -1.000000000000000e+00
1805 349 -1.000000000000000e+00
1805 1805 3.028566123201655e+00
1806 304 -1.005533306513495e+00
1806 447 -1.000000000000000e+00
1806 1806 2.023844304452521e+00
1807 180 -1.000000000000000e+00
1807 208 -1.000000000000000e+00
1807 371 -2.452369500974376e-02
1807 1807 3.038319214039714e+00
1808 289 -1.005100325491700e+00
1808 463 -1.000000000000000e+00
1808 1808 2.016330487127138e+00
1809 114 -1.000000000000000e+00
1809 400 -1.000000000000000e+00
1809 1809 3.015861654218656e+00
1810 13 -1.000000000000000e+00
1810 28 -1.000000000000000e+00
1810 1810 2.028286003694191e+00
1811 363 -1.000000000000000e+00
1811 722 -1.000000000000000e+00
1811 1811 3.036011762444283e+00
1812 1 -1.000000000000000e+00
1812 51 -1.000000000000000e+00
1812 788 -1.804543593649866e-02
1812 1812 5.031632956117474e+00
1813 5 -1.000000000000000e+00
1813 211 -1.000000000000000e+00
1813 1367 -1.265366057165960e-02
1813 1419 -2.052550362974984e-02
1813 1456 -1.078740320510758e-02
1813 1567 -1.055078418915224e-02
1813 1813 2.054517351595669e+00
1814 10 -1.000000000000000e+00
1814 27 -1.000000000000000e+00
1814 1814 3.057540544167077e+00
1815 1 -1.000000000000000e+00
1815 175 -1.000000000000000e+00
1815 280 -1.502404048514759e-02
1815 500 -1.000000000000000e+00
1815 1815 4.038008028538467e+00
1816 190 -1.000000000000000e+00
1816 789 -1.000000000000000e+00
1816 1233 -1.000000000000000e+00
1816 1816 5.032672840227934e+00
1817 990 -3.678600615173740e-02
1817 1231 -1.000000000000000e+00
1817 1479 -1.000000000000000e+00
1817 1817 9.059524070434025e+00
1818 586 -1.000000000000000e+00
1818 933 -1.000000000000000e+00
1818 968 -2.660607432916439e-02
1818 1818 2.036680787995261e+00
1819 284 -1.000000000000000e+00
1819 935 -1.000000000000000e+00
1819 1417 -2.265983552133110e-02
1819 1819 2.033860231976113e+00
1820 57 -1.000000000000000e+00
1820 118 -1.738332337555963e-02
1820 209 -5.341564158573080e-03
1820 1499 -1.000000000000000e+00
1820 1820 3.043653801594118e+00
1821 877 -1.010435667275947e+00
1821 1351 -9.197913053649778e-03
1821 1737 -1.000000000000000e+00
1821 1821 2.048998342856953e+00
1822 620 -1.000000000000000e+00
1822 1796 -1.000000000000000e+00
1822 1822 4.022592925044850e+00
1823 382 -1.873118195981861e-02
1823 423 -1.000000000000000e+00
1823 744 -1.000000000000000e+00
1823 1823 2.043531530807269e+00
1824 869 -1.898638103380353e-02
1824 1046 -1.000000000000000e+00
1824 1245 -1.000000000000000e+00
1824 1824 5.060174165139145e+00
1825 240 -1.000000000000000e+00
1825 1286 -8.287809314353044e-03
1825 1534 -1.000000000000000e+00
1825 1825 2.033497067092473e+00
1826 5 -1.000000000000000e+00
1826 588 -1.000000000000000e+00
1826 1269 -2.526342657463643e-03
1826 1826 4.046934809296261e+00
1827 7 -1.000000000000000e+00
1827 114 -1.000000000000000e+00
1827 192 -2.914146440789349e-02
1827 1626 -2.332012543302094e-02
1827 1736 -2.873303131753500e-02
1827 1827 2.098212184539830e+00
1828 226 -1.000000000000000e+00
1828 1628 -1.000000000000000e+00
1828 1828 3.025911138403387e+00
1829 57 -1.000000000000000e+00
1829 1016 -1.000000000000000e+00
1829 1829 3.025618201424891e+00
1830 233 -1.000000000000000e+00
1830 238 -1.000000000000000e+00
1830 901 -1.000000000000000e+00
1830 1672 -1.392449202905721e-02
1830 1830 5.038106358931883e+00
1831 244 -1.000000000000000e+00
1831 496 -1.000000000000000e+00
1831 849 -1.000000000000000e+00
1831 1831 3.000000000000000e+00
1832 908 -1.000000000000000e+00
1832 1309 -1.000000000000000e+00
1832 1832 2.026971131445974e+00
1833 141 -1.000000000000000e+00
1833 1084 -1.000000000000000e+00
1833 1833 3.030894079661412e+00
1834 27 -1.000000000000000e+00
1834 423 -1.000000000000000e+00
1834 1323 -1.267897436468897e-02
1834 1834 4.028166135450582e+00
1835 522 -1.000000000000000e+00
1835 742 -1.000000000000000e+00
1835 1449 -1.157984317458301e-02
1835 1835 4.025289090493587e+00
1836 17 -1.239865393864725e-02
1836 120 -1.000000000000000e+00
1836 132 -1.000000000000000e+00
1836 1836 2.024352391008949e+00
1837 1459 -1.000000000000000e+00
1837 1765 -1.000000000000000e+00
1837 1837 2.029578887908007e+00
1838 177 -1.000000000000000e+00
1838 749 -2.508619858637860e-02
1838 864 -1.000000000000000e+00
1838 1838 3.054187370348783e+00
1839 187 -1.000000000000000e+00
1839 1121 -1.000000000000000e+00
1839 1559 -1.810027376494439e-02
1839 1839 3.042249008682345e+00
1840 148 -1.807389782728699e-02
1840 156 -1.309807148721127e-02
1840 356 -1.000000000000000e+00
1840 1401 -1.000000000000000e+00
1840 1840 5.031171969314499e+00
1841 823 -1.000000000000000e+00
1841 967 -1.000000000000000e+00
1841 1462 -1.390612129551489e-02
1841 1841 4.022743436356445e+00
1842 23 -1.000000000000000e+00
1842 346 -1.731948145044970e-02
1842 1580 -1.000000000000000e+00
1842 1842 4.039880395549581e+00
1843 1 -1.000000000000000e+00
1843 1205 -1.000000000000000e+00
1843 1242 -1.511216414952951e-02
1843 1843 4.026224375800239e+00
1844 2 -1.000000000000000e+00
1844 5 -1.000000000000000e+00
1844 1844 3.046842980257048e+00
1845 41 -1.014132357851828e-02
1845 444 -1.000000000000000e+00
1845 539 -1.000000000000000e+00
1845 1845 4.026246679947937e+00
1846 84 -1.000000000000000e+00
1846 126 -1.000000000000000e+00
1846 945 -4.328905113904227e-03
1846 1846 2.008317476458194e+00
1847 62 -1.000000000000000e+00
1847 141 -1.000000000000000e+00
1847 1847 3.026846721931344e+00
1848 491 -1.640247771039638e-02
1848 589 -1.000000000000000e+00
1848 728 -2.741342796886587e-02
1848 1040 -1.000000000000000e+00
1848 1848 4.063935941214522e+00
1849 50 -1.000000000000000e+00
1849 362 -1.000000000000000e+00
1849 1849 5.044503217233801e+00
1850 49 -1.000000000000000e+00
1850 340 -1.000000000000000e+00
1850 844 -2.020949632131560e-02
1850 1850 3.041896480809992e+00
1851 30 -1.000000000000000e+00
1851 853 -1.000000000000000e+00
1851 1851 2.040781368178938e+00
1852 164 -1.000000000000000e+00
1852 659 -5.903703679332142e-03
1852 826 -1.000000000000000e+00
1852 1852 3.048511981188216e+00
1853 171 -1.010807641065057e+00
1853 969 -1.076748351692105e-02
1853 1310 -9.586520798375617e-03
1853 1314 -1.000000000000000e+00
1853 1849 -1.000000000000000e+00
1853 1853 3.031161645380354e+00
1854 199 -7.199459506691122e-04
1854 218 -1.000000000000000e+00
1854 636 -1.031111720359431e-02
1854 1033 -1.010965869794238e-02
1854 1101 -1.000000000000000e+00
1854 1854 4.057938302048766e+00
1855 315 -1.000000000000000e+00
1855 1264 -1.000000000000000e+00
1855 1855 2.043680927566799e+00
1856 97 -1.000000000000000e+00
1856 470 -1.000000000000000e+00
1856 1486 -1.000000000000000e+00
1856 1856 7.069292079857178e+00
1857 164 -1.000000000000000e+00
1857 637 -1.000000000000000e+00
1857 1857 6.021060678455795e+00
1858 131 -1.000000000000000e+00
1858 419 -2.471276060634491e-02
1858 588 -1.000000000000000e+00
1858 1858 2.026268722908859e+00
1859 217 -1.000000000000000e+00
1859 1657 -1.000000000000000e+00
1859 1859 3.054840043798806e+00
1860 161 -1.000000000000000e+00
1860 331 -2.253238543362320e-02
1860 831 -1.175885105157302e-03
1860 1101 -1.000000000000000e+00
1860 1148 -1.000000000000000e+00
1860 1860 5.051535334989664e+00
1861 658 -1.000000000000000e+00
1861 994 -1.030528616278368e+00
1861 1861 5.044400581422278e+00
1862 924 -1.000000000000000e+00
1862 949 -1.000000000000000e+00
1862 1862 6.054273504282873e+00
1863 139 -2.584552423996319e-02
1863 595 -1.000000000000000e+00
1863 968 -2.059042761091190e-02
1863 1333 -1.000000000000000e+00
1863 1462 -8.891005661312922e-03
1863 1619 -1.911271168597727e-02
1863 1712 -1.475253912757774e-02
1863 1863 2.138898107232394e+00
1864 251 -1.000000000000000e+00
1864 798 -2.836351091325443e-02
1864 885 -2.713063164149370e-02
1864 1023 -2.712652792143541e-02
1864 1397 -1.000000000000000e+00
1864 1864 2.159140452505141e+00
1865 76 -1.000000000000000e+00
1865 601 -1.000000000000000e+00
1865 1865 5.019898907299103e+00
1866 898 -1.017488255379321e+00
1866 1433 -1.000000000000000e+00
1866 1866 4.028718144687575e+00
1867 1497 -1.000000000000000e+00
1867 1736 -1.000000000000000e+00
1867 1867 2.051541833657017e+00
1868 121 -1.000000000000000e+00
1868 491 -1.000000000000000e+00
1868 1848 -1.000000000000000e+00
1868 1868 4.036357986473242e+00
1869 179 -1.000000000000000e+00
1869 503 -1.000000000000000e+00
1869 1120 -5.593507255466483e-03
1869 1869 2.032469060389886e+00
1870 240 -1.000000000000000e+00
1870 788 -1.970764415909587e-02
1870 892 -1.000000000000000e+00
1870 894 -1.489888306105019e-02
1870 1870 3.034606527220146e+00
1871 931 -1.000000000000000e+00
1871 1188 -8.690403600462360e-03
1871 1256 -1.000000000000000e+00
1871 1871 4.064832572053623e+00
1872 115 -1.000000000000000e+00
1872 1227 -1.171967967138292e-02
1872 1249 -1.000000000000000e+00
1872 1872 6.026005820070863e+00
1873 211 -1.000000000000000e+00
1873 285 -1.000000000000000e+00
1873 1873 3.010183186728827e+00
1874 1350 -1.000000000000000e+00
1874 1521 -1.012054762678375e+00
1874 1874 3.029525017967839e+00
1875 362 -1.000000000000000e+00
1875 564 -2.078664170697533e-02
1875 707 -1.045802228894488e-02
1875 1519 -1.000000000000000e+00
1875 1875 3.031244663995920e+00
1876 28 -1.000000000000000e+00
1876 247 -1.000000000000000e+00
1876 1876 3.031514317162257e+00
1877 44 -1.000000000000000e+00
1877 1452 -1.000000000000000e+00
1877 1877 3.033934538459686e+00
1878 1 -1.000000000000000e+00
1878 759 -1.416943224394118e-02
1878 1439 -1.000000000000000e+00
1878 1878 4.025988104309168e+00
1879 338 -1.000000000000000e+00
1879 1019 -1.000000000000000e+00
1879 1879 3.041240637470125e+00
1880 51 -1.000000000000000e+00
1880 141 -1.000000000000000e+00
1880 1880 2.026489819422900e+00
1881 112 -1.000000000000000e+00
1881 1606 -1.000000000000000e+00
1881 1881 5.032818016736226e+00
1882 674 -1.000000000000000e+00
1882 906 -1.000000000000000e+00
1882 1123 -1.737120665034867e-02
1882 1882 3.034657727420529e+00
1883 344 -1.000000000000000e+00
1883 533 -1.000000000000000e+00
1883 1883 3.000000000000000e+00
1884 262 -1.000000000000000e+00
1884 764 -1.000000000000000e+00
1884 1884 3.008659206203170e+00
1885 1538 -1.000000000000000e+00
1885 1602 -1.025037372117590e+00
1885 1885 3.046946491359102e+00
1886 522 -1.000000000000000e+00
1886 755 -9.250082480818869e-03
1886 1791 -1.000000000000000e+00
1886 1886 3.040554465756798e+00
1887 627 -1.000000000000000e+00
1887 933 -1.000000000000000e+00
1887 1701 -2.355933454449874e-02
1887 1887 3.037327603456464e+00
1888 244 -1.000000000000000e+00
1888 1582 -1.000000000000000e+00
1888 1888 5.029403709407220e+00
1889 5 -1.000000000000000e+00
1889 560 -9.444498134144812e-03
1889 1845 -1.000000000000000e+00
1889 1889 6.014068864189527e+00
1890 2 -1.000000000000000e+00
1890 5 -2.761260519173463e-02
1890 1655 -1.000000000000000e+00
1890 1890 3.055856978719052e+00
1891 332 -1.000000000000000e+00
1891 363 -1.000000000000000e+00
1891 1891 3.000000000000000e+00
1892 133 -1.000000000000000e+00
1892 787 -1.837803669061257e-03
1892 1051 -8.725445799850009e-03
1892 1075 -1.012692404418146e+00
1892 1892 3.026571769451888e+00
1893 541 -1.000000000000000e+00
1893 1461 -1.000000000000000e+00
1893 1893 3.012716476586042e+00
1894 69 -1.000000000000000e+00
1894 1183 -1.011985346990607e+00
1894 1894 2.011985346990607e+00
1895 160 -1.000000000000000e+00
1895 675 -1.000000000000000e+00
1895 1895 4.032632163492937e+00
1896 105 -8.307963814360220e-03
1896 201 -1.000000000000000e+00
1896 674 -1.000000000000000e+00
1896 1896 2.021632692951174e+00
1897 116 -1.000000000000000e+00
1897 740 -1.000000000000000e+00
1897 1362 -2.828553517427227e-02
1897 1499 -1.329305435603961e-02
1897 1897 3.155786928014190e+00
1898 244 -1.000000000000000e+00
1898 1762 -1.000000000000000e+00
1898 1898 8.022465902684726e+00
1899 344 -1.000000000000000e+00
1899 907 -5.674478106849529e-03
1899 1163 -1.006066708862926e+00
1899 1899 4.015918079996919e+00
1900 50 -1.000000000000000e+00
1900 251 -1.000000000000000e+00
1900 305 -9.841811766708331e-03
1900 1900 2.022931650415521e+00
1901 5 -1.000000000000000e+00
1901 1139 -2.524017482315411e-02
1901 1586 -1.000000000000000e+00
1901 1901 3.050338335984999e+00
1902 213 -1.000000000000000e+00
1902 291 -2.490352224233647e-02
1902 423 -1.000000000000000e+00
1902 1902 6.039742181752481e+00
1903 516 -1.000000000000000e+00
1903 748 -2.453670300417502e-02
1903 801 -1.000000000000000e+00
1903 1383 -1.000000000000000e+00
1903 1903 4.042001098405669e+00
1904 3 -1.000000000000000e+00
1904 857 -1.606807758231341e-02
1904 1007 -1.000000000000000e+00
1904 1904 4.025620557772270e+00
1905 132 -1.000000000000000e+00
1905 470 -1.000000000000000e+00
1905 844 -3.996366205457408e-03
1905 1905 2.024118117852002e+00
1906 2 -1.000000000000000e+00
1906 27 -1.000000000000000e+00
1906 1906 3.056150010447375e+00
1907 28 -1.000000000000000e+00
1907 1761 -1.000000000000000e+00
1907 1907 3.005306136852340e+00
1908 25 -1.000000000000000e+00
1908 814 -1.000000000000000e+00
1908 1908 3.007900701099419e+00
1909 17 -1.000000000000000e+00
1909 503 -1.000000000000000e+00
1909 1214 -2.652867463609189e-02
1909 1909 4.062256375854203e+00
1910 29 -1.000000000000000e+00
1910 111 -6.003636347014995e-03
1910 668 -1.000000000000000e+00
1910 1235 -1.131416085225980e-02
1910 1910 3.017317797199275e+00
1911 264 -1.000000000000000e+00
1911 1726 -8.612575639123606e-03
1911 1887 -1.000000000000000e+00
1911 1911 2.010191207425147e+00
1912 112 -1.000000000000000e+00
1912 247 -2.625778456972532e-02
1912 369 -1.018501984312304e+00
1912 1532 -1.064696079547859e-02
1912 1912 4.115464557256285e+00
1913 111 -1.208229247242752e-02
1913 668 -1.019591973855326e+00
1913 906 -1.000000000000000e+00
1913 1187 -1.000000000000000e+00
1913 1913 3.031674266327753e+00
1914 5 -1.000000000000000e+00
1914 565 -1.965540790963737e-02
1914 1647 -1.000000000000000e+00
1914 1914 3.040448642717867e+00
1915 144 -1.000000000000000e+00
1915 1874 -1.000000000000000e+00
1915 1915 3.014692202247596e+00
1916 1345 -1.000000000000000e+00
1916 1519 -1.000000000000000e+00
1916 1628 -3.732493085471906e-03
1916 1916 3.011346984816898e+00
1917 462 -1.001608652091430e+00
1917 861 -1.000000000000000e+00
1917 930 -1.110867742500582e-02
1917 978 -5.459836010558434e-03
1917 1917 4.018177165526994e+00
1918 2 -1.000000000000000e+00
1918 354 -3.016930383512196e-02
1918 378 -1.000000000000000e+00
1918 1238 -2.430779789685472e-02
1918 1918 3.054477101731977e+00
1919 759 -1.000000000000000e+00
1919 855 -4.207867416873248e-03
1919 1878 -1.000000000000000e+00
1919 1919 2.013738579411648e+00
1920 36 -1.000000000000000e+00
1920 700 -1.000000000000000e+00
1920 1920 2.038267049078069e+00
1921 558 -1.000000000000000e+00
1921 1126 -1.314853657179211e-02
1921 1594 -2.627061247249897e-02
1921 1694 -1.000000000000000e+00
1921 1921 4.119980935177572e+00
1922 162 -1.000000000000000e+00
1922 1173 -1.000000000000000e+00
1922 1922 2.035489082692516e+00
1923 63 -1.159674881506131e-02
1923 247 -1.000000000000000e+00
1923 288 -1.000000000000000e+00
1923 766 -1.000000000000000e+00
1923 1923 3.029426595715767e+00
1924 92 -1.000000000000000e+00
1924 1381 -1.000000000000000e+00
1924 1924 4.020561170547865e+00
1925 49 -1.000000000000000e+00
1925 110 -1.000000000000000e+00
1925 844 -1.250220497622889e-02
1925 1925 3.024552877317213e+00
1926 319 -1.000000000000000e+00
1926 341 -1.000000000000000e+00
1926 429 -2.670467847978246e-02
1926 1926 5.067657690519785e+00
1927 79 -1.000000000000000e+00
1927 199 -1.000000000000000e+00
1927 309 -2.581534262635907e-02
1927 1854 -1.011618578300217e+00
1927 1927 3.102970208703417e+00
1928 17 -1.000000000000000e+00
1928 68 -1.000000000000000e+00
1928 1928 3.000000000000000e+00
1929 2 -1.000000000000000e+00
1929 477 -1.210434072203919e-02
1929 1252 -1.000000000000000e+00
1929 1307 -5.774878899321391e-03
1929 1929 2.017879219621360e+00
1930 955 -1.000000000000000e+00
1930 1615 -1.000000000000000e+00
1930 1776 -1.000000000000000e+00
1930 1930 3.019697696707527e+00
1931 235 -1.000000000000000e+00
1931 465 -1.000000000000000e+00
1931 1033 -2.194011757192487e-02
1931 1927 -2.697751433866431e-02
1931 1931 4.077782066348243e+00
1932 12 -1.000000000000000e+00
1932 1096 -1.387769663285903e-02
1932 1538 -1.000000000000000e+00
1932 1932 4.022020885143966e+00
1933 51 -1.000000000000000e+00
1933 179 -1.000000000000000e+00
1933 1933 7.041351753737534e+00
1934 452 -2.183486460998657e-02
1934 790 -1.000000000000000e+00
1934 1135 -1.000000000000000e+00
1934 1659 -1.946928597259642e-02
1934 1934 3.041304150582583e+00
1935 5 -1.000000000000000e+00
1935 758 -1.000000000000000e+00
1935 1935 3.034846973128577e+00
1936 413 -1.000000000000000e+00
1936 562 -1.000000000000000e+00
1936 1936 6.023401856906362e+00
1937 1157 -1.000000000000000e+00
1937 1389 -1.136174114730955e-02
1937 1609 -1.000000000000000e+00
1937 1937 2.030729109111787e+00
1938 5 -2.806554506260059e-02
1938 292 -1.000000000000000e+00
1938 1517 -1.000000000000000e+00
1938 1938 3.042547999921513e+00
1939 276 -1.000000000000000e+00
1939 499 -1.000000000000000e+00
1939 856 -5.338117281898321e-03
1939 1939 3.011835805004462e+00
1940 141 -1.000000000000000e+00
1940 233 -1.000000000000000e+00
1940 1940 7.038577575672617e+00
1941 780 -2.669797616257402e-02
1941 1007 -1.000000000000000e+00
1941 1214 -1.000000000000000e+00
1941 1941 2.055118204437205e+00
1942 50 -1.000000000000000e+00
1942 1191 -1.000000000000000e+00
1942 1264 -3.011722581021589e-02
1942 1942 4.046222032655033e+00
1943 50 -1.000000000000000e+00
1943 508 -1.000000000000000e+00
1943 568 -4.388111934530161e-03
1943 1860 -5.067248795517615e-03
1943 1943 4.036740846089662e+00
1944 23 -1.000000000000000e+00
1944 141 -1.000000000000000e+00
1944 966 -2.043871399904740e-02
1944 1944 3.049308274694656e+00
1945 1083 -1.000000000000000e+00
1945 1351 -1.000000000000000e+00
1945 1821 -2.087106823146889e-02
1945 1945 2.034497472882332e+00
1946 9 -1.000000000000000e+00
1946 63 -1.000000000000000e+00
1946 612 -1.760174242975017e-02
1946 1946 5.087983635546242e+00
1947 2 -1.000000000000000e+00
1947 1912 -1.000000000000000e+00
1947 1947 4.021951290752482e+00
1948 51 -1.000000000000000e+00
1948 842 -1.000000000000000e+00
1948 1455 -1.403973102459999e-02
1948 1948 2.022836469518441e+00
1949 121 -1.000000000000000e+00
1949 318 -1.000000000000000e+00
1949 385 -1.148316492299416e-02
1949 1949 4.027041013337588e+00
1950 104 -1.000000000000000e+00
1950 423 -1.000000000000000e+00
1950 1950 7.026909909056275e+00
1951 2 -1.000000000000000e+00
1951 662 -1.000000000000000e+00
1951 1951 6.025703911744775e+00
1952 22 -1.000000000000000e+00
1952 271 -3.207913680811138e-02
1952 327 -1.583540432953864e-02
1952 478 -2.317071265538496e-02
1952 1655 -2.333762947975584e-02
1952 1661 -2.644955077087512e-02
1952 1799 -1.000000000000000e+00
1952 1952 6.142611953393759e+00
1953 2 -1.000000000000000e+00
1953 1950 -1.000234049419082e+00
1953 1953 8.025587697439443e+00
1954 5 -1.000000000000000e+00
1954 32 -1.000000000000000e+00
1954 1954 4.035298217780321e+00
1955 2 -1.000000000000000e+00
1955 773 -1.000000000000000e+00
1955 1955 3.037347127089210e+00
1956 227 -2.878184987881544e-02
1956 1057 -3.491026392006054e-02
1956 1514 -1.000000000000000e+00
1956 1741 -1.000000000000000e+00
1956 1956 3.063692113798876e+00
1957 551 -1.000000000000000e+00
1957 632 -1.000000000000000e+00
1957 1957 3.027337150265914e+00
1958 12 -1.000000000000000e+00
1958 215 -1.000000000000000e+00
1958 1300 -1.000000000000000e+00
1958 1958 3.000000000000000e+00
1959 17 -1.533928592150139e-02
1959 490 -1.000000000000000e+00
1959 1014 -1.000000000000000e+00
1959 1959 2.134833526760288e+00
1960 862 -1.000000000000000e+00
1960 1010 -1.000000000000000e+00
1960 1960 3.008524787592791e+00
1961 125 -1.000000000000000e+00
1961 294 -1.000000000000000e+00
1961 782 -2.178867209355820e-02
1961 1517 -7.167026463668385e-03
1961 1849 -1.547797575603151e-02
1961 1961 4.086492689237827e+00
1962 7 -1.000000000000000e+00
1962 27 -1.000000000000000e+00
1962 1554 -2.563268704504776e-02
1962 1962 2.061512459079543e+00
1963 92 -1.011287803349251e+00
1963 193 -1.000000000000000e+00
1963 1963 3.045886213915299e+00
1964 233 -1.000000000000000e+00
1964 1889 -1.000383519447963e+00
1964 1964 2.001314583129891e+00
1965 1734 -1.000000000000000e+00
1965 1840 -1.000000000000000e+00
1965 1965 4.028199054352247e+00
1966 136 -1.000000000000000e+00
1966 848 -1.005461694821324e+00
1966 1193 -2.943410306760435e-03
1966 1966 5.021487973156387e+00
1967 540 -1.976157578599588e-02
1967 728 -1.000000000000000e+00
1967 1459 -1.000560773984977e+00
1967 1765 -1.377215709946326e-02
1967 1967 3.034094506870436e+00
1968 765 -1.000000000000000e+00
1968 941 -1.000000000000000e+00
1968 1196 -2.681505908866344e-03
1968 1968 5.035885050278424e+00
1969 176 -1.000000000000000e+00
1969 467 -1.511290702157465e-02
1969 710 -7.940730332952487e-03
1969 1534 -1.000000000000000e+00
1969 1969 3.023053637354527e+00
1970 36 -1.000000000000000e+00
1970 198 -1.000000000000000e+00
1970 233 -1.268620614613169e-02
1970 477 -1.878677746312821e-02
1970 1122 -1.000000000000000e+00
1970 1252 -1.076053086467724e-02
1970 1970 4.120601832753157e+00
1971 141 -1.000000000000000e+00
1971 682 -1.000000000000000e+00
1971 1971 3.014321896423600e+00
1972 551 -1.000000000000000e+00
1972 708 -1.000000000000000e+00
1972 1972 4.022219081643296e+00
1973 148 -1.000000000000000e+00
1973 810 -1.000000000000000e+00
1973 1973 2.016049333417202e+00
1974 488 -9.825527617012219e-04
1974 497 -1.000000000000000e+00
1974 724 -3.517333118674899e-03
1974 1165 -1.002960507247271e+00
1974 1974 2.007460393127647e+00
1975 130 -1.000000000000000e+00
1975 701 -7.933203151342331e-03
1975 893 -1.000000000000000e+00
1975 1968 -9.636723414588032e-03
1975 1975 4.057922952065593e+00
1976 270 -1.002228036768699e+00
1976 1359 -1.000000000000000e+00
1976 1976 4.057328626568850e+00
1977 164 -1.000000000000000e+00
1977 487 -1.000000000000000e+00
1977 1087 -7.300572435717227e-03
1977 1977 5.038768209669755e+00
1978 537 -1.000000000000000e+00
1978 1745 -1.000000000000000e+00
1978 1978 4.086037325389529e+00
1979 314 -1.000000000000000e+00
1979 1899 -1.000000000000000e+00
1979 1979 3.042852840266192e+00
1980 174 -1.000000000000000e+00
1980 635 -1.416429546956328e-03
1980 807 -1.001901097836431e+00
1980 1354 -1.972447900563288e-02
1980 1980 3.026643454166374e+00
1981 519 -1.000000000000000e+00
1981 740 -1.000000000000000e+00
1981 1706 -1.000000000000000e+00
1981 1981 8.062110883411245e+00
1982 131 -1.000000000000000e+00
1982 1227 -1.000000000000000e+00
1982 1344 -2.576951021477513e-02
1982 1872 -1.140892936635242e-02
1982 1982 2.037178439581127e+00
1983 242 -1.000000000000000e+00
1983 470 -1.000000000000000e+00
1983 654 -1.404863970044863e-02
1983 1983 4.020798300184310e+00
1984 290 -2.359115761594345e-02
1984 364 -1.000000000000000e+00
1984 559 -1.000000000000000e+00
1984 1286 -1.083382280745283e-02
1984 1984 3.034424980423396e+00
1985 155 -1.000000000000000e+00
1985 758 -1.000000000000000e+00
1985 1935 -1.019505617496171e-02
1985 1985 2.012062837531170e+00
1986 10 -1.000000000000000e+00
1986 281 -1.000000000000000e+00
1986 1986 3.000000000000000e+00
1987 7 -1.000000000000000e+00
1987 884 -1.000000000000000e+00
1987 1962 -1.756404721414905e-02
1987 1987 2.033428188310964e+00
1988 12 -1.000000000000000e+00
1988 133 -1.980114838499793e-02
1988 774 -1.000000000000000e+00
1988 1988 4.032815051098035e+00
1989 191 -1.000000000000000e+00
1989 278 -1.000000000000000e+00
1989 1916 -7.614491731425904e-03
1989 1989 4.050579456187108e+00
1990 339 -1.000000000000000e+00
1990 923 -1.000000000000000e+00
1990 1990 4.032969928584920e+00
1991 11 -1.000000000000000e+00
1991 92 -1.000000000000000e+00
1991 1089 -1.491864910820902e-03
1991 1991 3.009401966236288e+00
1992 5 -1.000000000000000e+00
1992 835 -1.000000000000000e+00
1992 1920 -2.324592368154961e-02
1992 1992 2.067452560785765e+00
1993 736 -1.000000000000000e+00
1993 1100 -1.000000000000000e+00
1993 1548 -3.655255519765047e-03
1993 1993 2.031187957530900e+00
1994 1352 -1.929135951673145e-02
1994 1580 -1.000000000000000e+00
1994 1900 -1.308983864881304e-02
1994 1978 -1.015758431964512e+00
1994 1994 3.084901695421253e+00
1995 373 -1.000000000000000e+00
1995 928 -1.000000000000000e+00
1995 1995 3.027203067750778e+00
1996 88 -1.000000000000000e+00
1996 123 -1.713834026602429e-02
1996 951 -1.000000000000000e+00
1996 1996 5.029019420765666e+00
1997 545 -1.000000000000000e+00
1997 1748 -1.000000000000000e+00
1997 1997 4.002222178750298e+00
1998 70 -1.000000000000000e+00
1998 248 -1.012415842893142e+00
1998 1206 -1.000000000000000e+00
1998 1998 5.053859421894916e+00
1999 325 -1.000000000000000e+00
1999 1656 -1.000000000000000e+00
1999 1833 -6.334476269731509e-03
1999 1999 5.015427707393720e+00
2000 164 -6.464731867712087e-03
2000 546 -1.000000000000000e+00
2000 946 -1.000000000000000e+00
2000 2000 2.042744514022869e+00
2001 32 -1.000000000000000e+00
2001 67 -1.000000000000000e+00
2001 580 -1.499028417154867e-02
2001 2001 2.030472915861183e+00
2002 115 -1.000000000000000e+00
2002 1238 -1.000000000000000e+00
2002 2002 4.027148413597521e+00
2003 85 -1.000000000000000e+00
2003 124 -1.393396898469997e-02
2003 296 -1.000000000000000e+00
2003 1035 -1.903104227994883e-02
2003 2003 3.032965011264649e+00
2004 876 -4.332244992171762e-03
2004 896 -1.009936846704400e+00
2004 1714 -1.000000000000000e+00
2004 2004 2.014269091696571e+00
2005 16 -1.000000000000000e+00
2005 306 -1.000000000000000e+00
2005 964 -2.899172108505693e-02
2005 2005 4.115631980589988e+00
2006 189 -1.000000000000000e+00
2006 976 -1.000000000000000e+00
2006 2006 5.023508299135807e+00
2007 2 -1.000000000000000e+00
2007 10 -1.000000000000000e+00
2007 1273 -2.624803644320137e-02
2007 1788 -1.000000000000000e+00
2007 2007 4.042824501000650e+00
2008 580 -1.348793695109902e-02
2008 731 -1.017235395742909e+00
2008 814 -1.000000000000000e+00
2008 2008 2.030723332694008e+00
2009 5 -1.000000000000000e+00
2009 352 -1.895042865016132e-02
2009 941 -2.316414940864171e-02
2009 1054 -1.000000000000000e+00
2009 2009 6.061790559635917e+00
2010 363 -1.000000000000000e+00
2010 1389 -1.000000000000000e+00
2010 2010 3.000000000000000e+00
2011 535 -1.000000000000000e+00
2011 1682 -1.000000000000000e+00
2011 1753 -1.000000000000000e+00
2011 2011 4.013170362108586e+00
2012 2 -1.000000000000000e+00
2012 66 -1.000000000000000e+00
2012 1137 -1.757796566712793e-02
2012 2012 4.057862925728251e+00
2013 11 -1.000000000000000e+00
2013 1952 -1.000000000000000e+00
2013 2013 5.018587661145940e+00
2014 706 -1.000000000000000e+00
2014 769 -1.000000000000000e+00
2014 2014 3.058768226819826e+00
2015 330 -6.249448933026841e-03
2015 884 -1.000000000000000e+00
2015 1056 -1.261055884739573e-02
2015 1141 -1.000000000000000e+00
2015 1402 -1.141040516906225e-02
2015 2015 5.064146777753157e+00
2016 514 -1.016020108022035e+00
2016 1129 -1.000000000000000e+00
2016 2016 6.020789956373980e+00
2017 196 -1.004625036225380e+00
2017 539 -1.000000000000000e+00
2017 2017 5.015008011504066e+00
2018 211 -1.000000000000000e+00
2018 798 -1.000000000000000e+00
2018 1456 -1.090921276105627e-02
2018 2018 2.042813210141690e+00
2019 5 -1.000000000000000e+00
2019 1628 -1.000000000000000e+00
2019 1856 -2.914929728569519e-02
2019 2019 5.042224045358003e+00
2020 14 -1.000000000000000e+00
2020 251 -1.000000000000000e+00
2020 2020 5.031315286667683e+00
2021 14 -1.000000000000000e+00
2021 1297 -9.040101495473581e-03
2021 1428 -2.484060104471995e-02
2021 1703 -1.000000000000000e+00
2021 2021 2.064184553907742e+00
2022 202 -2.270039671587794e-02
2022 436 -1.000000000000000e+00
2022 1141 -1.000000000000000e+00
2022 2022 3.040321527328379e+00
2023 210 -1.000000000000000e+00
2023 270 -1.000000000000000e+00
2023 2023 3.006102434612707e+00
2024 153 -1.470476046237335e-02
2024 408 -1.000000000000000e+00
2024 1159 -1.711731641025994e-02
2024 1689 -1.000000000000000e+00
2024 2024 3.034146204762906e+00
2025 613 -1.000000000000000e+00
2025 663 -1.000000000000000e+00
2025 2025 2.034400746131618e+00
2026 1293 -1.000000000000000e+00
2026 1408 -1.004383393524782e+00
2026 1469 -2.085255103851316e-04
2026 2026 3.024558655270051e+00
2027 294 -1.000000000000000e+00
2027 766 -1.000000000000000e+00
2027 2027 6.019272618175211e+00
2028 5 -1.000000000000000e+00
2028 1137 -2.273749936931899e-02
2028 1195 -1.000000000000000e+00
2028 2028 2.024543575116762e+00
2029 83 -1.000000000000000e+00
2029 333 -2.459480139155245e-02
2029 728 -1.000000000000000e+00
2029 837 -3.162994065533766e-02
2029 2029 3.159078498102360e+00
2030 1667 -1.000000000000000e+00
2030 1881 -1.015786466952030e+00
2030 2030 2.031789055470699e+00
2031 47 -1.000000000000000e+00
2031 156 -1.000000000000000e+00
2031 1012 -4.759330294437167e-03
2031 1197 -7.868611944135769e-03
2031 2031 4.064870262266060e+00
2032 25 -1.000000000000000e+00
2032 407 -1.000000000000000e+00
2032 557 -2.223181403344630e-02
2032 1961 -1.891978498863946e-02
2032 2032 2.041151599022086e+00
2033 30 -1.000000000000000e+00
2033 1325 -1.000000000000000e+00
2033 1400 -3.198241521234520e-03
2033 1750 -7.674037746248174e-03
2033 2033 4.031620342046272e+00
2034 112 -1.000000000000000e+00
2034 555 -1.000000000000000e+00
2034 1398 -2.416335457489652e-02
2034 2034 2.089303091100248e+00
2035 79 -1.000000000000000e+00
2035 266 -1.000000000000000e+00
2035 572 -1.822447362101021e-02
2035 766 -1.444615236881990e-02
2035 1162 -1.283458660357221e-02
2035 1426 -9.361612418203425e-03
2035 2035 2.071256661096101e+00
2036 675 -3.274594473002089e-02
2036 1339 -1.000000000000000e+00
2036 1737 -1.000000000000000e+00
2036 1856 -1.000000000000000e+00
2036 2036 3.071655857456137e+00
2037 1659 -1.000000000000000e+00
2037 1701 -1.000000000000000e+00
2037 2037 2.056970776198281e+00
2038 137 -1.000000000000000e+00
2038 253 -1.010990777644004e+00
2038 1233 -4.676790514800241e-03
2038 2038 3.041246164335221e+00
2039 70 -1.000000000000000e+00
2039 1797 -1.238063305671706e-02
2039 1932 -1.000000000000000e+00
2039 2039 4.041627515865104e+00
2040 1 -1.000000000000000e+00
2040 106 -1.000000000000000e+00
2040 2040 5.033816309673989e+00
2041 129 -1.000000000000000e+00
2041 1895 -1.000000000000000e+00
2041 2041 6.026395758299030e+00
2042 25 -1.000000000000000e+00
2042 516 -1.000000000000000e+00
2042 801 -2.299468517038824e-02
2042 1624 -2.149753455427269e-02
2042 2042 2.063766877363440e+00
2043 666 -4.769967696092972e-03
2043 1486 -1.000000000000000e+00
2043 1685 -1.000000000000000e+00
2043 2043 2.035242320494504e+00
2044 274 -2.280457180222751e-03
2044 675 -1.000000000000000e+00
2044 811 -1.000000000000000e+00
2044 2044 4.012283789586333e+00
2045 6 -1.000000000000000e+00
2045 786 -1.000000000000000e+00
2045 2045 3.056869470855312e+00
2046 91 -1.000000000000000e+00
2046 876 -1.000000000000000e+00
2046 2046 3.000000000000000e+00
2047 356 -1.000000000000000e+00
2047 427 -1.977367731691910e-02
2047 727 -1.000000000000000e+00
2047 2031 -1.365426861723317e-02
2047 2047 3.033427945934152e+00
2048 442 -1.000000000000000e+00
2048 595 -1.000000000000000e+00
2048 2048 3.000000000000000e+00
2049 17 -1.000000000000000e+00
2049 128 -1.030846420906475e+00
2049 1390 -1.886826169437316e-02
2049 2049 3.068842662879856e+00
2050 27 -1.000000000000000e+00
2050 635 -1.000000000000000e+00
2050 788 -2.719853627730948e-02
2050 2050 5.120965508344754e+00
2051 144 -1.000000000000000e+00
2051 611 -1.016283523850220e+00
2051 2051 2.029023408968917e+00
2052 1009 -1.000000000000000e+00
2052 1211 -1.000000000000000e+00
2052 1677 -2.515955853912786e-02
2052 2052 3.045285549347417e+00
2053 876 -1.000000000000000e+00
2053 1690 -1.000000000000000e+00
2053 2053 5.028512161256163e+00
2054 252 -1.000000000000000e+00
2054 1734 -1.000000000000000e+00
2054 2054 2.039332082031846e+00
2055 104 -1.000000000000000e+00
2055 1148 -1.000000000000000e+00
2055 2055 3.000000000000000e+00
2056 21 -1.000000000000000e+00
2056 165 -3.615230986608920e-03
2056 845 -1.936173677662493e-02
2056 921 -2.742222038987116e-02
2056 1571 -1.000000000000000e+00
2056 2056 3.067728390999696e+00
2057 274 -1.000000000000000e+00
2057 819 -1.000000000000000e+00
2057 1128 -8.059122815856070e-03
2057 1680 -3.278775767404456e-03
2057 2057 3.011337898583260e+00
2058 82 -1.000000000000000e+00
2058 91 -1.996601542024710e-02
2058 1023 -1.000000000000000e+00
2058 2058 4.030834682858013e+00
2059 1473 -1.000000000000000e+00
2059 1569 -1.000000000000000e+00
2059 2059 4.038371240259426e+00
2060 12 -1.000000000000000e+00
2060 1327 -2.098892008085571e-02
2060 1737 -1.000000000000000e+00
2060 1967 -1.000000000000000e+00
2060 2060 7.056149912961358e+00
2061 584 -1.000000000000000e+00
2061 1107 -1.949131952943758e-02
2061 2045 -4.248878532517933e-03
2061 2060 -1.000000000000000e+00
2061 2061 2.023740198061955e+00
2062 807 -1.000000000000000e+00
2062 1593 -1.000000000000000e+00
2062 1844 -2.732293931123867e-02
2062 2012 -4.028496006112228e-02
2062 2062 6.073878239679734e+00
2063 739 -1.000000000000000e+00
2063 926 -2.456504800642685e-02
2063 1110 -1.000000000000000e+00
2063 2063 3.053689378444862e+00
2064 2 -1.000000000000000e+00
2064 109 -1.000000000000000e+00
2064 274 -1.134297225533602e-02
2064 1720 -3.111892045884806e-02
2064 2064 4.067477555218163e+00
2065 1 -1.000000000000000e+00
2065 689 -1.000000000000000e+00
2065 1672 -1.326124207170596e-02
2065 2065 3.035874722445556e+00
2066 242 -1.000000000000000e+00
2066 1153 -1.000000000000000e+00
2066 2066 3.016211191681392e+00
2067 5 -1.000000000000000e+00
2067 818 -1.000000000000000e+00
2067 2067 3.000000000000000e+00
2068 96 -1.000000000000000e+00
2068 656 -1.000000000000000e+00
2068 1980 -1.000000000000000e+00
2068 2068 4.052172970032220e+00
2069 207 -1.000000000000000e+00
2069 249 -1.000000000000000e+00
2069 2069 3.000000000000000e+00
2070 990 -1.000000000000000e+00
2070 1094 -1.000000000000000e+00
2070 2070 2.000000000000000e+00
2071 12 -1.000000000000000e+00
2071 901 -1.000000000000000e+00
2071 2071 4.046805722349698e+00
2072 1084 -1.005264262838687e+00
2072 1593 -1.000000000000000e+00
2072 2072 2.034190969625308e+00
2073 488 -1.000000000000000e+00
2073 714 -1.000000000000000e+00
2073 2073 5.004459213379298e+00
2074 971 -1.009679335418670e+00
2074 1305 -1.004323929201971e+00
2074 2074 4.014003264620641e+00
2075 118 -1.000000000000000e+00
2075 1472 -1.000000000000000e+00
2075 1859 -1.747963860627454e-02
2075 2075 4.021625034723969e+00
2076 199 -7.635661000264572e-03
2076 309 -1.000000000000000e+00
2076 1430 -1.000000000000000e+00
2076 1854 -5.286660426298013e-03
2076 2076 3.012922321426563e+00
2077 282 -1.000000000000000e+00
2077 1628 -1.007479982464616e+00
2077 1989 -1.000000000000000e+00
2077 2077 3.030416855065241e+00
2078 57 -1.000000000000000e+00
2078 1268 -1.000000000000000e+00
2078 2071 -1.677040662302157e-02
2078 2078 4.046192572162857e+00
2079 23 -1.000000000000000e+00
2079 2011 -1.013170362108586e+00
2079 2079 2.013170362108586e+00
2080 34 -1.000000000000000e+00
2080 372 -1.000000000000000e+00
2080 1109 -1.205046663898711e-02
2080 1400 -1.537816927715104e-02
2080 2080 4.070708854433422e+00
2081 98 -1.000000000000000e+00
2081 955 -1.000000000000000e+00
2081 2081 3.022910647751478e+00
2082 84 -1.000000000000000e+00
2082 1960 -1.008524787592790e+00
2082 2082 2.008524787592791e+00
2083 5 -1.000000000000000e+00
2083 501 -2.403515071066288e-02
2083 1361 -1.000000000000000e+00
2083 2083 3.027771634372396e+00
2084 451 -1.000000000000000e+00
2084 542 -1.000000000000000e+00
2084 2084 2.022834466483622e+00
2085 78 -2.421142576390421e-02
2085 729 -1.000000000000000e+00
2085 1398 -1.000000000000000e+00
2085 2085 3.071341275359229e+00
2086 246 -1.000000000000000e+00
2086 320 -1.000000000000000e+00
2086 844 -1.131853299643245e-02
2086 2086 3.033239516296153e+00
2087 92 -1.000000000000000e+00
2087 341 -2.669321916832855e-03
2087 370 -1.000000000000000e+00
2087 851 -2.890840386899897e-03
2087 2087 2.005560162303733e+00
2088 105 -1.000000000000000e+00
2088 288 -1.000000000000000e+00
2088 2088 3.000000000000000e+00
2089 129 -1.000000000000000e+00
2089 208 -8.560261803560724e-03
2089 1279 -1.013193373176013e-02
2089 1333 -1.039835568590477e-02
2089 1497 -1.000000000000000e+00
2089 1817 -2.273806428228783e-02
2089 2089 3.096272813546133e+00
2090 49 -1.000000000000000e+00
2090 82 -1.000000000000000e+00
2090 2090 3.026371938717308e+00
2091 416 -1.000000000000000e+00
2091 1275 -3.358715553216431e-02
2091 1381 -1.000000000000000e+00
2091 2091 2.099717475638590e+00
2092 361 -1.000000000000000e+00
2092 871 -1.017672781961601e+00
2092 2092 2.024970492225205e+00
2093 314 -1.000000000000000e+00
2093 561 -1.000000000000000e+00
2093 1676 -9.456098962585336e-03
2093 2093 5.019940756234969e+00
2094 248 -1.019016538339412e-02
2094 283 -1.000000000000000e+00
2094 589 -6.395186071174470e-03
2094 1179 -4.261365375192876e-03
2094 1998 -1.000000000000000e+00
2094 2094 2.041237607320671e+00
2095 716 -1.000000000000000e+00
2095 1302 -1.017794156164805e+00
2095 2095 3.024533024446926e+00
2096 415 -2.204807986138205e-02
2096 614 -1.000000000000000e+00
2096 1464 -1.012685463743701e+00
2096 2096 5.054373651762718e+00
2097 4 -1.018188807336106e-02
2097 115 -1.000000000000000e+00
2097 313 -2.148055330399632e-02
2097 720 -2.459792783175091e-02
2097 1552 -1.000000000000000e+00
2097 2097 2.085145350433711e+00
2098 189 -1.000000000000000e+00
2098 222 -1.846646533456598e-02
2098 484 -1.086226239234686e-02
2098 997 -2.946589854279337e-02
2098 1182 -4.985653830328402e-03
2098 1259 -1.000000000000000e+00
2098 2098 7.107281793246631e+00
2099 340 -2.625676791888628e-02
2099 436 -1.826882376711621e-02
2099 524 -1.000000000000000e+00
2099 730 -1.021247330528858e+00
2099 2099 2.080640628418968e+00
2100 7 -1.000000000000000e+00
2100 1561 -1.122121375155511e-02
2100 1606 -1.000000000000000e+00
2100 2065 -2.261348037384997e-02
2100 2100 3.058189476738926e+00
2101 135 -1.000000000000000e+00
2101 748 -1.000000000000000e+00
2101 2101 2.024046468375296e+00
2102 152 -1.000000000000000e+00
2102 907 -1.000000000000000e+00
2102 1034 -6.329879894831067e-03
2102 2102 5.025340064155152e+00
2103 79 -1.000000000000000e+00
2103 271 -1.000000000000000e+00
2103 512 -1.000000000000000e+00
2103 1601 -2.879288068372978e-02
2103 2103 4.061732873671728e+00
2104 554 -1.000000000000000e+00
2104 579 -3.537922671896769e-03
2104 1104 -1.000000000000000e+00
2104 2104 2.017862026297915e+00
2105 321 -1.000000000000000e+00
2105 977 -1.000000000000000e+00
2105 2105 3.000000000000000e+00
2106 1311 -1.000000000000000e+00
2106 1423 -1.000000000000000e+00
2106 2106 2.047851782381827e+00
2107 114 -1.000000000000000e+00
2107 690 -1.002986267303590e+00
2107 2107 6.010079159248014e+00
2108 684 -1.000000000000000e+00
2108 1309 -1.000000000000000e+00
2108 2108 6.016482977726188e+00
2109 49 -1.000000000000000e+00
2109 758 -1.000000000000000e+00
2109 844 -2.600640020786485e-02
2109 1379 -2.445341227742007e-02
2109 2109 5.076587336370863e+00
2110 232 -1.404977354958133e-02
2110 653 -1.000000000000000e+00
2110 861 -1.000000000000000e+00
2110 928 -1.568892876001523e-02
2110 1288 -1.806965734410456e-02
2110 2110 3.097149557625389e+00
2111 280 -1.000000000000000e+00
2111 905 -1.321761569029017e-02
2111 1438 -1.000000000000000e+00
2111 1815 -1.351473553383605e-02
2111 2111 2.026732351224126e+00
2112 11 -1.000000000000000e+00
2112 445 -1.000000000000000e+00
2112 2112 3.075560870622639e+00
2113 1 -1.000000000000000e+00
2113 2 -1.000000000000000e+00
2113 1944 -1.862466109198824e-02
2113 2113 4.020877307630491e+00
2114 1283 -1.006206355500406e+00
2114 1583 -1.000000000000000e+00
2114 1797 -1.000000000000000e+00
2114 2114 3.012202159897526e+00
2115 246 -1.000000000000000e+00
2115 1122 -1.369200520631402e-02
2115 1721 -1.000000000000000e+00
2115 2115 7.036634677285622e+00
2116 1105 -3.445339748084669e-02
2116 1698 -1.000000000000000e+00
2116 2022 -1.000000000000000e+00
2116 2116 2.078506101443764e+00
2117 689 -2.164588044526622e-02
2117 900 -1.000000000000000e+00
2117 1441 -1.000000000000000e+00
2117 2117 2.048712160522200e+00
2118 114 -1.864934210416478e-02
2118 141 -1.000000000000000e+00
2118 366 -1.009503169519740e+00
2118 2118 5.058208138702462e+00
2119 864 -2.955645420542924e-02
2119 926 -1.000000000000000e+00
2119 1966 -1.000000000000000e+00
2119 2119 4.043036071440918e+00
2120 30 -1.000000000000000e+00
2120 41 -1.368726354936532e-02
2120 238 -1.000000000000000e+00
2120 1464 -1.533880826556960e-02
2120 2120 6.029026071814935e+00
2121 139 -1.000000000000000e+00
2121 219 -1.925028439603571e-02
2121 304 -1.000000000000000e+00
2121 2121 3.045057164782677e+00
2122 27 -1.000000000000000e+00
2122 1210 -1.000000000000000e+00
2122 2122 2.037048509274604e+00
2123 133 -1.000000000000000e+00
2123 1072 -1.000000000000000e+00
2123 2123 3.039516997490764e+00
2124 306 -1.000000000000000e+00
2124 431 -1.000000000000000e+00
2124 2005 -9.940533681700283e-03
2124 2124 2.017981475098455e+00
2125 699 -1.000000000000000e+00
2125 1169 -1.000000000000000e+00
2125 2125 4.006579025531448e+00
2126 378 -1.000000000000000e+00
2126 1540 -1.009152549831632e+00
2126 2126 2.009152549831632e+00
2127 16 -1.000000000000000e+00
2127 44 -1.000000000000000e+00
2127 2127 3.013543434726409e+00
2128 779 -1.571185449889592e-02
2128 807 -1.000000000000000e+00
2128 1331 -1.005937973420593e+00
2128 1578 -1.945497791628807e-02
2128 2036 -1.947606560435973e-02
2128 2128 2.132960773873745e+00
2129 129 -1.000000000000000e+00
2129 1769 -1.007841231190335e+00
2129 2129 3.025386411837836e+00
2130 19 -1.000000000000000e+00
2130 678 -1.000000000000000e+00
2130 2040 -1.171488661318104e-02
2130 2130 4.030895270365613e+00
2131 101 -1.000000000000000e+00
2131 210 -1.000000000000000e+00
2131 392 -2.535688922671745e-02
2131 788 -1.117792147267370e-02
2131 2131 8.036534810699392e+00
2132 356 -1.000000000000000e+00
2132 417 -1.000000000000000e+00
2132 972 -1.000000000000000e+00
2132 2132 6.020878476240273e+00
2133 49 -1.002671755128218e+00
2133 844 -1.000000000000000e+00
2133 1520 -1.823241865376601e-02
2133 1925 -1.205067234098407e-02
2133 2086 -2.192098329972054e-02
2133 2090 -8.151660985914555e-03
2133 2133 2.110985530104139e+00
2134 771 -2.165173929111000e-04
2134 1089 -1.000000000000000e+00
2134 1485 -2.478631272194405e-03
2134 1571 -1.000000000000000e+00
2134 1991 -7.910101325467142e-03
2134 2134 3.024849913807338e+00
2135 1065 -1.004100637739202e+00
2135 1153 -1.000000000000000e+00
2135 2135 9.034715382302236e+00
2136 395 -1.000000000000000e+00
2136 975 -1.000000000000000e+00
2136 2136 5.024625624797278e+00
2137 13 -1.000000000000000e+00
2137 550 -1.000000000000000e+00
2137 2137 3.034263009613861e+00
2138 409 -1.000000000000000e+00
2138 2013 -1.000000000000000e+00
2138 2138 3.022737323245432e+00
2139 100 -1.000000000000000e+00
2139 1480 -1.000000000000000e+00
2139 2139 3.000000000000000e+00
2140 18 -1.000000000000000e+00
2140 70 -1.000000000000000e+00
2140 2140 3.005356804528032e+00
2141 189 -1.000000000000000e+00
2141 361 -1.000000000000000e+00
2141 2094 -6.289605307390800e-03
2141 2141 2.021813335187280e+00
2142 198 -1.000000000000000e+00
2142 477 -1.538378300437169e-02
2142 820 -1.000000000000000e+00
2142 1307 -3.108938381899091e-02
2142 2142 3.046473166823362e+00
2143 46 -1.000000000000000e+00
2143 68 -1.000000000000000e+00
2143 287 -1.199558691832394e-02
2143 878 -1.164236554215534e-02
2143 1396 -1.122210002868045e-03
2143 2143 2.036910560039583e+00
2144 702 -1.000000000000000e+00
2144 850 -1.000000000000000e+00
2144 2144 2.067601590206443e+00
2145 249 -1.672311836379986e-02
2145 338 -1.000000000000000e+00
2145 1151 -1.000000000000000e+00
2145 2145 7.037434769325305e+00
2146 2 -1.000000000000000e+00
2146 45 -1.000000000000000e+00
2146 476 -2.217091478873913e-02
2146 788 -1.841809727091315e-02
2146 1942 -1.000000000000000e+00
2146 2146 7.040589012059653e+00
2147 28 -1.000000000000000e+00
2147 76 -1.000000000000000e+00
2147 1976 -1.608018782352918e-03
2147 2147 7.040990877335081e+00
2148 199 -1.463057892798438e-02
2148 976 -1.000000000000000e+00
2148 1927 -2.346071579894656e-02
2148 1931 -1.000000000000000e+00
2148 2148 4.038091294726931e+00
2149 56 -1.008118593474158e+00
2149 79 -1.000000000000000e+00
2149 2149 4.117441452891712e+00
2150 40 -1.031141322677725e+00
2150 612 -1.000000000000000e+00
2150 1375 -2.176548150406496e-02
2150 2150 3.052906804181789e+00
2151 968 -1.000000000000000e+00
2151 1522 -1.000000000000000e+00
2151 1702 -1.075747086642560e-02
2151 2151 3.011793569806245e+00
2152 36 -1.000000000000000e+00
2152 782 -1.000000000000000e+00
2152 2152 4.025742631024383e+00
2153 185 -1.000000000000000e+00
2153 1628 -1.199495967668186e-02
2153 1828 -1.000000000000000e+00
2153 1989 -1.235481510974715e-02
2153 2153 3.024349774786429e+00
2154 475 -1.000000000000000e+00
2154 714 -1.000000000000000e+00
2154 2154 4.020989952766776e+00
2155 1081 -1.000000000000000e+00
2155 1907 -1.005306136852340e+00
2155 2155 2.005306136852340e+00
2156 625 -1.000000000000000e+00
2156 929 -1.000000000000000e+00
2156 2156 3.000000000000000e+00
2157 1 -1.000000000000000e+00
2157 72 -1.000000000000000e+00
2157 184 -2.474671902160222e-02
2157 1773 -1.639459583745418e-02
2157 2157 2.083642225004126e+00
2158 1 -1.026650335589670e+00
2158 2 -1.000000000000000e+00
2158 2158 2.058396799795883e+00
2159 247 -2.246222354875823e-02
2159 369 -1.000000000000000e+00
2159 1698 -1.000000000000000e+00
2159 2159 2.030968411867875e+00
2160 252 -1.000000000000000e+00
2160 934 -1.000000000000000e+00
2160 1592 -1.305058453568153e-02
2160 2160 5.032512879065869e+00
2161 46 -1.000000000000000e+00
2161 1588 -1.000000000000000e+00
2161 2161 3.037625406785274e+00
2162 1363 -3.224119347192028e-04
2162 1717 -1.000000000000000e+00
2162 1768 -1.862605534367808e-02
2162 1947 -1.000000000000000e+00
2162 2162 2.071213873541556e+00
2163 55 -5.397784977285411e-03
2163 734 -1.000000000000000e+00
2163 1953 -1.000000000000000e+00
2163 2163 3.027991944756674e+00
2164 1 -1.000000000000000e+00
2164 222 -1.000000000000000e+00
2164 1182 -2.749991590748878e-03
2164 2164 2.024925755119053e+00
2165 42 -1.000000000000000e+00
2165 214 -2.153944464228650e-03
2165 554 -8.037067147891036e-03
2165 804 -1.000000000000000e+00
2165 1148 -1.000000000000000e+00
2165 2165 3.010191011612120e+00
2166 1708 -2.136619116492092e-02
2166 2059 -1.000000000000000e+00
2166 2119 -1.000000000000000e+00
2166 2166 2.037825119414455e+00
2167 495 -1.000000000000000e+00
2167 606 -1.000000000000000e+00
2167 2167 2.054089720050687e+00
2168 23 -1.000000000000000e+00
2168 622 -1.000000000000000e+00
2168 2168 2.051942331664366e+00
2169 687 -1.000000000000000e+00
2169 870 -1.000000000000000e+00
2169 1450 -1.129512825502607e-02
2169 2169 4.020658233835244e+00
2170 470 -1.000000000000000e+00
2170 519 -1.000000000000000e+00
2170 2170 2.023544818942923e+00
2171 1 -1.000000000000000e+00
2171 177 -1.000000000000000e+00
2171 1191 -2.211231175108774e-02
2171 2171 2.053708439606967e+00
2172 195 -1.000000000000000e+00
2172 323 -1.000000000000000e+00
2172 493 -2.265012770226732e-02
2172 2172 2.034165320320191e+00
2173 278 -1.000000000000000e+00
2173 608 -1.000000000000000e+00
2173 2173 2.030323882717005e+00
2174 79 -1.000000000000000e+00
2174 1312 -1.000000000000000e+00
2174 1950 -1.425787809026537e-02
2174 2174 4.059046065049293e+00
2175 162 -1.019575909321784e+00
2175 174 -1.000000000000000e+00
2175 590 -1.480650332513549e-02
2175 1300 -1.909559862702048e-02
2175 1732 -2.322757922451045e-02
2175 1922 -6.382234559893134e-03
2175 2175 5.155013341679409e+00
2176 1592 -1.000000000000000e+00
2176 1630 -1.000000000000000e+00
2176 2176 3.000000000000000e+00
2177 510 -1.000000000000000e+00
2177 604 -8.123195626359239e-03
2177 1047 -1.159096753594384e-02
2177 1338 -1.000000000000000e+00
2177 1990 -1.460104629894278e-02
2177 2177 3.058376885075123e+00
2178 1671 -3.151025207977363e-02
2178 1879 -1.000000000000000e+00
2178 2131 -1.000000000000000e+00
2178 2178 4.068077851402482e+00
2179 46 -1.000000000000000e+00
2179 53 -1.000000000000000e+00
2179 743 -3.145559791522155e-02
2179 2179 3.052698915443489e+00
2180 463 -1.000000000000000e+00
2180 1364 -1.812077872458229e-02
2180 1721 -1.000000000000000e+00
2180 2180 3.035035179404466e+00
2181 487 -3.424647044448918e-02
2181 615 -1.000000000000000e+00
2181 1247 -2.368994997451608e-02
2181 1700 -1.016909485178362e+00
2181 2181 3.074845905597368e+00
2182 2 -1.000000000000000e+00
2182 151 -1.000000000000000e+00
2182 756 -2.014143228163883e-02
2182 2045 -1.070670768039515e-02
2182 2182 2.033905922005736e+00
2183 416 -1.000000000000000e+00
2183 435 -1.000000000000000e+00
2183 2183 3.023424609335682e+00
2184 379 -1.012977586711773e+00
2184 1016 -1.000000000000000e+00
2184 1174 -1.015689038846888e+00
2184 1523 -1.636752793001591e-02
2184 2184 3.090205858506645e+00
2185 182 -1.000000000000000e+00
2185 1084 -1.000000000000000e+00
2185 2185 2.015472467759620e+00
2186 1089 -1.329844871150539e-02
2186 1485 -1.805669527793489e-02
2186 1571 -1.000080882708448e+00
2186 1991 -1.000000000000000e+00
2186 2134 -1.120004583647766e-02
2186 2186 2.073496995486594e+00
2187 148 -1.000000000000000e+00
2187 1940 -1.000000000000000e+00
2187 2187 2.024470112017867e+00
2188 60 -3.026134150225174e-02
2188 97 -1.000000000000000e+00
2188 335 -1.000000000000000e+00
2188 446 -1.485601507700640e-02
2188 1095 -1.000000000000000e+00
2188 2188 3.059851404851690e+00
2189 178 -1.000000000000000e+00
2189 1602 -1.010578354811403e-02
2189 1653 -1.000000000000000e+00
2189 2189 1.102604559985620e+01
2190 161 -1.000000000000000e+00
2190 292 -1.000000000000000e+00
2190 970 -6.337887383999997e-03
2190 1028 -2.226951542566653e-02
2190 2190 2.031671191354064e+00
2191 442 -1.000000000000000e+00
2191 1360 -1.000000000000000e+00
2191 1632 -2.427779239145015e-02
2191 2191 2.077053589204036e+00
2192 18 -1.000000000000000e+00
2192 204 -1.000000000000000e+00
2192 796 -1.975457321111240e-02
2192 2192 4.025116084652839e+00
2193 318 -1.014565188006840e+00
2193 625 -1.000000000000000e+00
2193 828 -1.547228478342248e-02
2193 2193 3.030037472790263e+00
2194 85 -1.000000000000000e+00
2194 1528 -1.000000000000000e+00
2194 2194 3.000000000000000e+00
2195 21 -1.000000000000000e+00
2195 957 -3.154701704510382e-02
2195 1386 -1.000000000000000e+00
2195 2195 3.065425205307483e+00
2196 19 -1.000000000000000e+00
2196 168 -4.110787853782566e-03
2196 1276 -1.000000000000000e+00
2196 2196 2.006401261420592e+00
2197 246 -1.000000000000000e+00
2197 514 -8.939093603196447e-04
2197 2016 -1.000000000000000e+00
2197 2197 4.002993044558886e+00
2198 522 -1.000000000000000e+00
2198 936 -1.000000000000000e+00
2198 2198 3.000000000000000e+00
2199 1233 -1.000000000000000e+00
2199 1817 -1.000000000000000e+00
2199 2199 4.035949713430274e+00
2200 584 -1.020416463135185e+00
2200 756 -1.630099937177950e-02
2200 1106 -1.000000000000000e+00
2200 2200 3.036717462506964e+00
2201 368 -1.000000000000000e+00
2201 437 -3.111087428534835e-02
2201 665 -1.000000000000000e+00
2201 1137 -1.506517669444827e-02
2201 2201 2.046176050979797e+00
2202 51 -1.000000000000000e+00
2202 772 -1.000000000000000e+00
2202 2202 5.041282570218355e+00
2203 778 -3.992736201532857e-03
2203 868 -1.000000000000000e+00
2203 936 -5.769283229848190e-03
2203 1670 -1.000000000000000e+00
2203 2203 2.009762019431381e+00
2204 7 -1.000000000000000e+00
2204 138 -1.871472702087698e-02
2204 692 -1.832735710449380e-02
2204 1267 -7.267880318249888e-03
2204 2118 -1.030055627078557e+00
2204 2204 2.074365591522178e+00
2205 34 -1.000000000000000e+00
2205 731 -1.165336873937378e-02
2205 1404 -8.840479226435480e-03
2205 1534 -1.000000000000000e+00
2205 2205 5.020493847965810e+00
2206 154 -1.000000000000000e+00
2206 2113 -1.000000000000000e+00
2206 2206 6.047982469529211e+00
2207 158 -1.000000000000000e+00
2207 271 -1.000000000000000e+00
2207 327 -1.249238079316176e-02
2207 391 -1.000000000000000e+00
2207 2207 4.089983975571350e+00
2208 871 -1.000000000000000e+00
2208 2071 -1.208440799663714e-02
2208 2078 -1.007710380540238e+00
2208 2208 2.024485474496549e+00
2209 40 -1.000000000000000e+00
2209 397 -2.584025997206401e-02
2209 558 -1.000000000000000e+00
2209 760 -7.751916492082993e-03
2209 1375 -1.160859206369881e-02
2209 2209 2.082206069313975e+00
2210 121 -1.000000000000000e+00
2210 714 -1.008002750056067e+00
2210 2073 -2.458724250051962e-03
2210 2210 3.016633713741519e+00
2211 177 -1.000000000000000e+00
2211 792 -1.000000000000000e+00
2211 2211 6.044183436869094e+00
2212 3 -1.000000000000000e+00
2212 1024 -1.000000000000000e+00
2212 2212 2.048046212708115e+00
2213 76 -1.000000000000000e+00
2213 1872 -1.000000000000000e+00
2213 2213 5.011091813287842e+00
2214 66 -1.000000000000000e+00
2214 674 -1.000000000000000e+00
2214 776 -1.000000000000000e+00
2214 1050 -1.761127255564147e-02
2214 2214 6.034681128555940e+00
2215 242 -1.000000000000000e+00
2215 818 -1.000000000000000e+00
2215 2215 3.000000000000000e+00
2216 1007 -1.000000000000000e+00
2216 1511 -1.000000000000000e+00
2216 1698 -1.550592161753246e-02
2216 2216 4.055771757396904e+00
2217 1628 -1.000000000000000e+00
2217 2071 -1.004985809122649e+00
2217 2217 4.016985961379453e+00
2218 34 -1.000000000000000e+00
2218 36 -4.062887115186579e-03
2218 211 -1.002146136424474e+00
2218 1419 -7.670025101244632e-03
2218 1440 -3.874503058017868e-03
2218 1456 -2.771201723362491e-03
2218 1567 -8.701847834646679e-03
2218 2218 2.044601994046011e+00
2219 993 -1.000000000000000e+00
2219 1182 -1.221803183642023e-02
2219 1528 -1.000000000000000e+00
2219 2219 3.030479699976153e+00
2220 233 -1.000000000000000e+00
2220 306 -1.000000000000000e+00
2220 354 -2.369535690975891e-02
2220 665 -2.763838944975121e-02
2220 2220 3.153377438634529e+00
2221 5 -1.000000000000000e+00
2221 1946 -1.000000000000000e+00
2221 1986 -1.000000000000000e+00
2221 2221 3.042797357288524e+00
2222 587 -1.000000000000000e+00
2222 1076 -6.899776554880646e-04
2222 1435 -1.003114173187640e+00
2222 2222 2.003804150843128e+00
2223 112 -1.000000000000000e+00
2223 672 -1.000000000000000e+00
2223 2223 3.012377056767838e+00
2224 177 -1.000000000000000e+00
2224 206 -2.050114431479920e-02
2224 1170 -1.000000000000000e+00
2224 2224 2.044421864609903e+00
2225 63 -1.000000000000000e+00
2225 679 -1.000000000000000e+00
2225 767 -1.777490388169298e-02
2225 2225 2.030217829534945e+00
2226 13 -1.000000000000000e+00
2226 344 -1.000000000000000e+00
2226 1629 -7.304034843834939e-03
2226 2226 3.010558881303446e+00
2227 398 -3.618938464682277e-02
2227 880 -1.000000000000000e+00
2227 909 -1.000000000000000e+00
2227 2227 3.043247923412815e+00
2228 695 -1.009081203461976e+00
2228 849 -1.000000000000000e+00
2228 2228 2.018922652537896e+00
2229 663 -1.000000000000000e+00
2229 1128 -1.000000000000000e+00
2229 2229 3.008829965582617e+00
2230 27 -1.000000000000000e+00
2230 377 -1.799270190064560e-02
2230 633 -9.698312411378229e-03
2230 977 -1.013114569979829e+00
2230 2230 2.062697314159172e+00
2231 18 -1.000000000000000e+00
2231 1944 -1.000000000000000e+00
2231 2231 2.036755365444594e+00
2232 104 -1.000000000000000e+00
2232 160 -1.864155426508506e-02
2232 544 -1.027883591148622e+00
2232 2232 3.046525145413707e+00
2233 37 -1.000000000000000e+00
2233 250 -1.066780196568898e-02
2233 919 -1.000000000000000e+00
2233 997 -1.959664426269333e-02
2233 1182 -2.075338913139075e-02
2233 2233 2.061502404570230e+00
2234 529 -1.000000000000000e+00
2234 1036 -1.001595113560663e+00
2234 2234 2.001595113560664e+00
2235 1130 -1.000000000000000e+00
2235 1503 -6.392801533036192e-03
2235 1738 -1.016616925077221e+00
2235 2235 3.037993935463129e+00
2236 13 -1.000000000000000e+00
2236 344 -1.000000000000000e+00
2236 1575 -1.163372996846690e-02
2236 1705 -1.677926892387406e-02
2236 2236 3.028412998892341e+00
2237 521 -1.000000000000000e+00
2237 533 -1.000000000000000e+00
2237 2237 5.001997975060204e+00
2238 896 -1.000000000000000e+00
2238 1647 -1.368935226724992e-02
2238 1914 -1.000000000000000e+00
2238 2238 4.020373550074279e+00
2239 1240 -1.000000000000000e+00
2239 2135 -1.000000000000000e+00
2239 2220 -1.969760477525426e-02
2239 2239 4.044176143131086e+00
2240 164 -1.000000000000000e+00
2240 344 -4.893975074476406e-04
2240 670 -2.391304904674572e-03
2240 1629 -1.027056628374140e+00
2240 2226 -3.254846459610960e-03
2240 2240 3.070295087866353e+00
2241 1 -1.000000000000000e+00
2241 1259 -1.000000000000000e+00
2241 2241 6.024782783950707e+00
2242 1160 -1.000000000000000e+00
2242 1535 -1.000000000000000e+00
2242 2242 2.034951671712538e+00
2243 445 -1.000000000000000e+00
2243 868 -2.278942356763659e-02
2243 1225 -1.000000000000000e+00
2243 2243 2.039691140952530e+00
2244 202 -1.000000000000000e+00
2244 270 -1.000000000000000e+00
2244 476 -1.999624654119620e-02
2244 2244 5.038845836020151e+00
2245 5 -1.000000000000000e+00
2245 436 -1.000000000000000e+00
2245 2245 3.022180469136991e+00
2246 2 -1.000000000000000e+00
2246 625 -2.469322435651151e-02
2246 1334 -1.000000000000000e+00
2246 2034 -1.279612780257197e-02
2246 2246 7.045713438746997e+00
2247 1072 -1.000000000000000e+00
2247 1226 -1.010578294199140e+00
2247 2244 -1.000000000000000e+00
2247 2247 6.020169345715278e+00
2248 70 -1.000000000000000e+00
2248 774 -1.000000000000000e+00
2248 2248 2.029532245663477e+00
2249 63 -1.000000000000000e+00
2249 219 -1.469643691566182e-02
2249 2121 -1.000000000000000e+00
2249 2249 5.018182299918537e+00
2250 16 -1.000000000000000e+00
2250 235 -1.000000000000000e+00
2250 2250 3.030418082090012e+00
2251 27 -1.000000000000000e+00
2251 371 -1.000000000000000e+00
2251 2251 2.029804690076731e+00
2252 1 -1.000000000000000e+00
2252 28 -1.000000000000000e+00
2252 2252 2.104973834393436e+00
2253 1065 -1.000000000000000e+00
2253 1213 -1.000000000000000e+00
2253 2253 2.046017676381719e+00
2254 15 -1.000000000000000e+00
2254 1271 -1.002803427373679e+00
2254 2254 2.014318920073315e+00
2255 147 -1.000000000000000e+00
2255 991 -1.000000000000000e+00
2255 2255 4.000000000000000e+00
2256 780 -1.000000000000000e+00
2256 1408 -1.000000000000000e+00
2256 2256 3.048026491809280e+00
2257 913 -1.000000000000000e+00
2257 2192 -1.000000000000000e+00
2257 2257 5.061530273712211e+00
2258 799 -1.000000000000000e+00
2258 1951 -1.000000000000000e+00
2258 2258 2.029021154158603e+00
2259 1105 -2.691178780371624e-02
2259 1232 -1.000000000000000e+00
2259 2080 -1.000000000000000e+00
2259 2259 2.055319734322265e+00
2260 173 -1.000000000000000e+00
2260 744 -1.000000000000000e+00
2260 1823 -1.703169039721601e-02
2260 2123 -2.795924805128532e-02
2260 2260 2.044990938448501e+00
2261 264 -1.000000000000000e+00
2261 402 -1.000000000000000e+00
2261 793 -1.148537960012428e-02
2261 940 -7.854246336606908e-03
2261 1588 -2.598137647406453e-03
2261 2261 6.069387564078008e+00
2262 28 -1.000000000000000e+00
2262 235 -1.009762932704538e+00
2262 2262 4.024634963705761e+00
2263 112 -1.000000000000000e+00
2263 752 -1.000000000000000e+00
2263 2263 4.009632038580620e+00
2264 368 -1.000000000000000e+00
2264 1283 -2.530047886880187e-02
2264 1377 -1.000000000000000e+00
2264 2264 3.032410389102632e+00
2265 809 -6.176968618353620e-03
2265 907 -1.000000000000000e+00
2265 1163 -1.000000000000000e+00
2265 1899 -4.176893027143407e-03
2265 2265 2.016267357602161e+00
2266 788 -1.599001725173264e-02
2266 917 -1.000000000000000e+00
2266 1260 -1.000000000000000e+00
2266 2266 2.036472069043367e+00
2267 8 -1.000000000000000e+00
2267 296 -9.690957615272526e-03
2267 464 -1.000000000000000e+00
2267 1360 -1.413714097482827e-02
2267 2267 2.041897070006149e+00
2268 287 -1.000000000000000e+00
2268 443 -1.000000000000000e+00
2268 2268 2.018910188006617e+00
2269 463 -1.000000000000000e+00
2269 542 -1.000000000000000e+00
2269 1143 -1.677796966274955e-02
2269 1902 -1.000000000000000e+00
2269 2269 4.030796813397098e+00
2270 76 -1.000000000000000e+00
2270 1776 -1.000000000000000e+00
2270 2270 3.045216149694733e+00
2271 222 -1.000000000000000e+00
2271 294 -1.000000000000000e+00
2271 389 -1.367918571195230e-03
2271 1329 -1.883810979144850e-04
2271 2271 2.060175991232113e+00
2272 799 -1.000000000000000e+00
2272 1471 -2.915685426210912e-03
2272 1609 -1.000000000000000e+00
2272 2258 -9.698684476808907e-03
2272 2272 2.029903482451512e+00
2273 493 -1.000000000000000e+00
2273 720 -1.631950885128204e-02
2273 1552 -1.724638614800998e-02
2273 1679 -2.185943492115497e-02
2273 2052 -1.000000000000000e+00
2273 2273 4.114540397213987e+00
2274 278 -1.000000000000000e+00
2274 1040 -1.000000000000000e+00
2274 2274 2.037562245563853e+00
2275 21 -1.000000000000000e+00
2275 57 -1.000000000000000e+00
2275 2275 4.018819512422344e+00
2276 204 -1.000000000000000e+00
2276 620 -1.000000000000000e+00
2276 1273 -3.860302002368388e-03
2276 2276 4.016815404295427e+00
2277 565 -1.000000000000000e+00
2277 663 -1.000000000000000e+00
2277 2277 3.000000000000000e+00
2278 313 -1.000000000000000e+00
2278 598 -8.685300934205940e-03
2278 1003 -1.535695091085198e-02
2278 1406 -1.000000000000000e+00
2278 2278 3.144519077149074e+00
2279 44 -1.000000000000000e+00
2279 589 -1.000000000000000e+00
2279 2279 4.011374448924782e+00
2280 101 -1.867356667675000e-02
2280 344 -1.000000000000000e+00
2280 741 -1.000000000000000e+00
2280 764 -4.813691128811245e-03
2280 1298 -1.000000000000000e+00
2280 2280 4.023487257805561e+00
2281 36 -1.000000000000000e+00
2281 946 -1.000000000000000e+00
2281 2281 3.000000000000000e+00
2282 56 -1.000000000000000e+00
2282 197 -1.470129142846502e-02
2282 384 -1.000000000000000e+00
2282 1785 -1.000000000000000e+00
2282 2282 4.015940878362969e+00
2283 240 -1.000000000000000e+00
2283 1286 -1.010995192499649e+00
2283 2283 2.055974399995967e+00
2284 2 -1.000000000000000e+00
2284 1854 -1.000000000000000e+00
2284 2284 3.000000000000000e+00
2285 7 -1.000000000000000e+00
2285 860 -1.000000000000000e+00
2285 1192 -1.225672566905736e-02
2285 2285 4.015189550900432e+00
2286 651 -1.000000000000000e+00
2286 693 -1.000000000000000e+00
2286 2034 -1.708228034776540e-02
2286 2286 4.039041356236927e+00
2287 363 -1.000000000000000e+00
2287 814 -1.000000000000000e+00
2287 1388 -6.653729489941937e-03
2287 1410 -2.656893349950930e-04
2287 2287 3.054953080288497e+00
2288 83 -1.000000000000000e+00
2288 1066 -1.000000000000000e+00
2288 2288 4.031234305282076e+00
2289 721 -2.512705343358088e-02
2289 871 -1.000000000000000e+00
2289 1761 -1.000000000000000e+00
2289 2289 4.040476692155229e+00
2290 2 -1.000000000000000e+00
2290 215 -1.000000000000000e+00
2290 2290 2.009367733107317e+00
2291 17 -1.000000000000000e+00
2291 1123 -2.061715725494282e-02
2291 1349 -1.000000000000000e+00
2291 2291 3.039757115183265e+00
2292 157 -1.000000000000000e+00
2292 1653 -1.000000000000000e+00
2292 2292 3.000000000000000e+00
2293 83 -1.000000000000000e+00
2293 819 -1.000000000000000e+00
2293 1128 -2.836236789524029e-02
2293 1680 -9.180917812988144e-03
2293 2293 3.037543285708229e+00
2294 60 -1.000000000000000e+00
2294 1322 -1.000000000000000e+00
2294 2294 3.053465523056417e+00
2295 783 -1.000000000000000e+00
2295 1327 -1.498462782667393e-02
2295 2131 -1.000000000000000e+00
2295 2295 2.060059843824545e+00
2296 19 -1.000000000000000e+00
2296 22 -1.000000000000000e+00
2296 872 -2.501129664650202e-02
2296 1890 -2.824437352731732e-02
2296 2296 3.193378559682671e+00
2297 777 -1.000000000000000e+00
2297 929 -1.000000000000000e+00
2297 1603 -4.664934580135486e-03
2297 2297 2.030019537597454e+00
2298 86 -1.000000000000000e+00
2298 215 -1.006229237651066e+00
2298 854 -1.000000000000000e+00
2298 2290 -8.419882078884573e-03
2298 2298 3.023945867560788e+00
2299 1 -1.000000000000000e+00
2299 423 -1.000000000000000e+00
2299 563 -8.509532453301407e-03
2299 2299 3.042408324933575e+00
2300 109 -1.792430055865476e-02
2300 340 -1.000000000000000e+00
2300 2064 -1.005794014190895e+00
2300 2300 2.023718314749550e+00
2301 132 -1.000000000000000e+00
2301 402 -2.312229416712510e-02
2301 1256 -1.000000000000000e+00
2301 2301 4.058503997819832e+00
2302 62 -1.000000000000000e+00
2302 158 -1.000000000000000e+00
2302 991 -2.312752974571611e-02
2302 2302 3.031301822544385e+00
2303 420 -1.000000000000000e+00
2303 1204 -1.000000000000000e+00
2303 2303 2.026617630016089e+00
2304 240 -1.000000000000000e+00
2304 771 -6.119769779113299e-03
2304 1089 -1.000000000000000e+00
2304 1485 -1.000000000000000e+00
2304 2186 -1.047490124823832e-02
2304 2304 4.034141801548390e+00
2305 1386 -1.000000000000000e+00
2305 1430 -1.519085241391938e-02
2305 1506 -1.303682230693804e-02
2305 2149 -1.000000000000000e+00
2305 2305 5.028227674720857e+00
2306 142 -1.000000000000000e+00
2306 1066 -1.000000000000000e+00
2306 2306 2.025318338619638e+00
2307 1293 -1.972167829853003e-02
2307 1406 -1.000000000000000e+00
2307 2010 -1.000000000000000e+00
2307 2089 -1.587385737865224e-02
2307 2307 5.035595535677182e+00
2308 594 -1.438405172262499e-02
2308 639 -2.112539518710317e-02
2308 774 -1.000000000000000e+00
2308 1414 -1.000000000000000e+00
2308 2039 -2.117186786643761e-02
2308 2308 2.105350427705530e+00
2309 286 -1.000000000000000e+00
2309 871 -1.000000000000000e+00
2309 2309 6.015968101124848e+00
2310 5 -1.000000000000000e+00
2310 162 -1.290353797783983e-02
2310 938 -1.000000000000000e+00
2310 1732 -2.187950840340620e-02
2310 2310 2.034783046381246e+00
2311 28 -1.000000000000000e+00
2311 921 -1.000000000000000e+00
2311 1505 -1.000000000000000e+00
2311 2311 8.051214654433471e+00
2312 92 -1.000000000000000e+00
2312 452 -1.020638123037984e+00
2312 2312 2.033969887828599e+00
2313 677 -1.000000000000000e+00
2313 1533 -1.749918113545869e-02
2313 2069 -1.000000000000000e+00
2313 2228 -9.841449075920194e-03
2313 2313 2.035853378599957e+00
2314 146 -1.000000000000000e+00
2314 1504 -1.000000000000000e+00
2314 2314 2.024021334482008e+00
2315 33 -1.000000000000000e+00
2315 1539 -1.000000000000000e+00
2315 2315 3.000000000000000e+00
2316 318 -1.000000000000000e+00
2316 1050 -1.000000000000000e+00
2316 2214 -7.720746487286769e-03
2316 2241 -1.000000000000000e+00
2316 2316 6.028187762638594e+00
2317 1 -1.000000000000000e+00
2317 3 -1.000000000000000e+00
2317 2317 2.071699480144363e+00
2318 83 -1.000000000000000e+00
2318 352 -2.335609202486073e-02
2318 445 -1.000000000000000e+00
2318 1800 -2.414523235665649e-02
2318 2318 2.134829838280115e+00
2319 200 -1.000000000000000e+00
2319 355 -1.000000000000000e+00
2319 2209 -2.071603986507495e-02
2319 2319 3.056847461287582e+00
2320 665 -1.000000000000000e+00
2320 1486 -1.008360967138812e-02
2320 1822 -1.000000000000000e+00
2320 2320 6.010276387606893e+00
2321 378 -1.000000000000000e+00
2321 1560 -1.000000000000000e+00
2321 2321 3.057882869000908e+00
2322 682 -1.000000000000000e+00
2322 894 -1.705834236483284e-02
2322 2244 -1.000000000000000e+00
2322 2322 3.044491732304133e+00
2323 9 -1.000000000000000e+00
2323 482 -1.000000000000000e+00
2323 1121 -1.271276574445090e-02
2323 1203 -1.102715623397742e-02
2323 1590 -1.759219708051009e-02
2323 2323 2.061257897930825e+00
2324 5 -1.000000000000000e+00
2324 844 -1.000000000000000e+00
2324 2324 3.001737133324225e+00
2325 85 -1.000000000000000e+00
2325 1726 -1.000000000000000e+00
2325 2325 3.000000000000000e+00
2326 416 -1.000000000000000e+00
2326 1089 -1.000000000000000e+00
2326 2134 -3.044617980287463e-03
2326 2186 -4.122987440637499e-03
2326 2326 3.007167605420925e+00
2327 564 -1.000000000000000e+00
2327 1108 -1.000000000000000e+00
2327 1558 -2.127747002668465e-02
2327 2175 -1.000000000000000e+00
2327 2327 3.066880808514795e+00
2328 245 -4.553354303458342e-03
2328 432 -1.000000000000000e+00
2328 607 -6.886049141393883e-03
2328 880 -4.401859550499068e-04
2328 1718 -1.000000000000000e+00
2328 2328 5.051778595063186e+00
2329 2 -1.000000000000000e+00
2329 189 -1.000000000000000e+00
2329 2094 -1.410128518351892e-02
2329 2141 -1.552372987988866e-02
2329 2329 2.055886512298458e+00
2330 469 -1.000000000000000e+00
2330 1160 -1.000000000000000e+00
2330 1316 -4.434986975144559e-03
2330 2330 2.010002963786485e+00
2331 207 -1.000000000000000e+00
2331 728 -1.009617751280282e-02
2331 1203 -2.284874618199865e-02
2331 1946 -1.339296184869287e-02
2331 2041 -1.012978746732992e+00
2331 2331 4.126967082478878e+00
2332 208 -1.000000000000000e+00
2332 797 -1.000000000000000e+00
2332 816 -1.009170548637335e+00
2332 2332 6.019412274611244e+00
2333 914 -1.000000000000000e+00
2333 2145 -1.000000000000000e+00
2333 2333 4.032494413589136e+00
2334 65 -1.000000000000000e+00
2334 699 -1.276312101141953e-02
2334 1157 -1.000000000000000e+00
2334 1539 -1.916801937138347e-02
2334 1594 -9.920575067638332e-03
2334 1921 -1.547383182531170e-02
2334 2334 3.081949478769425e+00
2335 1175 -1.000000000000000e+00
2335 1212 -1.007242036502920e+00
2335 2335 2.007242036502920e+00
2336 93 -1.000000000000000e+00
2336 659 -1.000000000000000e+00
2336 958 -1.756549282668727e-02
2336 2336 2.034852849211539e+00
2337 70 -1.000000000000000e+00
2337 1737 -1.000000000000000e+00
2337 2128 -1.888807384875831e-02
2337 2337 3.026541292162997e+00
2338 853 -1.000000000000000e+00
2338 1971 -1.000000000000000e+00
2338 2338 3.000328989582126e+00
2339 308 -1.000000000000000e+00
2339 963 -1.000000000000000e+00
2339 1640 -5.103701643882263e-03
2339 2339 5.046334298382451e+00
2340 1 -1.000000000000000e+00
2340 50 -1.000000000000000e+00
2340 947 -2.246614457318393e-02
2340 1264 -2.422766324221732e-02
2340 2050 -3.915322319004652e-02
2340 2266 -2.048205179163472e-02
2340 2317 -2.323124374265227e-02
2340 2340 3.233210564650752e+00
2341 158 -1.000000000000000e+00
2341 367 -1.000000000000000e+00
2341 991 -1.106223957430612e-02
2341 2341 4.031449400052575e+00
2342 613 -1.000000000000000e+00
2342 765 -1.289722477451951e-02
2342 1129 -1.113050089910256e-02
2342 2026 -1.000000000000000e+00
2342 2342 2.078733765783585e+00
2343 371 -1.000000000000000e+00
2343 2098 -1.000000000000000e+00
2343 2343 3.029708686063648e+00
2344 112 -1.000000000000000e+00
2344 417 -1.000000000000000e+00
2344 2344 2.015633297904736e+00
2345 787 -1.000000000000000e+00
2345 894 -1.658077065501786e-02
2345 949 -1.000000000000000e+00
2345 2345 4.035830933022249e+00
2346 1215 -1.000000000000000e+00
2346 1873 -1.010183186728827e+00
2346 2346 2.010183186728827e+00
2347 1084 -1.000000000000000e+00
2347 1904 -1.000000000000000e+00
2347 2347 2.027926739681273e+00
2348 5 -1.000000000000000e+00
2348 346 -1.538680972563355e-02
2348 411 -1.000000000000000e+00
2348 937 -2.286763305493310e-02
2348 2348 4.038254442780566e+00
2349 164 -1.000000000000000e+00
2349 636 -1.000000000000000e+00
2349 718 -1.000000000000000e+00
2349 2349 5.018431155688654e+00
2350 158 -1.000000000000000e+00
2350 241 -1.000000000000000e+00
2350 842 -9.437870444704233e-03
2350 2350 2.036835334219544e+00
2351 1283 -1.000000000000000e+00
2351 1747 -1.000000000000000e+00
2351 1793 -1.000000000000000e+00
2351 2351 4.024494150225253e+00
2352 17 -1.000000000000000e+00
2352 477 -1.000000000000000e+00
2352 1019 -1.000000000000000e+00
2352 2352 4.033107400368003e+00
2353 42 -1.000000000000000e+00
2353 190 -1.000000000000000e+00
2353 2353 3.000000000000000e+00
2354 63 -1.000000000000000e+00
2354 569 -1.000000000000000e+00
2354 2354 3.031185238694192e+00
2355 2 -1.000000000000000e+00
2355 1462 -1.000000000000000e+00
2355 2355 3.029046852505449e+00
2356 1101 -1.000000000000000e+00
2356 1795 -1.000000000000000e+00
2356 2356 4.050247342577310e+00
2357 383 -1.000000000000000e+00
2357 940 -1.000000000000000e+00
2357 2357 5.013158316554705e+00
2358 722 -1.000000000000000e+00
2358 980 -2.094323065103919e-02
2358 1406 -1.017251563703702e+00
2358 2278 -1.496853312169885e-02
2358 2358 4.090973256783567e+00
2359 53 -1.000000000000000e+00
2359 1070 -4.071917546087367e-03
2359 1412 -2.076824798858062e-02
2359 1644 -1.000000000000000e+00
2359 2359 3.047050808176469e+00
2360 176 -1.000000000000000e+00
2360 419 -2.212699657125412e-02
2360 671 -4.555863351149094e-03
2360 1158 -1.000000000000000e+00
2360 1754 -7.492223626774677e-03
2360 1872 -1.002877211033128e+00
2360 2360 3.054130730846908e+00
2361 340 -1.000000000000000e+00
2361 350 -2.187005496462090e-02
2361 1582 -1.000000000000000e+00
2361 1995 -2.412949801261198e-02
2361 2361 7.055084641502183e+00
2362 406 -1.000000000000000e+00
2362 780 -2.896333390668836e-02
2362 1292 -1.000000000000000e+00
2362 1961 -1.000000000000000e+00
2362 2362 6.041967101522447e+00
2363 274 -1.000000000000000e+00
2363 545 -1.000000000000000e+00
2363 891 -8.497074573931670e-03
2363 1299 -1.012217801063147e-02
2363 2363 4.044363322682686e+00
2364 227 -1.000000000000000e+00
2364 655 -1.017151320545373e+00
2364 2364 5.032122408796261e+00
2365 427 -1.000000000000000e+00
2365 970 -3.585365676504800e-02
2365 1170 -1.000000000000000e+00
2365 2365 4.065345423305513e+00
2366 174 -1.000000000000000e+00
2366 914 -1.000000000000000e+00
2366 2366 3.013041565488337e+00
2367 639 -1.000000000000000e+00
2367 1797 -1.000000000000000e+00
2367 2367 2.084793753430815e+00
2368 938 -1.000000000000000e+00
2368 1471 -1.000000000000000e+00
2368 2368 4.006808153575568e+00
2369 76 -1.000000000000000e+00
2369 113 -1.000000000000000e+00
2369 2369 2.030866575886259e+00
2370 1238 -1.000000000000000e+00
2370 1981 -1.000000000000000e+00
2370 2370 4.002721277917537e+00
2371 465 -1.000000000000000e+00
2371 1687 -1.004286888307615e+00
2371 2371 2.004286888307615e+00
2372 79 -1.000000000000000e+00
2372 289 -1.000000000000000e+00
2372 2372 4.018547886445939e+00
2373 156 -1.000000000000000e+00
2373 1074 -1.000000000000000e+00
2373 2373 2.045053042105521e+00
2374 53 -1.000000000000000e+00
2374 682 -1.000412038527118e+00
2374 2374 2.032897340917679e+00
2375 2152 -1.000000000000000e+00
2375 2364 -1.000000000000000e+00
2375 2375 2.018584740427618e+00
2376 3 -1.000000000000000e+00
2376 104 -1.000000000000000e+00
2376 2376 2.040329743727043e+00
2377 129 -1.000000000000000e+00
2377 1388 -1.003229828088507e+00
2377 2377 6.021980920668677e+00
2378 50 -1.000000000000000e+00
2378 2145 -1.000000000000000e+00
2378 2378 2.015514033455637e+00
2379 755 -1.000000000000000e+00
2379 788 -1.457404995636090e-02
2379 1775 -1.000000000000000e+00
2379 2050 -2.755015058155794e-02
2379 2379 3.042124200537919e+00
2380 36 -1.000000000000000e+00
2380 1309 -1.027304639080712e-02
2380 1976 -1.000000000000000e+00
2380 2380 2.015357554804686e+00
2381 611 -1.001814396127308e+00
2381 1008 -1.000000000000000e+00
2381 2051 -2.591614886609879e-03
2381 2381 3.004788002719699e+00
2382 226 -1.000000000000000e+00
2382 1857 -1.050145020663144e-02
2382 2289 -1.000000000000000e+00
2382 2382 7.014683748547917e+00
2383 50 -1.000000000000000e+00
2383 211 -3.319806444596564e-02
2383 645 -1.000000000000000e+00
2383 2218 -4.917939768305450e-03
2383 2383 3.038116004214271e+00
2384 49 -1.000000000000000e+00
2384 714 -7.671394111628733e-03
2384 2073 -1.000000000000000e+00
2384 2384 2.020294669199343e+00
2385 181 -1.000000000000000e+00
2385 1728 -1.108294788292900e-02
2385 2033 -1.000000000000000e+00
2385 2385 2.049402849885041e+00
2386 309 -1.000000000000000e+00
2386 2016 -1.000000000000000e+00
2386 2386 3.000000000000000e+00
2387 624 -1.000000000000000e+00
2387 773 -2.325169843582570e-02
2387 989 -1.000000000000000e+00
2387 2387 6.054713087115321e+00
2388 363 -1.000000000000000e+00
2388 773 -1.000000000000000e+00
2388 2388 3.000000000000000e+00
2389 23 -1.000000000000000e+00
2389 177 -1.000000000000000e+00
2389 1791 -2.357615824930232e-02
2389 2115 -2.294267207930796e-02
2389 2389 4.046518830328610e+00
2390 347 -1.000000000000000e+00
2390 1501 -1.247009437846363e-02
2390 2257 -1.000000000000000e+00
2390 2390 4.017268944962723e+00
2391 1553 -1.000000000000000e+00
2391 1654 -1.000000000000000e+00
2391 2391 2.045013982656687e+00
2392 325 -1.000000000000000e+00
2392 965 -1.000000000000000e+00
2392 2392 2.048655152192696e+00
2393 344 -1.004276359806154e+00
2393 670 -3.455703205017450e-04
2393 1796 -1.000000000000000e+00
2393 2393 2.004621930126656e+00
2394 241 -1.000000000000000e+00
2394 864 -1.000000000000000e+00
2394 2394 2.043150331972742e+00
2395 316 -5.989340369645930e-03
2395 363 -1.000000000000000e+00
2395 811 -8.342345317665721e-03
2395 2044 -1.010003332406110e+00
2395 2395 5.034411783422089e+00
2396 14 -7.768250882106599e-03
2396 27 -1.000000000000000e+00
2396 1297 -1.007618277386125e+00
2396 2396 2.026857527783596e+00
2397 1 -1.000000000000000e+00
2397 147 -1.000000000000000e+00
2397 2397 3.010064357056740e+00
2398 75 -1.000000000000000e+00
2398 174 -1.000000000000000e+00
2398 2125 -1.002675134394962e+00
2398 2398 3.009568064912887e+00
2399 181 -1.248966366568537e-02
2399 871 -1.000000000000000e+00
2399 1691 -1.000000000000000e+00
2399 2399 4.032431252016053e+00
2400 149 -1.000000000000000e+00
2400 706 -7.993710672061250e-03
2400 860 -1.000000000000000e+00
2400 2400 5.047156770023223e+00
2401 1 -1.000000000000000e+00
2401 2 -1.000000000000000e+00
2401 1176 -3.200015695084103e-02
2401 2401 3.060298660989428e+00
2402 224 -1.000000000000000e+00
2402 1250 -1.000000000000000e+00
2402 1701 -1.601081886317615e-02
2402 2402 3.027103144416669e+00
2403 142 -1.000000000000000e+00
2403 729 -1.000000000000000e+00
2403 2025 -2.013613861538291e-02
2403 2403 4.021516914961727e+00
2404 88 -1.000000000000000e+00
2404 1010 -1.170602154462825e-02
2404 1169 -1.276508750607763e-02
2404 1663 -8.945976360909609e-03
2404 1871 -1.000000000000000e+00
2404 2058 -1.086866743776636e-02
2404 2404 3.075395268418304e+00
2405 195 -1.000000000000000e+00
2405 895 -1.002556658862602e+00
2405 1350 -1.000000000000000e+00
2405 2405 3.002556658862602e+00
2406 182 -1.000000000000000e+00
2406 529 -1.100958911082585e-02
2406 787 -1.000000000000000e+00
2406 2406 4.035067548045976e+00
2407 113 -1.931637027685383e-02
2407 471 -1.651023822020980e-02
2407 494 -2.321093514087100e-02
2407 796 -2.629972446393550e-03
2407 1266 -1.042769992810039e-02
2407 1362 -1.000000000000000e+00
2407 1397 -1.000000000000000e+00
2407 1499 -6.385571837847818e-04
2407 1675 -4.168968334563187e-03
2407 1739 -1.797891220228547e-02
2407 2192 -5.361511441726786e-03
2407 2213 -1.068614818310476e-03
2407 2257 -2.913776087053710e-03
2407 2407 3.178635916668076e+00
2408 929 -1.000000000000000e+00
2408 1940 -1.000000000000000e+00
2408 2154 -1.011139452355302e+00
2408 2408 3.026062776605318e+00
2409 153 -1.000000000000000e+00
2409 327 -1.524299853883245e-02
2409 1337 -2.313370494802774e-02
2409 1856 -1.000000000000000e+00
2409 1938 -1.000000000000000e+00
2409 2409 3.038376703486860e+00
2410 2 -1.000000000000000e+00
2410 252 -1.000000000000000e+00
2410 493 -3.236109079816778e-02
2410 1761 -1.963385128916105e-02
2410 2410 2.092499910308562e+00
2411 11 -1.000000000000000e+00
2411 470 -1.019706418398236e+00
2411 2411 2.057296671481762e+00
2412 404 -1.000000000000000e+00
2412 1457 -1.000000000000000e+00
2412 2412 4.014571784743466e+00
2413 29 -5.060339324654231e-03
2413 1198 -1.000000000000000e+00
2413 1334 -1.000000000000000e+00
2413 2413 2.051094206873540e+00
2414 361 -1.000000000000000e+00
2414 850 -1.796528717926174e-02
2414 904 -1.000000000000000e+00
2414 2414 4.046644048214482e+00
2415 190 -1.000000000000000e+00
2415 207 -1.000000000000000e+00
2415 1816 -1.783038067822837e-02
2415 2415 4.022395867269880e+00
2416 43 -1.000000000000000e+00
2416 920 -1.000000000000000e+00
2416 2019 -1.000000000000000e+00
2416 2416 4.046569772663641e+00
2417 313 -1.000000000000000e+00
2417 502 -1.000000000000000e+00
2417 1196 -2.305644274671391e-02
2417 1968 -2.356682095496946e-02
2417 2417 3.046623263701683e+00
2418 2 -1.046237927816037e-02
2418 5 -1.014550084218498e+00
2418 22 -1.218626344268217e-02
2418 213 -1.596743416991587e-02
2418 254 -2.804593087782556e-03
2418 271 -1.746143567060043e-02
2418 298 -1.700439982658646e-03
2418 299 -1.834603815554298e-02
2418 327 -2.518735388945353e-02
2418 391 -1.162281888005737e-02
2418 437 -2.405435944361691e-03
2418 492 -1.765952907515854e-03
2418 658 -1.188105456192997e-02
2418 665 -2.653440418961178e-03
2418 686 -1.800195780064677e-02
2418 791 -3.818291652105460e-03
2418 808 -1.578004934427224e-02
2418 872 -1.619557105609601e-02
2418 914 -1.395126562956525e-02
2418 1016 -2.982802521806601e-03
2418 1044 -1.000000000000000e+00
2418 1085 -6.965349556210919e-03
2418 1137 -9.260169025116220e-04
2418 1228 -6.715331753145769e-03
2418 1337 -1.465756510985751e-02
2418 1510 -8.134989921879448e-03
2418 1586 -1.717687228983215e-02
2418 1601 -1.171918437440421e-02
2418 1654 -7.527988138689370e-03
2418 1661 -2.189870560443617e-02
2418 1699 -6.403515389663808e-03
2418 1708 -1.347265723957851e-02
2418 1714 -3.941960371463275e-03
2418 1722 -1.438383717168868e-03
2418 1856 -1.969461402816987e-02
2418 1938 -1.448245485891216e-02
2418 1955 -9.863249981377579e-03
2418 2019 -1.307474807230791e-02
2418 2028 -1.806075747442801e-03
2418 2059 -9.971484813230803e-03
2418 2062 -6.270340307372414e-03
2418 2103 -1.068261558767570e-02
2418 2121 -2.580688038664145e-02
2418 2166 -1.645892824953392e-02
2418 2249 -3.485863002874926e-03
2418 2343 -5.160539602214662e-03
2418 2418 3.854121857580296e+00
2419 5 -1.000000000000000e+00
2419 22 -1.000000000000000e+00
2419 327 -2.559691279767433e-02
2419 1510 -2.353636443101586e-02
2419 2419 3.095297743602262e+00
2420 497 -1.000000000000000e+00
2420 550 -1.000000000000000e+00
2420 2420 4.056758353039564e+00
2421 362 -1.000000000000000e+00
2421 682 -1.000000000000000e+00
2421 2421 3.010150504322723e+00
2422 783 -1.000000000000000e+00
2422 1327 -1.478835055180993e-02
2422 1331 -1.000000000000000e+00
2422 2422 3.032107108471969e+00
2423 32 -1.000000000000000e+00
2423 1054 -2.505614145708150e-02
2423 1700 -1.000000000000000e+00
2423 2423 5.044973674558502e+00
2424 5 -1.000000000000000e+00
2424 850 -1.138687662322488e-02
2424 2318 -3.232077851068558e-02
2424 2414 -1.000000000000000e+00
2424 2424 2.043707655133911e+00
2425 507 -1.000000000000000e+00
2425 932 -3.946038398820579e-02
2425 1040 -1.000000000000000e+00
2425 2317 -2.640312102713271e-02
2425 2425 3.065863505015339e+00
2426 247 -1.000000000000000e+00
2426 1912 -5.671371693628896e-04
2426 2088 -1.000000000000000e+00
2426 2416 -1.000000000000000e+00
2426 2426 4.014849714873733e+00
2427 5 -1.000000000000000e+00
2427 93 -5.490179826952563e-03
2427 656 -1.000000000000000e+00
2427 1343 -1.487921164141679e-03
2427 2427 2.006978100991094e+00
2428 20 -1.000000000000000e+00
2428 91 -1.000000000000000e+00
2428 613 -1.154156817386463e-02
2428 833 -1.000000000000000e+00
2428 1551 -1.000000000000000e+00
2428 2342 -4.542819534118560e-03
2428 2428 5.016084387707983e+00
2429 174 -1.000000000000000e+00
2429 201 -1.000000000000000e+00
2429 284 -1.245894731855186e-02
2429 1231 -8.878731666831901e-03
2429 1669 -9.790566363003622e-03
2429 2429 2.052249936448854e+00
2430 423 -2.165922347443949e-02
2430 1775 -1.000000000000000e+00
2430 1902 -1.000000000000000e+00
2430 2299 -1.609373807957918e-02
2430 2430 4.070113058257665e+00
2431 1706 -1.000000000000000e+00
2431 2399 -1.000000000000000e+00
2431 2431 3.000000000000000e+00
2432 728 -1.000000000000000e+00
2432 729 -1.000000000000000e+00
2432 802 -1.752814373697355e-02
2432 2216 -1.830056216347367e-02
2432 2432 3.035828705900447e+00
2433 289 -1.154302291362346e-02
2433 567 -1.000000000000000e+00
2433 2372 -1.007880002365274e+00
2433 2433 2.041956058213761e+00
2434 250 -1.000000000000000e+00
2434 528 -1.000000000000000e+00
2434 1021 -1.225809862088133e-02
2434 2434 4.032663571321381e+00
2435 262 -4.138430677655236e-03
2435 263 -1.000000000000000e+00
2435 1589 -1.000000000000000e+00
2435 2435 3.009432867395245e+00
2436 1578 -1.000000000000000e+00
2436 2067 -1.000000000000000e+00
2436 2436 3.037260886766492e+00
2437 1019 -1.000000000000000e+00
2437 1717 -1.000000000000000e+00
2437 2437 3.030049245850980e+00
2438 1123 -1.000000000000000e+00
2438 1632 -1.000000000000000e+00
2438 2438 4.022480267792428e+00
2439 1007 -1.000000000000000e+00
2439 1084 -1.822331026718743e-02
2439 1207 -1.000000000000000e+00
2439 2072 -4.194697463667169e-03
2439 2185 -1.443991652972329e-02
2439 2439 3.044241716994188e+00
2440 348 -1.000000000000000e+00
2440 395 -1.000000000000000e+00
2440 1857 -1.000000000000000e+00
2440 2440 5.041627746998346e+00
2441 494 -1.734322520345967e-02
2441 568 -1.000000000000000e+00
2441 1362 -2.085298118700845e-02
2441 1494 -1.993117416294089e-02
2441 1693 -1.000000000000000e+00
2441 1897 -2.369806138920415e-02
2441 2407 -6.547230246733348e-03
2441 2441 3.088372672189347e+00
2442 135 -1.000000000000000e+00
2442 479 -1.000000000000000e+00
2442 597 -1.887594610190360e-02
2442 1082 -1.400167803601732e-02
2442 2442 2.032877624137921e+00
2443 292 -1.857214357882378e-02
2443 1288 -1.000000000000000e+00
2443 1357 -1.067708467442851e-02
2443 2246 -1.000000000000000e+00
2443 2443 4.101666294789806e+00
2444 388 -1.000000000000000e+00
2444 1776 -1.000000000000000e+00
2444 2444 4.008705627948267e+00
2445 825 -1.000000000000000e+00
2445 861 -1.000000000000000e+00
2445 1330 -1.580907509670062e-02
2445 2445 5.051371029892024e+00
2446 241 -1.000000000000000e+00
2446 1294 -1.000000000000000e+00
2446 2446 4.007594399263606e+00
2447 34 -1.000000000000000e+00
2447 304 -1.010397456933499e+00
2447 2447 4.013904224908375e+00
2448 679 -1.000000000000000e+00
2448 1156 -1.212444088980262e-02
2448 2066 -1.007334035200441e+00
2448 2448 4.039554074526285e+00
2449 294 -1.017186747376807e+00
2449 389 -2.714911836803166e-02
2449 475 -1.000000000000000e+00
2449 2271 -2.137354016132675e-02
2449 2449 2.065709405906165e+00
2450 1066 -1.000000000000000e+00
2450 1445 -1.000000000000000e+00
2450 2450 4.016284330498066e+00
2451 477 -8.266977943002896e-03
2451 953 -9.462316280202221e-03
2451 1155 -1.465445745655175e-02
2451 1970 -1.000000000000000e+00
2451 2257 -1.000000000000000e+00
2451 2451 2.045185279376936e+00
2452 50 -1.000000000000000e+00
2452 586 -1.623239514193265e-02
2452 1291 -2.016574387443765e-02
2452 1641 -2.697743634921371e-02
2452 1712 -1.000000000000000e+00
2452 2452 2.141742411625891e+00
2453 674 -1.000000000000000e+00
2453 1202 -1.540295338293908e-02
2453 2189 -1.000000000000000e+00
2453 2453 3.043248665047751e+00
2454 19 -1.000000000000000e+00
2454 168 -1.470673098156402e-02
2454 1015 -1.615442866711421e-02
2454 1538 -1.000000000000000e+00
2454 1886 -1.000000000000000e+00
2454 2454 4.030861159648678e+00
2455 297 -1.000000000000000e+00
2455 352 -1.802530180408961e-02
2455 850 -1.000000000000000e+00
2455 1397 -2.228743064871759e-02
2455 2455 2.060464010383731e+00
2456 106 -1.000000000000000e+00
2456 922 -1.000000000000000e+00
2456 1223 -3.667362636916817e-02
2456 2456 3.065318119344847e+00
2457 12 -1.000000000000000e+00
2457 68 -1.000000000000000e+00
2457 624 -1.107683656999990e-02
2457 772 -9.589735200085324e-03
2457 1358 -1.000000000000000e+00
2457 2202 -1.761740010966492e-02
2457 2457 7.161411838341134e+00
2458 234 -1.000000000000000e+00
2458 593 -2.481112890897125e-02
2458 821 -1.000000000000000e+00
2458 2332 -1.000000000000000e+00
2458 2458 8.049612060261520e+00
2459 378 -1.000000000000000e+00
2459 1096 -1.000000000000000e+00
2459 2459 5.030328484990885e+00
2460 298 -2.393021657642241e-02
2460 354 -3.349368759182521e-02
2460 517 -1.000000000000000e+00
2460 1176 -1.000000000000000e+00
2460 2343 -2.454814646143343e-02
2460 2418 -1.046038441358989e-02
2460 2460 2.092432435043271e+00
2461 239 -1.000000000000000e+00
2461 602 -1.000000000000000e+00
2461 1786 -1.689283135046720e-02
2461 2306 -1.660841627214788e-02
2461 2461 4.056971967079222e+00
2462 838 -1.000000000000000e+00
2462 1211 -1.000000000000000e+00
2462 2462 3.038121937683327e+00
2463 15 -1.000000000000000e+00
2463 484 -1.373355064591361e-02
2463 2219 -1.000000000000000e+00
2463 2463 4.032629103669296e+00
2464 2 -1.000000000000000e+00
2464 219 -1.596660631448115e-02
2464 1665 -2.695866038653541e-02
2464 1856 -1.000000000000000e+00
2464 2464 2.042925266701017e+00
2465 240 -1.000000000000000e+00
2465 422 -1.000000000000000e+00
2465 889 -1.109623473440100e-02
2465 2465 5.011689321502402e+00
2466 921 -1.000000000000000e+00
2466 2056 -1.732920284659136e-02
2466 2301 -1.000000000000000e+00
2466 2466 2.027877976321892e+00
2467 18 -1.000000000000000e+00
2467 1595 -1.000000000000000e+00
2467 2467 3.023734147908245e+00
2468 666 -5.887605773582504e-03
2468 679 -1.000000000000000e+00
2468 2095 -1.000000000000000e+00
2468 2468 3.028404849284111e+00
2469 5 -1.000000000000000e+00
2469 1565 -1.000000000000000e+00
2469 2469 2.028988352597538e+00
2470 612 -1.000000000000000e+00
2470 711 -1.000000000000000e+00
2470 1709 -2.047988887558350e-02
2470 1781 -2.419866684815937e-02
2470 2470 2.044678555723743e+00
2471 1283 -1.015838130201566e+00
2471 2264 -1.000000000000000e+00
2471 2471 2.016732193066012e+00
2472 7 -1.000000000000000e+00
2472 40 -1.000000000000000e+00
2472 2472 3.000000000000000e+00
2473 88 -1.000000000000000e+00
2473 374 -1.000000000000000e+00
2473 834 -1.000000000000000e+00
2473 1374 -1.046775086613100e-02
2473 1531 -1.753124844480188e-02
2473 2473 3.027998999310933e+00
2474 926 -1.000000000000000e+00
2474 1817 -1.000000000000000e+00
2474 2474 3.026595757281521e+00
2475 96 -1.000000000000000e+00
2475 1334 -1.000000000000000e+00
2475 1721 -5.416924075811497e-03
2475 2475 3.018296957854445e+00
2476 926 -1.000000000000000e+00
2476 2241 -1.000000000000000e+00
2476 2476 3.010328360844408e+00
2477 768 -6.151947275195635e-03
2477 795 -1.000000000000000e+00
2477 807 -1.000000000000000e+00
2477 1320 -1.019980539564418e-02
2477 1980 -3.601447777353658e-03
2477 2477 3.048777533860793e+00
2478 823 -1.000000000000000e+00
2478 1207 -1.000000000000000e+00
2478 1712 -7.179398839454951e-03
2478 2478 5.035111085342077e+00
2479 73 -1.000000000000000e+00
2479 729 -1.000000000000000e+00
2479 1698 -1.411236814635490e-02
2479 2395 -1.000000000000000e+00
2479 2479 5.076828641441811e+00
2480 714 -1.008508898488161e+00
2480 768 -1.000000000000000e+00
2480 2073 -2.000489129245882e-03
2480 2480 2.017919483831237e+00
2481 491 -1.000000000000000e+00
2481 690 -3.405006300219781e-02
2481 2107 -1.007092891944424e+00
2481 2481 2.070797761724747e+00
2482 21 -1.000000000000000e+00
2482 204 -1.000000000000000e+00
2482 1792 -6.709629029813056e-03
2482 2482 8.014434339491388e+00
2483 26 -1.000000000000000e+00
2483 443 -1.000000000000000e+00
2483 678 -1.851432455294253e-03
2483 1401 -4.487655013974338e-03
2483 2483 5.012909026535385e+00
2484 197 -1.000000000000000e+00
2484 2282 -1.000000000000000e+00
2484 2484 3.022976397653569e+00
2485 305 -2.820741660023845e-02
2485 378 -1.000000000000000e+00
2485 535 -1.000000000000000e+00
2485 1978 -1.671675256190168e-02
2485 1988 -1.000000000000000e+00
2485 2485 4.044924169162140e+00
2486 363 -1.000000000000000e+00
2486 799 -1.500648736965932e-02
2486 1047 -1.000000000000000e+00
2486 1389 -2.919267273961816e-03
2486 1609 -1.142925138460037e-02
2486 2272 -4.372038713789179e-03
2486 2486 4.041606340053252e+00
2487 1 -1.000000000000000e+00
2487 180 -2.761037572327833e-02
2487 1356 -1.000000000000000e+00
2487 2487 4.057545266285643e+00
2488 468 -1.000000000000000e+00
2488 906 -1.000000000000000e+00
2488 2043 -1.922270067730716e-02
2488 2488 2.024340102044067e+00
2489 166 -1.000000000000000e+00
2489 632 -1.000000000000000e+00
2489 899 -2.387730594677751e-02
2489 1747 -1.624082372200316e-02
2489 2351 -1.000000000000000e+00
2489 2489 3.048260952826072e+00
2490 304 -1.095740142561486e-03
2490 709 -1.479453201034656e-02
2490 871 -1.000000000000000e+00
2490 1806 -1.236606095416999e-02
2490 2447 -1.003506767974876e+00
2490 2490 4.035236702046507e+00
2491 93 -1.000000000000000e+00
2491 1236 -1.005766394671571e+00
2491 2491 2.005766394671570e+00
2492 2 -1.000000000000000e+00
2492 1296 -2.418998734994362e-03
2492 2348 -1.000000000000000e+00
2492 2366 -6.555408929046397e-03
2492 2492 5.009699858002068e+00
2493 1408 -1.000000000000000e+00
2493 1469 -1.004409676208207e+00
2493 2026 -1.615081614859842e-02
2493 2493 2.020560492356805e+00
2494 301 -1.000000000000000e+00
2494 516 -1.000000000000000e+00
2494 1304 -1.009886103127212e+00
2494 2494 3.014929788629274e+00
2495 903 -1.000000000000000e+00
2495 1081 -1.000000000000000e+00
2495 1421 -3.460760776034458e-02
2495 2495 2.077766760602892e+00
2496 50 -1.000000000000000e+00
2496 996 -6.035744207448985e-03
2496 1065 -1.000000000000000e+00
2496 2496 3.012407843236409e+00
2497 16 -1.000000000000000e+00
2497 1593 -1.000000000000000e+00
2497 2497 4.042830009823542e+00
2498 655 -1.000000000000000e+00
2498 1706 -1.000374999585939e+00
2498 2364 -1.335667714185060e-02
2498 2375 -1.856897454694243e-02
2498 2498 5.054411574648939e+00
2499 880 -1.000000000000000e+00
2499 2202 -1.000000000000000e+00
2499 2499 3.031968528717100e+00
2500 379 -1.000000000000000e+00
2500 871 -1.000000000000000e+00
2500 2500 4.011694845119889e+00
2501 2 -1.000000000000000e+00
2501 26 -1.000000000000000e+00
2501 327 -2.318841174966431e-02
2501 2418 -1.803433474425108e-02
2501 2501 3.041222746493915e+00
2502 88 -1.000000000000000e+00
2502 876 -1.014571875310351e+00
2502 896 -1.007107053785994e-02
2502 1716 -1.000000000000000e+00
2502 1757 -2.308520537774384e-02
2502 2502 5.047728151225955e+00
2503 962 -1.152195077507151e-02
2503 972 -1.000000000000000e+00
2503 1480 -1.000000000000000e+00
2503 2503 5.020068955457055e+00
2504 396 -1.000000000000000e+00
2504 710 -1.000000000000000e+00
2504 897 -1.000000000000000e+00
2504 2349 -1.440048974919953e-02
2504 2504 3.053256930120886e+00
2505 761 -1.504450614436904e-02
2505 842 -1.000000000000000e+00
2505 2175 -1.000000000000000e+00
2505 2505 2.029940889289623e+00
2506 1 -1.000000000000000e+00
2506 62 -1.000000000000000e+00
2506 894 -2.187165642990381e-02
2506 2506 3.042272504141710e+00
2507 450 -1.000000000000000e+00
2507 472 -1.000000000000000e+00
2507 2507 7.025604648583212e+00
2508 63 -1.000000000000000e+00
2508 1628 -1.003866658316508e+00
2508 1828 -6.773091782544472e-03
2508 1989 -1.570606930020805e-02
2508 2077 -7.878837633209280e-03
2508 2508 2.036169066993404e+00
2509 21 -1.000000000000000e+00
2509 143 -9.432812106082732e-03
2509 303 -7.852687437627952e-03
2509 1001 -1.000000000000000e+00
2509 2509 7.028456668255522e+00
2510 823 -1.000000000000000e+00
2510 1317 -1.000000000000000e+00
2510 2510 2.043076816914252e+00
2511 320 -1.011828862566297e+00
2511 684 -2.823631015906586e-03
2511 1328 -2.834635644797246e-02
2511 1583 -1.000000000000000e+00
2511 2511 4.079131100431466e+00
2512 1053 -1.000000000000000e+00
2512 2215 -1.000000000000000e+00
2512 2512 3.000000000000000e+00
2513 1 -1.000000000000000e+00
2513 575 -1.000000000000000e+00
2513 2513 4.048857886495413e+00
2514 30 -1.000000000000000e+00
2514 1538 -1.000000000000000e+00
2514 2514 5.024259981119637e+00
2515 2086 -1.000000000000000e+00
2515 2109 -1.000000000000000e+00
2515 2133 -1.602413058007944e-02
2515 2515 2.057210685449070e+00
2516 226 -1.000000000000000e+00
2516 1145 -1.468367170496035e-02
2516 1893 -4.338849076391428e-03
2516 1996 -1.000000000000000e+00
2516 2516 3.022239129623910e+00
2517 1 -1.000000000000000e+00
2517 182 -1.000000000000000e+00
2517 788 -1.617720940280159e-02
2517 1191 -2.185545117247265e-02
2517 2517 4.038032660575274e+00
2518 165 -1.000000000000000e+00
2518 791 -1.000000000000000e+00
2518 921 -1.000000000000000e+00
2518 2466 -1.054877347530097e-02
2518 2518 3.027055935725339e+00
2519 127 -1.000000000000000e+00
2519 690 -1.122502480671078e-02
2519 2107 -1.000000000000000e+00
2519 2519 2.013423229267560e+00
2520 51 -1.000000000000000e+00
2520 157 -1.520825218685155e-03
2520 434 -1.837550393665407e-02
2520 688 -1.000336944261739e+00
2520 2520 2.020233273417078e+00
2521 1940 -1.000000000000000e+00
2521 2206 -1.000000000000000e+00
2521 2521 2.042794754980821e+00
2522 1 -1.000000000000000e+00
2522 66 -1.000000000000000e+00
2522 700 -1.000000000000000e+00
2522 2522 7.019709381639154e+00
2523 6 -1.000000000000000e+00
2523 497 -1.010220403304905e+00
2523 1215 -1.393875458679212e-02
2523 2523 2.024159157891697e+00
2524 428 -1.000000000000000e+00
2524 1740 -1.000000000000000e+00
2524 2524 3.015882859748591e+00
2525 34 -2.511973760696124e-02
2525 522 -1.000000000000000e+00
2525 580 -2.552349927012924e-02
2525 2205 -1.000000000000000e+00
2525 2525 2.050643236877090e+00
2526 206 -1.000000000000000e+00
2526 1785 -1.000000000000000e+00
2526 2526 4.020970720471657e+00
2527 5 -1.000000000000000e+00
2527 632 -1.000000000000000e+00
2527 2418 -1.664278011513946e-03
2527 2527 5.030265789732998e+00
2528 609 -1.446091775753385e-02
2528 1361 -1.000000000000000e+00
2528 1883 -1.000000000000000e+00
2528 2528 2.024245120094127e+00
2529 5 -1.000000000000000e+00
2529 83 -1.000000000000000e+00
2529 454 -3.414275696436266e-02
2529 1102 -1.000000000000000e+00
2529 2529 7.056337188574844e+00
2530 59 -1.000000000000000e+00
2530 182 -1.000000000000000e+00
2530 2530 2.039981836795435e+00
2531 50 -1.000000000000000e+00
2531 1034 -1.010223760480941e+00
2531 1359 -2.262301281377356e-02
2531 2531 3.046146183778760e+00
2532 291 -1.000000000000000e+00
2532 2288 -1.013860887461252e+00
2532 2532 2.023513956942153e+00
2533 379 -1.000000000000000e+00
2533 722 -1.000000000000000e+00
2533 1678 -8.388038674066326e-03
2533 2533 2.060728150610111e+00
2534 112 -1.000000000000000e+00
2534 1672 -1.000000000000000e+00
2534 2438 -5.504505706593365e-03
2534 2534 3.013718669455519e+00
2535 304 -1.000000000000000e+00
2535 844 -2.239582392299011e-03
2535 1850 -1.000000000000000e+00
2535 2535 4.021265571430409e+00
2536 713 -3.266711269727113e-02
2536 1659 -1.000000000000000e+00
2536 1776 -1.000000000000000e+00
2536 2394 -3.325808527265125e-02
2536 2536 7.065925197969922e+00
2537 1 -1.000000000000000e+00
2537 1298 -1.000000000000000e+00
2537 2537 2.044969493716517e+00
2538 487 -1.000000000000000e+00
2538 503 -1.229130395149802e-02
2538 935 -1.000000000000000e+00
2538 1869 -1.454481109425331e-02
2538 2538 3.049652852986260e+00
2539 9 -1.000000000000000e+00
2539 318 -1.331351243802205e-02
2539 385 -1.479968347098008e-02
2539 924 -1.500089270171671e-02
2539 1949 -1.555784841459397e-02
2539 2193 -1.000000000000000e+00
2539 2539 2.100710336965527e+00
2540 66 -1.000000000000000e+00
2540 2535 -1.000000000000000e+00
2540 2540 3.000000000000000e+00
2541 16 -1.000000000000000e+00
2541 2401 -1.000000000000000e+00
2541 2541 3.051412377177564e+00
2542 135 -1.000000000000000e+00
2542 615 -1.000000000000000e+00
2542 966 -1.217086725742840e-02
2542 2542 2.023735618898824e+00
2543 437 -1.000000000000000e+00
2543 1355 -3.059660338537008e-02
2543 2062 -1.000000000000000e+00
2543 2419 -2.378732615362739e-02
2543 2543 2.083042457952096e+00
2544 393 -1.000000000000000e+00
2544 1178 -1.000000000000000e+00
2544 1490 -2.136729684618164e-02
2544 2544 2.034551728146024e+00
2545 7 -1.000000000000000e+00
2545 1356 -1.000000000000000e+00
2545 1537 -1.921143465389975e-02
2545 2545 2.043261288091393e+00
2546 1153 -1.000000000000000e+00
2546 1795 -1.000000000000000e+00
2546 2546 4.000103967062474e+00
2547 403 -1.664534372720956e-02
2547 923 -1.000000000000000e+00
2547 968 -1.000000000000000e+00
2547 2547 2.045050687679329e+00
2548 23 -1.000000000000000e+00
2548 27 -1.000000000000000e+00
2548 290 -1.027762884509128e+00
2548 364 -2.813380057621515e-02
2548 2548 3.055896685085343e+00
2549 97 -1.000000000000000e+00
2549 627 -1.000000000000000e+00
2549 2549 3.030540331106062e+00
2550 369 -2.498259413035587e-02
2550 561 -1.000000000000000e+00
2550 903 -1.000000000000000e+00
2550 2550 2.040542389015111e+00
2551 896 -1.000000000000000e+00
2551 1604 -1.015920688350979e+00
2551 2551 2.015920688350979e+00
2552 10 -1.000000000000000e+00
2552 83 -1.000000000000000e+00
2552 757 -9.935790090400456e-03
2552 1374 -5.620042074468192e-03
2552 2552 2.015555832164869e+00
2553 16 -1.000000000000000e+00
2553 1223 -1.000000000000000e+00
2553 2418 -1.155799461998791e-02
2553 2553 3.035026014930358e+00
2554 48 -1.000000000000000e+00
2554 76 -1.000000000000000e+00
2554 1983 -6.749660483862031e-03
2554 2554 5.066652380943967e+00
2555 95 -1.000000000000000e+00
2555 1194 -1.676993883796758e-02
2555 2276 -1.000000000000000e+00
2555 2555 8.034208646649175e+00
2556 97 -1.014148227613088e+00
2556 367 -1.881316777614409e-02
2556 425 -4.688879941535118e-03
2556 507 -1.001626728832437e+00
2556 2556 2.043122614033343e+00
2557 23 -1.000000000000000e+00
2557 937 -1.694686589328645e-02
2557 2348 -1.000000000000000e+00
2557 2557 2.034725279057623e+00
2558 1314 -1.000000000000000e+00
2558 2446 -1.002683471088182e+00
2558 2558 4.021414207588903e+00
2559 868 -1.000000000000000e+00
2559 2245 -1.000000000000000e+00
2559 2559 3.000000000000000e+00
2560 351 -1.000000000000000e+00
2560 561 -1.000000000000000e+00
2560 2560 3.002472285464030e+00
2561 32 -1.000000000000000e+00
2561 379 -1.000000000000000e+00
2561 1678 -2.053136331015129e-02
2561 2533 -1.610313119170450e-02
2561 2561 2.055648178792410e+00
2562 3 -1.000000000000000e+00
2562 30 -1.000000000000000e+00
2562 2562 3.017228408212076e+00
2563 50 -1.000000000000000e+00
2563 152 -1.005140169160459e+00
2563 1306 -9.685976003906744e-03
2563 1802 -2.008704611414536e-02
2563 2190 -3.063788544397253e-03
2563 2563 6.061426738725973e+00
2564 104 -1.000000000000000e+00
2564 756 -1.000000000000000e+00
2564 2564 6.027712024499047e+00
2565 59 -4.441710114927774e-03
2565 143 -1.000000000000000e+00
2565 303 -2.854561864902640e-02
2565 2529 -1.000000000000000e+00
2565 2565 2.032987328763954e+00
2566 682 -1.000000000000000e+00
2566 798 -1.000000000000000e+00
2566 1971 -8.082782027717682e-03
2566 2566 2.012363637707628e+00
2567 44 -1.000000000000000e+00
2567 745 -1.000000000000000e+00
2567 1187 -1.862062423826602e-02
2567 2567 3.062465353287433e+00
2568 225 -1.000000000000000e+00
2568 2326 -1.000000000000000e+00
2568 2568 5.017992793325080e+00
2569 133 -1.000000000000000e+00
2569 176 -4.545005547348954e-03
2569 371 -1.000000000000000e+00
2569 1211 -1.056465966427694e-02
2569 1642 -1.143159088693108e-02
2569 2569 5.034437890178034e+00
2570 15 -1.000000000000000e+00
2570 302 -1.000000000000000e+00
2570 1721 -8.842138015068328e-03
2570 2475 -1.288003377863315e-02
2570 2570 2.021722171793702e+00
2571 278 -1.000000000000000e+00
2571 1193 -1.000000000000000e+00
2571 2571 3.010549097595251e+00
2572 333 -1.000000000000000e+00
2572 405 -1.521431168120061e-02
2572 1029 -1.000000000000000e+00
2572 1225 -9.870001440510076e-03
2572 2063 -1.002501721073043e-02
2572 2474 -8.507802918194368e-03
2572 2572 3.093324887984557e+00
2573 316 -8.100573671622450e-03
2573 611 -1.000000000000000e+00
2573 811 -1.000000000000000e+00
2573 2573 2.034754595801796e+00
2574 189 -1.082597880384878e-02
2574 379 -1.000000000000000e+00
2574 1179 -1.247016539773382e-02
2574 1998 -1.000000000000000e+00
2574 2574 4.036539728663399e+00
2575 133 -4.560823095937726e-03
2575 251 -1.017116135629896e+00
2575 305 -9.877846841982578e-03
2575 535 -1.643106329462596e-02
2575 884 -2.611567850035269e-03
2575 908 -8.484345969538327e-03
2575 959 -5.084139657660422e-03
2575 1046 -7.216965057582053e-03
2575 1219 -1.074506412250670e-02
2575 1352 -1.287837688001577e-02
2575 1465 -1.000000000000000e+00
2575 1580 -3.738478852889537e-03
2575 1832 -5.362486640126618e-03
2575 1988 -1.301390271303615e-02
2575 1994 -8.089886911931136e-03
2575 2020 -1.944302498199705e-03
2575 2575 2.162865075290587e+00
2576 412 -1.000000000000000e+00
2576 894 -2.575823748280666e-02
2576 963 -1.000000000000000e+00
2576 2576 2.041725576761417e+00
2577 357 -1.615163024298188e-02
2577 492 -1.780185901260278e-02
2577 1170 -1.000000000000000e+00
2577 1337 -1.623973496570682e-02
2577 1879 -1.702950648219451e-02
2577 2540 -1.000000000000000e+00
2577 2577 4.126412078025817e+00
2578 63 -1.865162790803373e-02
2578 288 -1.000000000000000e+00
2578 795 -1.000000000000000e+00
2578 2578 2.026822647570601e+00
2579 1100 -1.000000000000000e+00
2579 1304 -1.000000000000000e+00
2579 2097 -2.888498122460234e-02
2579 2579 3.041516702318197e+00
2580 652 -1.589528280364110e-02
2580 1347 -1.000000000000000e+00
2580 1848 -1.000000000000000e+00
2580 2580 3.023299271022553e+00
2581 518 -1.000000000000000e+00
2581 1255 -3.370667366215018e-03
2581 1394 -8.497666947006703e-03
2581 2527 -1.000000000000000e+00
2581 2581 4.026116837468893e+00
2582 70 -1.000000000000000e+00
2582 92 -3.269429398173793e-02
2582 754 -2.390036656137210e-02
2582 2395 -1.000000000000000e+00
2582 2582 4.056594660543110e+00
2583 2319 -1.000000000000000e+00
2583 2324 -1.001737133324225e+00
2583 2583 2.001737133324225e+00
2584 1250 -1.852881506933530e-02
2584 1251 -2.376585229583254e-02
2584 1298 -1.015802333918229e+00
2584 1495 -1.000000000000000e+00
2584 1701 -2.081172177948189e-03
2584 1726 -4.233198633458544e-05
2584 1911 -1.578631786022901e-03
2584 2584 3.129588251724609e+00
2585 693 -1.000000000000000e+00
2585 896 -1.013968312408133e+00
2585 1716 -1.456447743765862e-02
2585 2585 2.028532789845792e+00
2586 22 -1.000000000000000e+00
2586 1285 -1.000000000000000e+00
2586 1337 -2.327184573496017e-02
2586 2418 -5.479941741248467e-03
2586 2586 2.028751787476208e+00
2587 522 -1.000000000000000e+00
2587 759 -1.012421880651201e+00
2587 855 -1.346918519359407e-02
2587 2587 5.028714813954704e+00
2588 626 -1.080444182833977e-02
2588 789 -1.000000000000000e+00
2588 1093 -1.429369988611730e-02
2588 1431 -2.558616708635076e-02
2588 1653 -1.000000000000000e+00
2588 2588 4.089035266428544e+00
2589 345 -1.000000000000000e+00
2589 520 -1.000000000000000e+00
2589 1686 -1.540051940380770e-02
2589 2589 2.024876795130919e+00
2590 618 -1.000000000000000e+00
2590 701 -1.324651755192198e-02
2590 1196 -1.751816144336560e-03
2590 1968 -1.000000000000000e+00
2590 1975 -1.587740635472158e-02
2590 2590 2.030875740050980e+00
2591 114 -1.000000000000000e+00
2591 1898 -1.001075906010964e+00
2591 2591 3.039089106305445e+00
2592 182 -1.000000000000000e+00
2592 225 -5.690566156368962e-03
2592 529 -1.000000000000000e+00
2592 1187 -1.437768435816101e-02
2592 2530 -1.862412685073668e-02
2592 2592 3.048683711000165e+00
2593 1997 -1.000000000000000e+00
2593 2250 -5.143172661735428e-03
2593 2262 -1.004254892676720e+00
2593 2593 3.012749875737967e+00
2594 382 -1.000000000000000e+00
2594 448 -1.000000000000000e+00
2594 598 -2.279443877592677e-02
2594 722 -1.000000000000000e+00
2594 2366 -1.000000000000000e+00
2594 2594 5.043343914641695e+00
2595 338 -1.000000000000000e+00
2595 1751 -2.847306155611222e-02
2595 2487 -1.000000000000000e+00
2595 2595 4.047793414105603e+00
2596 174 -1.000000000000000e+00
2596 175 -1.000000000000000e+00
2596 194 -4.007929643572565e-04
2596 515 -6.689694936303625e-03
2596 1425 -7.706299218318586e-03
2596 1766 -2.101926230853877e-03
2596 2596 4.048414828601613e+00
2597 558 -1.000000000000000e+00
2597 768 -2.006825643044611e-02
2597 807 -1.000357503134721e+00
2597 2597 2.020425759565168e+00
2598 147 -9.656288595946087e-03
2598 657 -1.000000000000000e+00
2598 2462 -1.875920594589668e-02
2598 2569 -1.000000000000000e+00
2598 2598 3.028415494541843e+00
2599 133 -1.000000000000000e+00
2599 205 -8.716630297593876e-03
2599 311 -1.000000000000000e+00
2599 696 -1.935004265962534e-02
2599 1525 -1.496887578080107e-02
2599 2128 -1.214007290207091e-02
2599 2599 2.090160458674559e+00
2600 2 -1.000000000000000e+00
2600 372 -1.001581527967937e+00
2600 1151 -9.224151031387354e-03
2600 1442 -6.137655270239083e-03
2600 2600 2.028954430549503e+00
2601 130 -1.000000000000000e+00
2601 618 -1.000000000000000e+00
2601 1196 -4.404056931535342e-03
2601 1975 -1.527965119063907e-02
2601 2601 2.019683708122174e+00
2602 682 -1.000000000000000e+00
2602 2016 -1.000000000000000e+00
2602 2374 -2.546786114636493e-02
2602 2602 3.067492859312324e+00
2603 102 -1.000000000000000e+00
2603 2241 -1.014415921977833e+00
2603 2419 -1.000000000000000e+00
2603 2476 -9.186608545190163e-03
2603 2603 3.040010596774698e+00
2604 19 -1.000000000000000e+00
2604 44 -1.013916244367255e+00
2604 66 -1.000000000000000e+00
2604 349 -7.286813357640292e-03
2604 1025 -1.739927845207790e-02
2604 1770 -1.340727493563141e-02
2604 1877 -1.628076560945332e-02
2604 2604 3.108273279067295e+00
2605 28 -1.000000000000000e+00
2605 423 -1.000000000000000e+00
2605 443 -1.000000000000000e+00
2605 2268 -9.656413313720026e-03
2605 2605 3.055317340013650e+00
2606 494 -1.757606080424400e-02
2606 663 -1.000000000000000e+00
2606 740 -2.367691267145127e-02
2606 2213 -1.000000000000000e+00
2606 2606 2.041252973475695e+00
2607 611 -1.000000000000000e+00
2607 1936 -1.005433671336090e+00
2607 2607 5.032947741672849e+00
2608 264 -1.000000000000000e+00
2608 1610 -1.000000000000000e+00
2608 2608 3.007847684838666e+00
2609 1 -1.702324520904742e-02
2609 108 -1.731789320725712e-02
2609 788 -1.918635953036085e-02
2609 917 -1.023748755936702e+00
2609 1044 -1.000000000000000e+00
2609 1293 -1.000000000000000e+00
2609 2609 3.197847379015907e+00
2610 16 -1.000000000000000e+00
2610 1194 -1.000000000000000e+00
2610 2610 4.033051990902354e+00
2611 27 -1.000000000000000e+00
2611 2055 -1.000000000000000e+00
2611 2611 6.017830507519608e+00
2612 373 -1.000000000000000e+00
2612 2093 -1.000000000000000e+00
2612 2612 2.050801668606173e+00
2613 318 -1.000000000000000e+00
2613 385 -1.000000000000000e+00
2613 1170 -1.509551312578775e-02
2613 2613 3.028938854181202e+00
2614 2 -1.000000000000000e+00
2614 478 -2.617175185087595e-02
2614 1176 -2.739207277493172e-02
2614 2059 -1.000000000000000e+00
2614 2614 4.078055725982773e+00
2615 195 -1.000000000000000e+00
2615 921 -1.000000000000000e+00
2615 1847 -1.609332139110013e-02
2615 2615 2.033200455773903e+00
2616 2 -1.000000000000000e+00
2616 172 -1.736369953738343e-02
2616 2108 -1.000000000000000e+00
2616 2157 -1.750798842498887e-02
2616 2616 3.034871687962372e+00
2617 577 -1.000000000000000e+00
2617 689 -2.101573094458640e-02
2617 1672 -1.785064597339838e-02
2617 1830 -1.000000000000000e+00
2617 2117 -1.504585704108530e-02
2617 2617 2.102698519452481e+00
2618 427 -1.000000000000000e+00
2618 736 -1.000000000000000e+00
2618 1548 -3.816485510844482e-03
2618 2618 4.009628631921927e+00
2619 306 -1.000000000000000e+00
2619 2320 -1.000000000000000e+00
2619 2322 -1.000000000000000e+00
2619 2619 5.008248116055472e+00
2620 470 -1.000000000000000e+00
2620 601 -1.000000000000000e+00
2620 2620 3.000000000000000e+00
2621 168 -1.000000000000000e+00
2621 1472 -1.000000000000000e+00
2621 2621 3.000000000000000e+00
2622 546 -1.000000000000000e+00
2622 664 -1.000000000000000e+00
2622 1304 -9.631493932394051e-03
2622 1789 -4.166592185257614e-03
2622 2494 -5.043685502062170e-03
2622 2622 3.035801326758151e+00
2623 3 -1.000000000000000e+00
2623 167 -1.302869877070850e-03
2623 223 -1.000000000000000e+00
2623 523 -1.125398881489261e-03
2623 952 -2.732642853935274e-02
2623 1512 -8.833477076971220e-03
2623 2623 4.060603865665437e+00
2624 254 -1.819786598961057e-02
2624 782 -1.000000000000000e+00
2624 1085 -1.000000000000000e+00
2624 2220 -1.939380484283443e-02
2624 2624 4.088613955714063e+00
2625 76 -1.000000000000000e+00
2625 961 -1.000000000000000e+00
2625 2117 -8.341524804345291e-03
2625 2625 4.018825763536100e+00
2626 431 -1.000000000000000e+00
2626 849 -1.000000000000000e+00
2626 2626 5.043464530112178e+00
2627 1482 -1.000000000000000e+00
2627 1592 -1.000000000000000e+00
2627 2627 3.019947840545374e+00
2628 601 -1.000000000000000e+00
2628 1926 -1.000000000000000e+00
2628 2628 3.000000000000000e+00
2629 3 -1.000000000000000e+00
2629 21 -1.011428069502393e+00
2629 2629 3.041849505380257e+00
2630 425 -1.000000000000000e+00
2630 507 -1.107816576839312e-02
2630 861 -1.000000000000000e+00
2630 2556 -2.627963650625425e-03
2630 2630 2.013706129419019e+00
2631 657 -1.000000000000000e+00
2631 2138 -1.000000000000000e+00
2631 2631 4.011425132347004e+00
2632 326 -1.000000000000000e+00
2632 1081 -1.000000000000000e+00
2632 2632 2.022487495219603e+00
2633 1074 -1.000000000000000e+00
2633 2232 -1.000000000000000e+00
2633 2633 9.013349189906267e+00
2634 66 -1.000000000000000e+00
2634 853 -1.001066680198268e+00
2634 2634 2.002808448269774e+00
2635 1379 -2.061870961014106e-02
2635 1447 -1.464671206405278e-02
2635 1453 -1.000000000000000e+00
2635 1545 -1.000000000000000e+00
2635 2133 -1.063768129902169e-02
2635 2535 -1.902598903810992e-02
2635 2635 2.158565447600249e+00
2636 2 -1.000000000000000e+00
2636 113 -1.000000000000000e+00
2636 2446 -1.464501196391427e-04
2636 2558 -1.085531717168336e-02
2636 2636 3.011001767291322e+00
2637 321 -1.000000000000000e+00
2637 926 -1.000000000000000e+00
2637 2572 -1.083077141791978e-02
2637 2637 3.034172347571024e+00
2638 146 -1.000000000000000e+00
2638 1008 -1.000000000000000e+00
2638 2638 3.000000000000000e+00
2639 141 -1.000000000000000e+00
2639 915 -1.001996118300670e+00
2639 1587 -1.462670170989449e-03
2639 2639 2.003458788471659e+00
2640 527 -1.000000000000000e+00
2640 1016 -1.000000000000000e+00
2640 2053 -1.590423116179217e-02
2640 2640 2.027832367781737e+00
2641 545 -1.013893186544806e+00
2641 847 -1.000000000000000e+00
2641 2641 2.032214177453116e+00
2642 497 -1.000000000000000e+00
2642 1977 -1.000000000000000e+00
2642 2477 -1.000000000000000e+00
2642 2642 5.043286148532210e+00
2643 27 -1.000000000000000e+00
2643 203 -2.925543815714452e-02
2643 255 -2.500044649081059e-02
2643 402 -2.418163360828284e-02
2643 1010 -2.258482114080180e-02
2643 1621 -7.245406935825423e-03
2643 2058 -1.000000000000000e+00
2643 2643 2.108267746332865e+00
2644 116 -1.644726288705313e-03
2644 150 -1.000000000000000e+00
2644 475 -4.285765842601464e-03
2644 846 -3.369905452880323e-03
2644 985 -3.972278796725077e-03
2644 1804 -1.000000000000000e+00
2644 2644 3.013272676380912e+00
2645 103 -1.000000000000000e+00
2645 679 -1.000000000000000e+00
2645 2250 -1.883264664852596e-02
2645 2645 3.026120676487560e+00
2646 318 -1.000000000000000e+00
2646 828 -1.349253206067733e-02
2646 924 -1.845941450392283e-02
2646 2110 -1.000000000000000e+00
2646 2646 3.065414832106468e+00
2647 598 -2.043767061359762e-02
2647 722 -1.000000000000000e+00
2647 2278 -3.226292531794510e-02
2647 2638 -1.000000000000000e+00
2647 2647 3.068327793067045e+00
2648 7 -1.000000000000000e+00
2648 240 -1.000000000000000e+00
2648 869 -2.064908869077778e-02
2648 2283 -1.555068647304353e-02
2648 2648 6.036199775163821e+00
2649 647 -1.000000000000000e+00
2649 768 -1.000000000000000e+00
2649 807 -5.911712222630159e-03
2649 2649 2.040763580781270e+00
2650 666 -1.233338805875947e-02
2650 1486 -1.000000000000000e+00
2650 2468 -1.000000000000000e+00
2650 2650 2.024309397413263e+00
2651 487 -1.000000000000000e+00
2651 659 -1.000000000000000e+00
2651 1852 -1.332034049550700e-02
2651 2000 -7.935403647430533e-03
2651 2651 2.021255744142938e+00
2652 1252 -1.000000000000000e+00
2652 1355 -1.000000000000000e+00
2652 2458 -1.000000000000000e+00
2652 2652 4.036745463395230e+00
2653 33 -1.000000000000000e+00
2653 893 -1.000000000000000e+00
2653 2314 -8.069961108873541e-03
2653 2653 3.023696582893260e+00
2654 1734 -1.010107702546694e+00
2654 1889 -1.000000000000000e+00
2654 2054 -2.425436890116916e-02
2654 2654 2.045507231022792e+00
2655 179 -1.000000000000000e+00
2655 447 -1.996637485181581e-02
2655 1895 -1.307026772954408e-02
2655 2128 -7.029537424948034e-03
2655 2422 -1.000000000000000e+00
2655 2655 2.052451243804104e+00
2656 332 -1.398757941961686e-02
2656 560 -1.000000000000000e+00
2656 1889 -1.000000000000000e+00
2656 1964 -9.310636819281042e-04
2656 2656 3.023230460455708e+00
2657 94 -1.000000000000000e+00
2657 182 -1.016711980604393e+00
2657 225 -1.185830452032701e-02
2657 529 -1.899386330402016e-02
2657 781 -1.048917492543593e-02
2657 1110 -3.285412176319741e-03
2657 1559 -5.357957785825047e-03
2657 2567 -8.461808479167332e-03
2657 2657 2.118149744315863e+00
2658 8 -1.000000000000000e+00
2658 179 -1.000000000000000e+00
2658 2634 -1.741768071505522e-03
2658 2658 4.025591984042637e+00
2659 17 -1.000000000000000e+00
2659 526 -1.000000000000000e+00
2659 636 -1.386189086512755e-02
2659 1033 -2.551160681219045e-03
2659 1854 -3.504876126213338e-03
2659 2659 3.019917927672560e+00
2660 174 -1.000000000000000e+00
2660 662 -1.000000000000000e+00
2660 851 -1.000000000000000e+00
2660 1296 -8.508855158274122e-03
2660 2366 -6.486156559290552e-03
2660 2660 3.026179543041908e+00
2661 554 -1.000000000000000e+00
2661 2110 -2.127020208917877e-02
2661 2581 -1.000000000000000e+00
2661 2661 3.036439258661711e+00
2662 163 -1.000000000000000e+00
2662 2102 -1.000000000000000e+00
2662 2662 3.000000000000000e+00
2663 604 -1.000000000000000e+00
2663 1047 -8.259661635679176e-04
2663 1084 -1.000000000000000e+00
2663 2663 4.009748012094776e+00
2664 12 -1.000000000000000e+00
2664 112 -2.402088967090485e-02
2664 246 -1.000000000000000e+00
2664 2664 4.039290759999338e+00
2665 232 -1.000000000000000e+00
2665 1060 -1.000000000000000e+00
2665 1330 -1.993057285704439e-02
2665 2665 2.039704003245557e+00
2666 1663 -1.000000000000000e+00
2666 1871 -1.426518092864113e-02
2666 1966 -1.000000000000000e+00
2666 2301 -2.162592605737762e-02
2666 2666 2.035891106986019e+00
2667 2311 -1.000000000000000e+00
2667 2457 -1.000000000000000e+00
2667 2667 3.021039392118995e+00
2668 2 -1.000000000000000e+00
2668 219 -1.445023038611951e-02
2668 2614 -1.024491901356965e+00
2668 2668 2.038942131743084e+00
2669 2 -1.000000000000000e+00
2669 661 -1.000000000000000e+00
2669 1654 -2.030411337711628e-02
2669 2418 -1.428231207633923e-02
2669 2669 3.101437885042617e+00
2670 25 -1.000000000000000e+00
2670 123 -1.000000000000000e+00
2670 520 -6.070121510696817e-03
2670 1842 -1.000000000000000e+00
2670 2670 3.021694730544647e+00
2671 1356 -1.000000000000000e+00
2671 1933 -1.000000000000000e+00
2671 2609 -1.828942120738359e-02
2671 2671 3.041953075284679e+00
2672 130 -1.953078348280171e-04
2672 502 -1.263295296863840e-02
2672 618 -1.020686215534207e-02
2672 701 -1.000000000000000e+00
2672 1196 -1.867166447067726e-03
2672 1975 -1.000000000000000e+00
2672 2672 3.046220407964205e+00
2673 218 -5.414078264605045e-03
2673 901 -1.000000000000000e+00
2673 1685 -1.000000000000000e+00
2673 2673 3.027718874886838e+00
2674 2 -1.000000000000000e+00
2674 587 -1.000000000000000e+00
2674 2674 4.036938977109068e+00
2675 747 -1.000000000000000e+00
2675 888 -1.000000000000000e+00
2675 2389 -1.000000000000000e+00
2675 2675 4.039179553415005e+00
2676 1302 -1.000000000000000e+00
2676 2555 -1.000000000000000e+00
2676 2676 4.043536922334535e+00
2677 414 -1.000000000000000e+00
2677 689 -1.000000000000000e+00
2677 2340 -3.574530328221225e-02
2677 2677 4.054336152360101e+00
2678 1101 -1.000000000000000e+00
2678 1406 -1.000000000000000e+00
2678 2678 3.009059208673595e+00
2679 1294 -1.000000000000000e+00
2679 1331 -1.000000000000000e+00
2679 1410 -3.851931144252394e-03
2679 2377 -9.661588063797327e-03
2679 2679 4.013513519208050e+00
2680 144 -1.000000000000000e+00
2680 201 -1.274904795671953e-02
2680 284 -1.000000000000000e+00
2680 935 -1.888189863234160e-02
2680 1896 -1.332472913681328e-02
2680 2680 2.106914380250387e+00
2681 1 -1.000000000000000e+00
2681 118 -1.879954402073711e-02
2681 1506 -8.412560445461474e-03
2681 1581 -1.000000000000000e+00
2681 2681 2.027212104466198e+00
2682 39 -1.639467521466150e-03
2682 160 -1.200125435781490e-02
2682 447 -1.000000000000000e+00
2682 544 -1.000000000000000e+00
2682 2682 2.013640721879281e+00
2683 70 -1.000000000000000e+00
2683 568 -2.951985556203897e-02
2683 831 -1.000000000000000e+00
2683 1860 -1.258471576284360e-02
2683 2683 2.076377565878018e+00
2684 850 -1.000000000000000e+00
2684 2068 -1.000000000000000e+00
2684 2684 3.022979432157540e+00
2685 615 -1.000000000000000e+00
2685 662 -1.000000000000000e+00
2685 2685 3.000000000000000e+00
2686 26 -1.000000000000000e+00
2686 41 -1.000000000000000e+00
2686 2686 3.000000000000000e+00
2687 22 -1.000000000000000e+00
2687 729 -1.000000000000000e+00
2687 1739 -1.807079110731700e-02
2687 1897 -1.000000000000000e+00
2687 2687 4.038820106784765e+00
2688 1940 -1.000000000000000e+00
2688 2459 -1.020979264572438e+00
2688 2688 4.028339321337058e+00
2689 162 -1.000000000000000e+00
2689 1287 -1.274339253904111e-02
2689 2179 -1.000000000000000e+00
2689 2689 2.021768377131993e+00
2690 122 -1.000000000000000e+00
2690 175 -1.796854325826229e-02
2690 2064 -1.000000000000000e+00
2690 2690 5.052983399603655e+00
2691 384 -1.000000000000000e+00
2691 1349 -1.169625024134648e-02
2691 1745 -1.000000000000000e+00
2691 2691 6.071608232425508e+00
2692 536 -1.008858228464763e+00
2692 2474 -1.000000000000000e+00
2692 2692 3.012444675867511e+00
2693 7 -1.000000000000000e+00
2693 2211 -1.000000000000000e+00
2693 2693 7.016547418529770e+00
2694 814 -1.000000000000000e+00
2694 972 -1.204209341418814e-02
2694 2102 -1.000000000000000e+00
2694 2694 2.020962574150604e+00
2695 189 -1.000000000000000e+00
2695 1185 -1.020826192761966e+00
2695 2695 2.042413720492401e+00
2696 132 -1.000000000000000e+00
2696 180 -1.000000000000000e+00
2696 2696 3.000000000000000e+00
2697 278 -1.000000000000000e+00
2697 937 -1.000000000000000e+00
2697 2697 4.053563646820775e+00
2698 942 -1.000000000000000e+00
2698 1087 -1.724644750733820e-02
2698 1247 -1.223127345653054e-02
2698 1977 -1.017155071833938e+00
2698 2698 2.056154811360369e+00
2699 1074 -1.417552445622862e-02
2699 1438 -1.000000000000000e+00
2699 1564 -1.000000000000000e+00
2699 1940 -1.087633932839778e-02
2699 1973 -6.638963528524138e-03
2699 2113 -2.252646538502973e-03
2699 2187 -9.609175223797829e-03
2699 2206 -1.189047423629689e-02
2699 2373 -8.640270643423559e-03
2699 2699 2.163756107766656e+00
2700 2362 -1.000000000000000e+00
2700 2415 -1.000000000000000e+00
2700 2700 3.000000000000000e+00
2701 50 -1.000000000000000e+00
2701 1462 -2.659357786558628e-02
2701 1745 -1.000000000000000e+00
2701 2355 -1.999369438828257e-02
2701 2452 -2.288675134463028e-02
2701 2701 4.069474023598499e+00
2702 16 -1.000000000000000e+00
2702 1045 -1.000000000000000e+00
2702 1323 -1.872336750324005e-02
2702 2702 3.045162185080628e+00
2703 632 -1.000000000000000e+00
2703 853 -1.045443486034681e+00
2703 2658 -1.394556273838239e-02
2703 2703 3.066404747453796e+00
2704 179 -1.000000000000000e+00
2704 336 -1.000000000000000e+00
2704 1740 -2.211432472672108e-02
2704 2414 -2.867876103521982e-02
2704 2704 2.067879620228257e+00
2705 479 -2.506836488032060e-02
2705 977 -1.000000000000000e+00
2705 2453 -1.000000000000000e+00
2705 2705 3.032403640015520e+00
2706 673 -1.859337147143413e-02
2706 1058 -1.000000000000000e+00
2706 1676 -1.000000000000000e+00
2706 2706 4.045905480629780e+00
2707 6 -1.000000000000000e+00
2707 116 -1.000000000000000e+00
2707 846 -6.045908693481284e-04
2707 1804 -2.238394536115096e-03
2707 2707 3.002842985405463e+00
2708 30 -1.000000000000000e+00
2708 1109 -1.000000000000000e+00
2708 1238 -1.000000000000000e+00
2708 2708 3.044295450168014e+00
2709 46 -1.000000000000000e+00
2709 485 -1.000000000000000e+00
2709 2709 3.004581162674206e+00
2710 7 -1.000000000000000e+00
2710 2131 -1.000000000000000e+00
2710 2710 2.047164068578978e+00
2711 141 -1.000000000000000e+00
2711 850 -1.000000000000000e+00
2711 2711 2.041948065508296e+00
2712 174 -1.000000000000000e+00
2712 1296 -1.000000000000000e+00
2712 2660 -4.143986637179069e-03
2712 2712 2.009856068884715e+00
2713 468 -2.078130693388121e-04
2713 666 -5.773820158674551e-03
2713 1486 -1.000000000000000e+00
2713 1677 -1.000000000000000e+00
2713 2488 -5.117401366759615e-03
2713 2650 -1.197600935450407e-02
2713 2713 2.060483209209341e+00
2714 199 -7.237082662194751e-03
2714 439 -1.000000000000000e+00
2714 636 -1.000000000000000e+00
2714 1033 -1.106969501456854e-02
2714 2714 3.077637468437087e+00
2715 238 -1.000000000000000e+00
2715 1024 -1.000000000000000e+00
2715 2671 -1.000000000000000e+00
2715 2715 4.042071958159960e+00
2716 569 -1.674728803280657e-02
2716 1041 -1.000000000000000e+00
2716 2014 -1.548909011450785e-02
2716 2400 -1.000000000000000e+00
2716 2716 4.072763643708417e+00
2717 69 -1.000000000000000e+00
2717 2198 -1.000000000000000e+00
2717 2443 -1.005005096352052e-02
2717 2717 2.053758798048094e+00
2718 1737 -1.000000000000000e+00
2718 2176 -1.000000000000000e+00
2718 2315 -1.000000000000000e+00
2718 2718 7.027171960319436e+00
2719 21 -1.000000000000000e+00
2719 1500 -1.000000000000000e+00
2719 2719 2.050818563626728e+00
2720 1131 -1.000000000000000e+00
2720 1630 -1.000000000000000e+00
2720 2720 5.037815849050742e+00
2721 333 -1.000000000000000e+00
2721 1695 -1.002644300371329e+00
2721 2721 3.003367388097881e+00
2722 292 -2.150815250124155e-02
2722 308 -1.296871482914195e-02
2722 368 -1.009792703965356e+00
2722 1357 -9.991366383144374e-03
2722 2286 -1.000000000000000e+00
2722 2722 2.140903104616210e+00
2723 314 -1.000000000000000e+00
2723 617 -1.000000000000000e+00
2723 1029 -1.000000000000000e+00
2723 1272 -1.000000000000000e+00
2723 2723 4.073536528800181e+00
2724 285 -4.886652316363714e-03
2724 552 -1.000000000000000e+00
2724 819 -1.000000000000000e+00
2724 1032 -5.468456324302634e-03
2724 2724 2.031376536099208e+00
2725 559 -1.000000000000000e+00
2725 2275 -1.015989027775586e+00
2725 2725 3.018427086951052e+00
2726 661 -1.000000000000000e+00
2726 1053 -1.000000000000000e+00
2726 1164 -6.872244592593856e-03
2726 2726 2.010675312159661e+00
2727 69 -1.113595672614481e-02
2727 86 -1.000000000000000e+00
2727 113 -1.000000000000000e+00
2727 2727 5.020941332746824e+00
2728 568 -1.000000000000000e+00
2728 1633 -1.000045637983043e+00
2728 2728 3.033852335220742e+00
2729 169 -1.000000000000000e+00
2729 490 -1.000000000000000e+00
2729 632 -1.000000000000000e+00
2729 1113 -1.947021965965973e-02
2729 2729 4.044725563710180e+00
2730 896 -1.000000000000000e+00
2730 1309 -1.000000000000000e+00
2730 2137 -2.507199545808812e-02
2730 2730 3.027121610707980e+00
2731 151 -9.483630861144387e-03
2731 413 -1.000000000000000e+00
2731 584 -2.138512529638573e-02
2731 665 -1.000000000000000e+00
2731 756 -2.578120541256058e-02
2731 2045 -1.925086139526932e-02
2731 2731 2.075900822965360e+00
2732 293 -1.000000000000000e+00
2732 600 -1.230313551542500e-02
2732 729 -1.000000000000000e+00
2732 2732 2.030574187054198e+00
2733 538 -1.010504208116069e+00
2733 1343 -2.411645190082372e-02
2733 1643 -1.000000000000000e+00
2733 2100 -1.000000000000000e+00
2733 2733 4.046618105022867e+00
2734 792 -1.057826945997368e-02
2734 845 -1.389224223589492e-02
2734 921 -1.000000000000000e+00
2734 1951 -1.000000000000000e+00
2734 2734 2.045348970755487e+00
2735 210 -1.000000000000000e+00
2735 253 -1.000000000000000e+00
2735 2735 3.009412144995423e+00
2736 1596 -1.000000000000000e+00
2736 1936 -2.460046394718837e-03
2736 2607 -1.012336829140722e+00
2736 2736 2.014796875535441e+00
2737 24 -1.000000000000000e+00
2737 87 -1.000000000000000e+00
2737 564 -3.393474687051700e-02
2737 2002 -1.393875535767054e-02
2737 2737 3.059132379628994e+00
2738 12 -1.000000000000000e+00
2738 246 -2.887514799831400e-02
2738 1934 -1.000000000000000e+00
2738 2037 -1.326235855749634e-02
2738 2738 3.057588057424063e+00
2739 195 -1.000000000000000e+00
2739 1779 -1.505060142088818e-02
2739 1786 -5.624791473701606e-03
2739 2461 -1.000000000000000e+00
2739 2739 2.096410260686583e+00
2740 20 -1.000000000000000e+00
2740 76 -1.000000000000000e+00
2740 238 -1.426560592511436e-02
2740 1672 -1.000000000000000e+00
2740 2740 3.028847265398616e+00
2741 470 -1.000000000000000e+00
2741 745 -2.792484881543079e-02
2741 1080 -1.000000000000000e+00
2741 2567 -1.987884851674947e-02
2741 2741 3.047803697332180e+00
2742 330 -1.000000000000000e+00
2742 1521 -1.000000000000000e+00
2742 2015 -9.706639096209831e-03
2742 2742 2.018601015581275e+00
2743 157 -1.000000000000000e+00
2743 2497 -1.019537959238175e+00
2743 2743 2.032885265563475e+00
2744 33 -1.000000000000000e+00
2744 229 -1.000000000000000e+00
2744 1444 -2.838873936294810e-02
2744 1543 -1.833644555638064e-02
2744 2744 3.046725184919329e+00
2745 676 -1.223139147280704e-02
2745 2517 -1.000000000000000e+00
2745 2690 -1.000000000000000e+00
2745 2745 4.040953316093355e+00
2746 13 -1.000000000000000e+00
2746 615 -1.000000000000000e+00
2746 2746 5.052081119039440e+00
2747 16 -1.000000000000000e+00
2747 981 -2.949803615797246e-04
2747 1066 -1.000000000000000e+00
2747 1171 -5.238490763975928e-04
2747 2747 4.017610138893517e+00
2748 720 -1.000000000000000e+00
2748 900 -1.250110677608267e-02
2748 1561 -4.780255189901109e-03
2748 1748 -1.038344075123911e-02
2748 2117 -3.678898231503453e-03
2748 2625 -1.000000000000000e+00
2748 2748 2.076426295669764e+00
2749 57 -1.000000000000000e+00
2749 1281 -1.000000000000000e+00
2749 1829 -8.236781725516321e-03
2749 2027 -1.000000000000000e+00
2749 2749 3.023940317145145e+00
2750 46 -1.000000000000000e+00
2750 65 -1.000000000000000e+00
2750 524 -1.961392867607374e-03
2750 1568 -2.062077472081022e-03
2750 2245 -1.602165526227509e-02
2750 2750 4.021063912001620e+00
2751 699 -1.000000000000000e+00
2751 2693 -1.000000000000000e+00
2751 2751 3.035396883809449e+00
2752 83 -1.000000000000000e+00
2752 800 -1.000000000000000e+00
2752 2642 -2.089269070807407e-02
2752 2752 5.055127351359181e+00
2753 140 -1.000000000000000e+00
2753 314 -2.533517352017137e-02
2753 2091 -2.414478342527630e-02
2753 2458 -1.000000000000000e+00
2753 2753 2.078097478064052e+00
2754 283 -1.000000000000000e+00
2754 2115 -1.000000000000000e+00
2754 2168 -3.817056217103196e-02
2754 2697 -1.801340289588856e-02
2754 2754 3.056183965066920e+00
2755 656 -1.000000000000000e+00
2755 951 -1.000000000000000e+00
2755 2522 -1.000000000000000e+00
2755 2755 4.000000000000000e+00
2756 49 -1.000000000000000e+00
2756 150 -1.000000000000000e+00
2756 484 -7.004833439427673e-03
2756 2756 2.108182590644427e+00
2757 112 -1.000000000000000e+00
2757 982 -1.000000000000000e+00
2757 2757 3.000000000000000e+00
2758 1 -1.000000000000000e+00
2758 1342 -3.527070973432349e-03
2758 2685 -1.000000000000000e+00
2758 2758 5.027062839563428e+00
2759 358 -1.000000000000000e+00
2759 647 -1.007991791265403e+00
2759 807 -9.734841685234851e-03
2759 2649 -9.124915886422618e-03
2759 2759 2.048327429308316e+00
2760 359 -1.568154104690511e-02
2760 549 -1.000000000000000e+00
2760 923 -1.000000000000000e+00
2760 1755 -1.059575779071732e-02
2760 2760 2.026277298837623e+00
2761 1134 -1.000000000000000e+00
2761 2745 -1.000000000000000e+00
2761 2761 2.029847139899994e+00
2762 1188 -2.316562314944401e-02
2762 1621 -1.000000000000000e+00
2762 1663 -1.000000000000000e+00
2762 1871 -1.379917108261165e-02
2762 2762 2.036964794232055e+00
2763 663 -1.004151190729675e+00
2763 2403 -1.000000000000000e+00
2763 2763 2.029019598027381e+00
2764 65 -1.000000000000000e+00
2764 382 -1.987495041058252e-03
2764 1823 -7.768658450234571e-03
2764 2123 -1.000000000000000e+00
2764 2764 2.009756153491293e+00
2765 44 -1.000000000000000e+00
2765 334 -1.000000000000000e+00
2765 674 -1.711783026308385e-02
2765 1618 -1.068041013514121e-02
2765 1648 -7.640531150431138e-03
2765 2765 4.035438771548656e+00
2766 13 -1.000000000000000e+00
2766 486 -8.165159828535959e-03
2766 547 -9.280632698231718e-03
2766 1271 -1.000588302850402e+00
2766 2136 -1.183477773685429e-02
2766 2766 2.039794297734505e+00
2767 347 -2.143653173153083e-02
2767 819 -1.000000000000000e+00
2767 2390 -1.000000000000000e+00
2767 2767 2.033799754604758e+00
2768 16 -1.000000000000000e+00
2768 723 -1.577616113587691e-02
2768 1428 -1.000000000000000e+00
2768 2768 4.036548345205230e+00
2769 929 -1.000000000000000e+00
2769 1044 -2.980354186209234e-02
2769 1135 -1.000000000000000e+00
2769 2296 -3.085843396198808e-02
2769 2769 5.079535683572032e+00
2770 799 -1.000000000000000e+00
2770 1389 -2.119637719936021e-03
2770 2486 -1.000000000000000e+00
2770 2770 2.017605709655840e+00
2771 1657 -1.000000000000000e+00
2771 1865 -1.006903640846128e+00
2771 2771 2.024581069166882e+00
2772 17 -1.000000000000000e+00
2772 2357 -1.000000000000000e+00
2772 2772 2.015339358157544e+00
2773 719 -1.000000000000000e+00
2773 744 -1.000000000000000e+00
2773 1072 -1.915494782393387e-02
2773 2773 2.028181233631257e+00
2774 199 -7.631347518786341e-04
2774 1670 -1.000000000000000e+00
2774 2076 -1.000000000000000e+00
2774 2774 4.017003697765312e+00
2775 17 -1.000000000000000e+00
2775 297 -1.000000000000000e+00
2775 2112 -2.065057320459110e-02
2775 2775 3.045319831053789e+00
2776 12 -1.000000000000000e+00
2776 2063 -1.000000000000000e+00
2776 2637 -2.334157615310449e-02
2776 2776 2.040821454587659e+00
2777 612 -1.000000000000000e+00
2777 1395 -1.000000000000000e+00
2777 2777 3.019249327004128e+00
2778 148 -1.000000000000000e+00
2778 977 -1.000000000000000e+00
2778 2778 3.025636178202839e+00
2779 154 -1.000000000000000e+00
2779 1058 -1.000000000000000e+00
2779 2779 3.000000000000000e+00
2780 1027 -1.000000000000000e+00
2780 2357 -1.002220859021828e+00
2780 2780 3.015890929534029e+00
2781 1440 -2.096113491254465e-02
2781 1547 -1.000000000000000e+00
2781 1723 -1.000000000000000e+00
2781 1816 -1.000000000000000e+00
2781 2781 5.033098585063899e+00
2782 817 -1.798878600917413e-02
2782 1514 -1.610512998344202e-02
2782 1983 -1.000000000000000e+00
2782 2309 -1.000000000000000e+00
2782 2782 3.034093915992616e+00
2783 4 -1.000000000000000e+00
2783 643 -1.004649668015277e+00
2783 2783 2.011576179689690e+00
2784 2 -1.000000000000000e+00
2784 674 -1.012227331182798e+00
2784 1618 -9.594118922162812e-03
2784 2765 -1.000000000000000e+00
2784 2784 4.021821450104961e+00
2785 5 -1.000000000000000e+00
2785 225 -2.189992104094380e-03
2785 2406 -1.000000000000000e+00
2785 2530 -2.135770994469808e-02
2785 2785 2.023547702048793e+00
2786 17 -1.000000000000000e+00
2786 29 -4.550957011951133e-03
2786 164 -1.000000000000000e+00
2786 1334 -3.427632760537611e-02
2786 2786 6.038827284617327e+00
2787 66 -1.006063084875775e+00
2787 279 -1.000000000000000e+00
2787 1198 -7.492014890814098e-03
2787 1611 -6.599220815824871e-03
2787 2600 -3.475410546062927e-03
2787 2787 3.039709784651013e+00
2788 147 -1.000000000000000e+00
2788 176 -5.053244250735701e-03
2788 1102 -1.000000000000000e+00
2788 1642 -6.354436750093341e-03
2788 2569 -1.000000000000000e+00
2788 2788 3.035090605027238e+00
2789 179 -2.251965991095679e-02
2789 352 -7.914214902724400e-03
2789 905 -1.000000000000000e+00
2789 2775 -1.000000000000000e+00
2789 2789 2.030433874813681e+00
2790 90 -1.000000000000000e+00
2790 896 -3.449034969386845e-03
2790 944 -1.000000000000000e+00
2790 1757 -8.777748033536479e-03
2790 2790 4.012226783002923e+00
2791 423 -1.000000000000000e+00
2791 563 -2.786987969933542e-03
2791 1134 -1.000000000000000e+00
2791 2299 -8.269182196963815e-03
2791 2791 2.011056170166897e+00
2792 246 -1.000000000000000e+00
2792 366 -8.778386100810751e-03
2792 2118 -1.000000000000000e+00
2792 2792 2.022679139621376e+00
2793 42 -1.000000000000000e+00
2793 569 -1.938041180400538e-02
2793 1081 -1.000000000000000e+00
2793 2793 3.043256401706870e+00
2794 1019 -1.000000000000000e+00
2794 1179 -1.000000000000000e+00
2794 2794 3.007553682411406e+00
2795 383 -1.000000000000000e+00
2795 715 -1.000000000000000e+00
2795 1368 -1.019714135557254e-02
2795 1465 -2.494820732863552e-03
2795 2795 3.012691962088436e+00
2796 1169 -2.168753812489567e-02
2796 1256 -2.056860192587923e-02
2796 1403 -1.000000000000000e+00
2796 1663 -1.000000000000000e+00
2796 2796 2.042256140050775e+00
2797 215 -1.000000000000000e+00
2797 817 -8.653150439342925e-03
2797 1040 -1.000000000000000e+00
2797 1531 -3.867035261078886e-03
2797 2797 2.012520185700422e+00
2798 297 -1.000000000000000e+00
2798 1954 -1.000000000000000e+00
2798 2798 3.010076606644208e+00
2799 2 -1.000000000000000e+00
2799 1288 -1.000000000000000e+00
2799 2110 -8.357680691930032e-03
2799 2799 2.025283582357135e+00
2800 1 -1.000000000000000e+00
2800 2352 -1.000000000000000e+00
2800 2800 3.002309480868897e+00
2801 663 -1.000000000000000e+00
2801 751 -1.000000000000000e+00
2801 2801 3.001566768283346e+00
2802 663 -1.000000000000000e+00
2802 745 -1.622565728204976e-02
2802 781 -1.000000000000000e+00
2802 1539 -1.000000000000000e+00
2802 1839 -2.414873491740103e-02
2802 2657 -2.963217838290480e-02
2802 2802 5.070006570582356e+00
2803 820 -1.000000000000000e+00
2803 1970 -1.497468748324926e-02
2803 2046 -1.000000000000000e+00
2803 2803 2.030668096166146e+00
2804 551 -1.000000000000000e+00
2804 964 -1.000000000000000e+00
2804 2005 -8.790552866568628e-03
2804 2626 -1.552984748274263e-02
2804 2804 4.037014804655661e+00
2805 849 -1.000000000000000e+00
2805 955 -1.000000000000000e+00
2805 2081 -1.156164145553078e-02
2805 2440 -9.614750116604334e-03
2805 2805 3.021176391572135e+00
2806 833 -1.000000000000000e+00
2806 941 -1.000000000000000e+00
2806 2752 -1.941397606328724e-02
2806 2806 3.019882295166372e+00
2807 1025 -1.000000000000000e+00
2807 2400 -7.230307358343685e-03
2807 2536 -1.000000000000000e+00
2807 2807 3.023986316444792e+00
2808 641 -1.000000000000000e+00
2808 731 -1.735512964131802e-02
2808 1404 -1.000000000000000e+00
2808 2808 2.030554240105487e+00
2809 113 -1.000000000000000e+00
2809 439 -1.000000000000000e+00
2809 641 -1.736690376763680e-02
2809 752 -1.569230610830253e-02
2809 1537 -3.199785385151063e-02
2809 2610 -2.037815855913518e-02
2809 2809 4.135663351857406e+00
2810 63 -1.000000000000000e+00
2810 1865 -1.000000000000000e+00
2810 2718 -5.627898858855172e-03
2810 2810 6.046772065919700e+00
2811 1630 -1.009142510397455e+00
2811 2020 -1.000000000000000e+00
2811 2720 -1.797544470072891e-02
2811 2811 3.046719773586818e+00
2812 1 -1.000000000000000e+00
2812 27 -1.000000000000000e+00
2812 256 -2.964740234986668e-02
2812 2812 4.043490600040680e+00
2813 2 -1.000000000000000e+00
2813 373 -2.482477936513981e-02
2813 2220 -1.000000000000000e+00
2813 2418 -9.531847100057782e-04
2813 2813 2.025777964075146e+00
2814 616 -1.000000000000000e+00
2814 1745 -1.000000000000000e+00
2814 2814 4.000000000000000e+00
2815 7 -1.000000000000000e+00
2815 117 -3.360297882148281e-02
2815 943 -2.121648134886113e-02
2815 1294 -1.000000000000000e+00
2815 2815 2.073810530931878e+00
2816 1795 -1.000000000000000e+00
2816 2019 -1.000000000000000e+00
2816 2513 -2.403929546427440e-02
2816 2816 2.075416809472257e+00
2817 304 -1.000000000000000e+00
2817 1952 -1.000000000000000e+00
2817 2817 3.039557294497409e+00
2818 722 -1.000000000000000e+00
2818 2096 -1.019640108157636e+00
2818 2818 2.031925532398553e+00
2819 929 -1.623195867793924e-02
2819 1150 -1.000000000000000e+00
2819 1632 -1.000000000000000e+00
2819 2297 -1.329071665973051e-02
2819 2819 5.029522675337669e+00
2820 96 -1.266228927563271e-02
2820 912 -1.000000000000000e+00
2820 1170 -1.000000000000000e+00
2820 2820 2.020108230439833e+00
2821 27 -1.000000000000000e+00
2821 224 -1.000000000000000e+00
2821 1273 -6.487023525797058e-03
2821 2821 3.020745510136885e+00
2822 51 -1.000000000000000e+00
2822 625 -1.000000000000000e+00
2822 2822 5.021988149117854e+00
2823 27 -1.000000000000000e+00
2823 2217 -1.000000000000000e+00
2823 2584 -1.018053884015689e+00
2823 2823 5.078611317148076e+00
2824 6 -1.000000000000000e+00
2824 447 -1.356871134525115e-02
2824 1327 -2.403451763086206e-02
2824 2060 -1.000000000000000e+00
2824 2824 2.037603228976113e+00
2825 194 -1.000000000000000e+00
2825 1615 -1.000000000000000e+00
2825 1799 -8.537720243939577e-03
2825 2596 -4.484598472243916e-03
2825 2825 2.026693875751977e+00
2826 467 -1.421189226823229e-02
2826 710 -2.686561847073967e-03
2826 718 -1.000000000000000e+00
2826 1745 -1.000000000000000e+00
2826 2504 -1.978092546686755e-02
2826 2826 2.036679379582174e+00
2827 87 -1.014946686259673e+00
2827 1875 -1.000000000000000e+00
2827 2827 3.034456919410052e+00
2828 933 -1.000000000000000e+00
2828 2125 -1.003903891136486e+00
2828 2398 -6.892930517924894e-03
2828 2828 3.010796821654411e+00
2829 1295 -1.000000000000000e+00
2829 1478 -1.535187774110121e-02
2829 1745 -1.000000000000000e+00
2829 2829 3.029542000801670e+00
2830 5 -1.000000000000000e+00
2830 7 -1.000000000000000e+00
2830 2830 2.043697142307813e+00
2831 65 -1.000000000000000e+00
2831 179 -1.000000000000000e+00
2831 979 -1.638826133392445e-02
2831 2334 -1.211099086087909e-02
2831 2831 2.028499252194804e+00
2832 1025 -1.000000000000000e+00
2832 2261 -1.000000000000000e+00
2832 2382 -1.000000000000000e+00
2832 2832 3.000000000000000e+00
2833 41 -1.616102739449537e-02
2833 415 -1.000000000000000e+00
2833 1335 -1.000000000000000e+00
2833 2833 2.046454704168251e+00
2834 98 -2.655907016135451e-02
2834 731 -1.000000000000000e+00
2834 1275 -3.507447791281868e-02
2834 2512 -1.000000000000000e+00
2834 2834 2.061633548074173e+00
2835 195 -1.266310047728387e-02
2835 769 -1.000000000000000e+00
2835 1002 -1.878263158429353e-02
2835 1066 -1.011986428873858e+00
2835 1171 -1.067647193279321e-02
2835 2461 -4.795759750531612e-03
2835 2739 -9.568471662846086e-03
2835 2747 -7.646743630311958e-03
2835 2835 2.124496907060136e+00
2836 266 -1.000000000000000e+00
2836 1079 -1.000000000000000e+00
2836 2249 -1.000000000000000e+00
2836 2836 3.000000000000000e+00
2837 163 -1.248861456528837e-02
2837 711 -1.000000000000000e+00
2837 715 -1.000000000000000e+00
2837 2837 2.022699333584489e+00
2838 894 -1.934420798849892e-02
2838 1538 -1.000000000000000e+00
2838 1933 -1.000000000000000e+00
2838 2838 4.047503813903498e+00
2839 347 -1.013058391362905e+00
2839 1501 -1.009764199278028e+00
2839 2390 -4.798850584259265e-03
2839 2767 -1.236322287322760e-02
2839 2839 2.039984664098420e+00
2840 151 -1.000000000000000e+00
2840 756 -9.209696722982821e-03
2840 2045 -1.010738860422365e+00
2840 2840 2.019948557145348e+00
2841 664 -1.000000000000000e+00
2841 1499 -1.000000000000000e+00
2841 2489 -8.142823157291220e-03
2841 2841 2.032405792352504e+00
2842 41 -6.588267003477690e-03
2842 1335 -1.072514091787598e-02
2842 1464 -8.635299631771377e-03
2842 1527 -1.000000000000000e+00
2842 1719 -1.000000000000000e+00
2842 2818 -1.228542424091741e-02
2842 2842 3.085789217454995e+00
2843 88 -1.000000000000000e+00
2843 1643 -1.000000000000000e+00
2843 1667 -2.697780494103331e-03
2843 2843 5.013328350865569e+00
2844 362 -1.000000000000000e+00
2844 554 -1.000000000000000e+00
2844 1290 -2.109682415682645e-03
2844 2844 4.012730879168892e+00
2845 371 -1.000000000000000e+00
2845 739 -1.000000000000000e+00
2845 1272 -2.240978896592307e-02
2845 2845 4.114217487014801e+00
2846 217 -1.000000000000000e+00
2846 815 -1.840251624712522e-02
2846 2361 -1.000000000000000e+00
2846 2846 2.035430019315418e+00
2847 252 -1.000000000000000e+00
2847 2812 -1.000000000000000e+00
2847 2847 2.034983839760445e+00
2848 300 -1.000000000000000e+00
2848 412 -3.504267721920739e-03
2848 1108 -1.000000000000000e+00
2848 2333 -1.477578732892451e-02
2848 2848 2.028216129685761e+00
2849 968 -1.000000000000000e+00
2849 1959 -1.794368869137490e-02
2849 2098 -1.930488149502885e-02
2849 2277 -1.000000000000000e+00
2849 2849 4.037248570186404e+00
2850 72 -1.647046206016976e-02
2850 234 -1.000000000000000e+00
2850 922 -1.014775527165553e+00
2850 2850 2.051861938229261e+00
2851 164 -1.000000000000000e+00
2851 178 -1.000000000000000e+00
2851 1269 -7.566354100300881e-03
2851 1489 -1.142926310547019e-02
2851 2851 3.018995617205771e+00
2852 141 -1.000000000000000e+00
2852 615 -1.000000000000000e+00
2852 2852 2.070133508462271e+00
2853 42 -1.015399028184518e+00
2853 228 -1.000000000000000e+00
2853 644 -1.103298251225572e-02
2853 1148 -4.630978840099128e-03
2853 2104 -1.432410362601806e-02
2853 2853 2.045387093162891e+00
2854 128 -1.000000000000000e+00
2854 1288 -1.694195970490798e-02
2854 1729 -1.000000000000000e+00
2854 2854 2.034860682266216e+00
2855 553 -1.000000000000000e+00
2855 1184 -7.709907003785726e-03
2855 1285 -1.000000000000000e+00
2855 2855 4.018875527328512e+00
2856 161 -1.000000000000000e+00
2856 614 -1.189994649920862e-02
2856 2120 -1.000000000000000e+00
2856 2856 2.057375887492136e+00
2857 90 -1.000000000000000e+00
2857 123 -5.200748780388371e-03
2857 951 -1.000000000000000e+00
2857 1096 -1.565861569540287e-03
2857 2857 4.019412363347563e+00
2858 326 -2.722024373538764e-02
2858 1030 -1.000000000000000e+00
2858 1123 -6.495662613966969e-04
2858 1231 -1.000000000000000e+00
2858 2858 2.049523425393102e+00
2859 607 -1.161855006825731e-02
2859 1318 -9.320546638865848e-03
2859 2227 -7.058538765992129e-03
2859 2305 -1.000000000000000e+00
2859 2328 -1.016428280143202e+00
2859 2544 -1.318443129984235e-02
2859 2859 2.065998711630239e+00
2860 183 -1.000000000000000e+00
2860 978 -1.000000000000000e+00
2860 1634 -1.000000000000000e+00
2860 2860 4.014900302276024e+00
2861 50 -1.000000000000000e+00
2861 179 -1.000000000000000e+00
2861 1453 -1.768065844924272e-02
2861 1863 -1.857466127988611e-02
2861 2861 2.036255319729129e+00
2862 152 -9.093535899952244e-03
2862 161 -1.000000000000000e+00
2862 248 -1.000000000000000e+00
2862 1306 -1.947066417503656e-02
2862 1802 -1.455090292874430e-02
2862 2862 2.095641933355674e+00
2863 885 -1.000000000000000e+00
2863 904 -2.060734356324679e-02
2863 1044 -1.000000000000000e+00
2863 2455 -2.015127793092428e-02
2863 2863 2.040758621494171e+00
2864 1954 -1.000000000000000e+00
2864 2144 -2.029835261496425e-02
2864 2582 -1.000000000000000e+00
2864 2864 2.041832041805006e+00
2865 41 -1.000000000000000e+00
2865 614 -2.685720380878812e-02
2865 1845 -1.000000000000000e+00
2865 2842 -1.126065158860668e-02
2865 2865 3.057178535639155e+00
2866 284 -1.000000000000000e+00
2866 769 -5.547907726524039e-03
2866 1373 -1.000000000000000e+00
2866 2851 -1.000000000000000e+00
2866 2866 4.011997120557717e+00
2867 1478 -1.006033830915402e+00
2867 1481 -1.000000000000000e+00
2867 2829 -1.419012306056918e-02
2867 2867 4.034554164600491e+00
2868 693 -1.000000000000000e+00
2868 854 -1.000000000000000e+00
2868 2868 3.000728415560132e+00
2869 1058 -1.000000000000000e+00
2869 1070 -4.524526448672293e-03
2869 1412 -1.000000000000000e+00
2869 2359 -4.830533121518162e-03
2869 2869 4.009355059570191e+00
2870 75 -1.000000000000000e+00
2870 1689 -1.000000000000000e+00
2870 2609 -2.965861596649740e-02
2870 2870 2.062797318723799e+00
2871 1 -1.000000000000000e+00
2871 499 -1.000000000000000e+00
2871 1775 -2.852160417016543e-02
2871 2609 -1.865653277673960e-02
2871 2871 2.047178136946905e+00
2872 443 -1.000000000000000e+00
2872 2786 -1.000000000000000e+00
2872 2872 3.008977806733443e+00
2873 161 -8.818084562677370e-03
2873 817 -1.000000000000000e+00
2873 1306 -7.064902493144235e-03
2873 2365 -1.000000000000000e+00
2873 2862 -1.294733996386242e-02
2873 2873 2.040413010367108e+00
2874 2361 -1.000000000000000e+00
2874 2664 -1.000000000000000e+00
2874 2846 -9.064714594976774e-03
2874 2874 2.017333423905000e+00
2875 825 -1.573168060124991e-02
2875 871 -1.000000000000000e+00
2875 2110 -1.666773558799394e-02
2875 2661 -1.000000000000000e+00
2875 2665 -1.977343038851258e-02
2875 2875 5.052172846577756e+00
2876 717 -1.000000000000000e+00
2876 1168 -1.000000000000000e+00
2876 1705 -2.495641879404963e-02
2876 2876 2.044359526513856e+00
2877 1334 -1.000000000000000e+00
2877 1457 -1.000000000000000e+00
2877 1781 -1.000000000000000e+00
2877 2877 3.000000000000000e+00
2878 549 -1.000000000000000e+00
2878 2093 -1.000000000000000e+00
2878 2612 -1.923767775037809e-02
2878 2878 2.043218200030751e+00
2879 1656 -1.344640889317052e-02
2879 1833 -1.024559603391681e+00
2879 1999 -1.000000000000000e+00
2879 2879 2.055019973370551e+00
2880 142 -1.000000000000000e+00
2880 1563 -1.000000000000000e+00
2880 2880 4.017209728772666e+00
2881 536 -1.000000000000000e+00
2881 1145 -3.872418526823778e-03
2881 1176 -1.000000000000000e+00
2881 1206 -3.466140466434972e-03
2881 1893 -8.377627509650954e-03
2881 2516 -1.000000000000000e+00
2881 2881 5.024257799779795e+00
2882 55 -1.002311460245346e+00
2882 734 -1.199736617522296e-03
2882 1902 -1.000000000000000e+00
2882 1968 -1.000000000000000e+00
2882 2163 -7.053243766890872e-03
2882 2882 4.029741735060776e+00
2883 16 -1.000000000000000e+00
2883 240 -1.000000000000000e+00
2883 2883 6.033619248486878e+00
2884 1384 -1.000853349876431e+00
2884 2626 -1.000000000000000e+00
2884 2884 2.015298443903345e+00
2885 1730 -1.000000000000000e+00
2885 2135 -1.000000000000000e+00
2885 2588 -1.000000000000000e+00
2885 2885 3.014442237501766e+00
2886 112 -1.004747168486533e+00
2886 310 -3.069291731506392e-04
2886 1583 -1.000000000000000e+00
2886 2886 2.052967686155430e+00
2887 28 -1.000000000000000e+00
2887 1476 -1.275787031308437e-02
2887 1660 -1.000000000000000e+00
2887 2887 2.031811313673900e+00
2888 66 -1.000000000000000e+00
2888 666 -1.000000000000000e+00
2888 1486 -1.621165186742620e-02
2888 2888 2.031454810197190e+00
2889 23 -1.000000000000000e+00
2889 937 -1.016206735804451e+00
2889 1122 -2.327582037108537e-02
2889 2889 2.039482556175537e+00
2890 162 -1.000000000000000e+00
2890 1173 -2.876052856617031e-02
2890 1300 -1.000000000000000e+00
2890 2890 2.051235595161395e+00
2891 285 -1.000000000000000e+00
2891 1102 -2.826506398179185e-02
2891 1585 -3.305009522498981e-02
2891 1855 -2.444361602473612e-02
2891 2677 -1.000000000000000e+00
2891 2891 3.085758775231518e+00
2892 1098 -1.000000000000000e+00
2892 2482 -1.000000000000000e+00
2892 2892 3.003820217264208e+00
2893 27 -1.000000000000000e+00
2893 219 -1.578525619095023e-02
2893 1622 -1.000000000000000e+00
2893 2893 3.043044539249023e+00
2894 1 -1.000000000000000e+00
2894 240 -1.000000000000000e+00
2894 1091 -8.737321330303041e-03
2894 2894 3.011329205206885e+00
2895 450 -1.019541885049595e+00
2895 1362 -1.000000000000000e+00
2895 1490 -1.000000000000000e+00
2895 2895 6.065150077121046e+00
2896 62 -1.000000000000000e+00
2896 486 -1.555910545585962e-02
2896 1271 -1.062748432714890e-03
2896 2136 -1.012790847060424e+00
2896 2254 -1.151549269963595e-02
2896 2896 2.040928193648635e+00
2897 541 -1.000000000000000e+00
2897 1698 -1.000000000000000e+00
2897 2897 3.010047396371847e+00
2898 50 -1.000000000000000e+00
2898 97 -1.000000000000000e+00
2898 1175 -1.939470522514309e-02
2898 2898 2.065395865364676e+00
2899 1 -1.000000000000000e+00
2899 86 -1.000000000000000e+00
2899 212 -2.668623474395744e-02
2899 2899 3.088013095439400e+00
2900 146 -2.011617464357873e-02
2900 1033 -1.000000000000000e+00
2900 2714 -1.016329747776529e+00
2900 2774 -1.624056301343344e-02
2900 2900 3.101580524235131e+00
2901 330 -1.000000000000000e+00
2901 550 -8.760252188641300e-03
2901 817 -1.000000000000000e+00
2901 2901 2.024043941661194e+00
2902 410 -9.063279609487890e-04
2902 664 -1.405971882484275e-02
2902 686 -1.000000000000000e+00
2902 865 -1.002378064397261e+00
2902 1166 -1.645726968524856e-02
2902 1747 -7.413358978058893e-03
2902 2351 -1.318337487225317e-02
2902 2902 2.067801091945468e+00
2903 344 -4.720283428176835e-03
2903 424 -1.000000000000000e+00
2903 670 -1.000000000000000e+00
2903 2240 -1.572173761665572e-02
2903 2903 2.020442021044833e+00
2904 111 -1.000000000000000e+00
2904 202 -1.000000000000000e+00
2904 657 -2.025548029388716e-02
2904 660 -3.077137454075627e-02
2904 668 -1.629937235146931e-02
2904 2904 3.092006544603251e+00
2905 63 -1.000000000000000e+00
2905 1214 -1.000000000000000e+00
2905 2256 -1.792445100677910e-02
2905 2905 2.027828212306508e+00
2906 40 -1.016691972900701e+00
2906 110 -1.000000000000000e+00
2906 2906 3.035045418469832e+00
2907 79 -1.000000000000000e+00
2907 649 -1.640790834286338e-02
2907 722 -1.000000000000000e+00
2907 2278 -7.485921746081879e-03
2907 2907 2.033465048034875e+00
2908 7 -2.207700390399793e-02
2908 343 -1.000000000000000e+00
2908 428 -1.000000000000000e+00
2908 2908 2.038282949491705e+00
2909 154 -1.000000000000000e+00
2909 2438 -5.838616657010318e-03
2909 2534 -1.000000000000000e+00
2909 2909 4.018772768912303e+00
2910 6 -1.000000000000000e+00
2910 50 -1.000000000000000e+00
2910 968 -3.160779870390789e-02
2910 2898 -1.925646896148848e-02
2910 2910 3.064904919497794e+00
2911 426 -1.056939078822481e-02
2911 662 -1.000000000000000e+00
2911 954 -2.050354819808546e-02
2911 1168 -2.942283555234752e-03
2911 1257 -1.442448838707039e-02
2911 1599 -1.000000000000000e+00
2911 1810 -1.108691039446665e-02
2911 2911 2.064908423895886e+00
2912 80 -1.000000000000000e+00
2912 93 -1.456456807896516e-02
2912 538 -1.000000000000000e+00
2912 839 -1.547554624776761e-02
2912 1343 -1.388449692722973e-02
2912 2336 -1.728735638485157e-02
2912 2912 2.061211967638814e+00
2913 368 -1.000000000000000e+00
2913 1166 -1.000000000000000e+00
2913 2902 -1.192163731851215e-03
2913 2913 2.020509475749905e+00
2914 50 -1.021263502480112e-02
2914 371 -1.000000000000000e+00
2914 403 -9.818589603655429e-03
2914 539 -7.966073864869515e-03
2914 586 -1.000000000000000e+00
2914 1175 -8.418781172534332e-03
2914 1641 -2.167018367834950e-02
2914 1818 -1.007471366609659e-02
2914 1841 -8.837315060930348e-03
2914 2355 -9.053158117165987e-03
2914 2469 -8.450615808557126e-03
2914 2547 -2.840534395211978e-02
2914 2910 -1.404065183239759e-02
2914 2914 3.180621467114852e+00
2915 520 -1.000000000000000e+00
2915 540 -1.000000000000000e+00
2915 1837 -1.022579887712590e-02
2915 2915 2.035578967958830e+00
2916 701 -1.000000000000000e+00
2916 2160 -1.000000000000000e+00
2916 2691 -1.000000000000000e+00
2916 2916 3.000000000000000e+00
2917 28 -1.000000000000000e+00
2917 146 -1.000000000000000e+00
2917 2900 -2.901387024892842e-02
2917 2917 2.041488865262546e+00
2918 1464 -1.000000000000000e+00
2918 2720 -1.000000000000000e+00
2918 2918 3.020539819147483e+00
2919 614 -1.000000000000000e+00
2919 1950 -1.000000000000000e+00
2919 2919 4.038848597698262e+00
2920 1628 -1.000000000000000e+00
2920 1828 -1.913804662084250e-02
2920 1916 -1.000000000000000e+00
2920 1989 -1.028451699282729e-02
2920 2077 -4.528304024763614e-03
2920 2920 2.044572222199983e+00
2921 40 -2.170545341496502e-02
2921 1118 -1.000000000000000e+00
2921 2249 -1.000000000000000e+00
2921 2921 5.040956602934142e+00
2922 102 -1.000000000000000e+00
2922 1534 -1.000000000000000e+00
2922 1825 -2.520925777811960e-02
2922 2922 2.042683195734429e+00
2923 183 -1.000000000000000e+00
2923 2211 -1.030184085829406e+00
2923 2923 3.034884159657289e+00
2924 26 -1.020416521259022e+00
2924 1700 -1.000000000000000e+00
2924 1758 -9.592500109321988e-03
2924 2924 2.030009021368344e+00
2925 211 -1.000000000000000e+00
2925 2450 -1.004777569277127e+00
2925 2925 2.032249824788673e+00
2926 1936 -1.000000000000000e+00
2926 2587 -1.000000000000000e+00
2926 2607 -3.787941061211260e-03
2926 2926 2.028425440086187e+00
2927 677 -1.000000000000000e+00
2927 867 -3.378084169624115e-03
2927 909 -1.432147302813489e-02
2927 1784 -1.000000000000000e+00
2927 2927 3.017699557197759e+00
2928 3 -4.033036013132404e-03
2928 28 -1.000000000000000e+00
2928 1512 -5.944797594324844e-03
2928 2623 -1.017874098491964e+00
2928 2928 3.027851932099421e+00
2929 1653 -1.000000000000000e+00
2929 1789 -2.558488954016737e-03
2929 2622 -1.016959555138438e+00
2929 2929 2.019518044092454e+00
2930 1 -1.030812047952888e+00
2930 71 -1.000000000000000e+00
2930 202 -1.618229038496436e-02
2930 2930 5.046994338337852e+00
2931 1196 -1.194316068523320e-02
2931 1872 -1.000000000000000e+00
2931 1975 -1.000000000000000e+00
2931 2931 2.019318117714756e+00
2932 18 -1.000000000000000e+00
2932 369 -1.000000000000000e+00
2932 2159 -8.506188319116724e-03
2932 2932 2.036071635697974e+00
2933 1 -1.000000000000000e+00
2933 48 -2.016184036662847e-02
2933 212 -1.714011607071698e-02
2933 217 -2.856150214250918e-02
2933 256 -1.959981249707150e-02
2933 399 -1.590428659029676e-02
2933 511 -1.484801439029506e-02
2933 1418 -1.617533152233738e-02
2933 1441 -2.487188686852183e-02
2933 1620 -1.950817737843582e-02
2933 1812 -1.000000000000000e+00
2933 2116 -1.983718480220617e-02
2933 2212 -2.221626457422298e-02
2933 2715 -2.136500085885869e-02
2933 2933 3.366893903490130e+00
2934 181 -1.009675432392103e+00
2934 509 -1.000000000000000e+00
2934 680 -9.681355147598403e-03
2934 2399 -9.034957613411663e-03
2934 2934 3.028391745153113e+00
2935 284 -1.000000000000000e+00
2935 640 -1.000000000000000e+00
2935 707 -1.587129960777077e-02
2935 2240 -1.000000000000000e+00
2935 2935 3.025000191432290e+00
2936 1 -1.000000000000000e+00
2936 222 -1.000000000000000e+00
2936 1182 -1.738342041700624e-02
2936 2936 2.049030763669453e+00
2937 1 -1.000000000000000e+00
2937 948 -2.460439675597158e-02
2937 2146 -1.000000000000000e+00
2937 2937 2.050658294117613e+00
2938 247 -1.000000000000000e+00
2938 1411 -1.000000000000000e+00
2938 1912 -1.220869554247295e-02
2938 2938 2.024062473260989e+00
2939 1177 -1.000000000000000e+00
2939 1630 -9.030066551990842e-03
2939 1924 -1.000000000000000e+00
2939 2811 -1.019601818488634e+00
2939 2939 4.044559555208078e+00
2940 1 -1.000000000000000e+00
2940 821 -3.511390384572288e-02
2940 2194 -1.000000000000000e+00
2940 2252 -2.300332771096116e-02
2940 2746 -1.000000000000000e+00
2940 2940 4.058117231556684e+00
2941 1170 -1.000000000000000e+00
2941 2017 -1.000000000000000e+00
2941 2646 -3.346288554186777e-02
2941 2941 2.060817189984401e+00
2942 208 -1.000000000000000e+00
2942 551 -1.000000000000000e+00
2942 2942 2.014042548532545e+00
2943 32 -1.000000000000000e+00
2943 361 -1.000000000000000e+00
2943 1404 -1.702353454546652e-02
2943 2943 2.056564308864912e+00
2944 679 -1.000000000000000e+00
2944 1202 -1.000000000000000e+00
2944 2387 -1.528943702555957e-02
2944 2457 -1.779543912687231e-02
2944 2944 3.033084876152432e+00
2945 32 -1.000000000000000e+00
2945 731 -1.319225662423897e-02
2945 874 -1.000000000000000e+00
2945 1730 -1.773507778587448e-02
2945 2652 -1.697914676313306e-02
2945 2945 2.065723785868994e+00
2946 677 -1.000000000000000e+00
2946 774 -1.000000000000000e+00
2946 2946 2.053052850114071e+00
2947 527 -1.005558147765049e+00
2947 791 -1.000000000000000e+00
2947 2053 -5.232880085220697e-04
2947 2640 -1.192813661994438e-02
2947 2947 2.019407929982745e+00
2948 1 -1.000000000000000e+00
2948 1668 -1.000000000000000e+00
2948 2948 2.019443074866351e+00
2949 1026 -1.000000000000000e+00
2949 1619 -1.000000000000000e+00
2949 1863 -1.704640129854544e-02
2949 2914 -1.747825509922192e-02
2949 2949 3.060931961580153e+00
2950 131 -3.593315034068842e-04
2950 671 -1.020205397962799e+00
2950 1227 -5.745851322621156e-03
2950 1858 -1.555962302513668e-03
2950 1872 -1.000000000000000e+00
2950 2360 -1.751275633990455e-03
2950 2950 2.039691472521068e+00
2951 10 -1.000000000000000e+00
2951 559 -5.533251470321370e-03
2951 1286 -2.710483652282065e-02
2951 1534 -1.621891924672954e-02
2951 2648 -1.000000000000000e+00
2951 2951 2.067851627246220e+00
2952 906 -1.000000000000000e+00
2952 1552 -1.000000000000000e+00
2952 1573 -1.127861857597556e-02
2952 2858 -2.165361539631742e-02
2952 2952 3.032932233972293e+00
2953 5 -1.000000000000000e+00
2953 914 -1.000000000000000e+00
2953 2418 -3.322499794941073e-03
2953 2577 -2.199373365074763e-02
2953 2953 2.052581402977239e+00
2954 104 -1.000000000000000e+00
2954 542 -1.000000000000000e+00
2954 2376 -1.617027987752717e-02
2954 2954 2.036461148159749e+00
2955 141 -1.000000000000000e+00
2955 1193 -3.139967826042157e-03
2955 1966 -1.013082868028302e+00
2955 2955 2.024420639175165e+00
2956 371 -1.000000000000000e+00
2956 2514 -1.000000000000000e+00
2956 2956 3.000000000000000e+00
2957 141 -1.009364779299365e-02
2957 156 -8.488702115791046e-03
2957 1116 -1.000000000000000e+00
2957 2187 -1.486093679406935e-02
2957 2536 -1.000000000000000e+00
2957 2628 -1.000000000000000e+00
2957 2957 5.058405853781666e+00
2958 17 -1.000000000000000e+00
2958 82 -1.000000000000000e+00
2958 91 -2.881277133559828e-02
2958 1663 -1.177362365508891e-02
2958 1871 -9.397418498527925e-03
2958 2301 -1.375577759532954e-02
2958 2958 2.101677162747557e+00
2959 218 -1.000000000000000e+00
2959 1428 -7.682719237539059e-03
2959 1703 -1.026366204481431e+00
2959 2181 -1.000000000000000e+00
2959 2959 3.034048923718970e+00
2960 29 -1.000000000000000e+00
2960 202 -9.139570930573373e-03
2960 250 -1.000000000000000e+00
2960 894 -1.998640048322556e-02
2960 2317 -2.206511537457805e-02
2960 2960 5.123136028116279e+00
2961 32 -1.000000000000000e+00
2961 276 -1.000000000000000e+00
2961 2961 3.000000000000000e+00
2962 67 -1.000000000000000e+00
2962 562 -1.000000000000000e+00
2962 2962 4.090513135915312e+00
2963 28 -1.000000000000000e+00
2963 2611 -1.000000000000000e+00
2963 2963 2.043331376950447e+00
2964 121 -1.000000000000000e+00
2964 722 -1.011788341264468e+00
2964 1234 -3.317807083945776e-03
2964 2049 -1.912798027900756e-02
2964 2278 -3.972023697838124e-03
2964 2964 2.052577326831983e+00
2965 1117 -1.000000000000000e+00
2965 1857 -1.001213096698452e+00
2965 2965 3.001314205246686e+00
2966 29 -2.967023636710008e-04
2966 1574 -1.829500068382944e-02
2966 2553 -1.000000000000000e+00
2966 2786 -1.000000000000000e+00
2966 2966 5.018591703047500e+00
2967 150 -1.000000000000000e+00
2967 211 -1.000000000000000e+00
2967 2967 2.031949476878373e+00
2968 38 -1.000000000000000e+00
2968 624 -1.000000000000000e+00
2968 1477 -2.541176741848192e-02
2968 2968 6.032323106139843e+00
2969 13 -1.000000000000000e+00
2969 546 -1.000000000000000e+00
2969 626 -5.148549666572110e-03
2969 2969 2.026580534668299e+00
2970 85 -1.000000000000000e+00
2970 93 -1.000000000000000e+00
2970 2970 3.000000000000000e+00
2971 101 -6.381689287074947e-03
2971 421 -1.000000000000000e+00
2971 481 -2.234820086721684e-02
2971 727 -3.469165238704484e-04
2971 741 -1.365557467887475e-02
2971 764 -1.012300825185666e+00
2971 1496 -7.909341906192854e-03
2971 2971 2.078656204477291e+00
2972 249 -1.034257017614233e-02
2972 1105 -1.000000000000000e+00
2972 1158 -1.000000000000000e+00
2972 2972 3.025638065068298e+00
2973 1 -1.000000000000000e+00
2973 18 -1.000000000000000e+00
2973 2973 3.001993556487665e+00
2974 36 -1.000000000000000e+00
2974 1456 -4.464615770915650e-03
2974 1798 -1.000000000000000e+00
2974 2974 2.013354163589511e+00
2975 334 -1.000000000000000e+00
2975 956 -1.000000000000000e+00
2975 2975 3.036768788089105e+00
2976 6 -1.000000000000000e+00
2976 376 -1.000000000000000e+00
2976 1805 -1.603993223350849e-02
2976 2976 5.028111021515707e+00
2977 892 -1.000000000000000e+00
2977 2024 -1.000000000000000e+00
2977 2977 3.004114461822693e+00
2978 91 -1.000000000000000e+00
2978 255 -1.000000000000000e+00
2978 1256 -1.408685081711568e-02
2978 1403 -2.306773651677086e-02
2978 2978 2.067599982799014e+00
2979 274 -7.185183015704606e-03
2979 316 -1.000000000000000e+00
2979 811 -1.000000000000000e+00
2979 2064 -4.763963682981940e-03
2979 2979 2.011949146698687e+00
2980 423 -1.000000000000000e+00
2980 742 -1.000000000000000e+00
2980 2980 3.020816068969155e+00
2981 132 -1.036281898513103e+00
2981 2857 -1.000000000000000e+00
2981 2981 2.050210884749354e+00
2982 331 -1.000000000000000e+00
2982 1355 -1.000000000000000e+00
2982 2728 -1.034000198284589e-02
2982 2982 4.014842226823372e+00
2983 158 -1.000000000000000e+00
2983 232 -1.000000000000000e+00
2983 2445 -1.640832903483001e-02
2983 2983 3.022995591124396e+00
2984 565 -2.651376647932806e-02
2984 1094 -1.000000000000000e+00
2984 1519 -1.000000000000000e+00
2984 2984 3.045773362465203e+00
2985 79 -1.000000000000000e+00
2985 2227 -1.000000000000000e+00
2985 2985 3.039690748711357e+00
2986 144 -1.198301648427766e-02
2986 746 -1.000000000000000e+00
2986 1792 -1.186770709021064e-02
2986 1928 -1.000000000000000e+00
2986 2986 4.087123869373961e+00
2987 443 -1.009956794843363e+00
2987 747 -1.000000000000000e+00
2987 2633 -5.850710846778871e-03
2987 2987 2.045179043756793e+00
2988 54 -1.000000000000000e+00
2988 1223 -2.769550609352819e-02
2988 1565 -1.000000000000000e+00
2988 2178 -2.172048182813719e-02
2988 2418 -7.686833722507893e-03
2988 2988 2.084472199544712e+00
2989 71 -1.000000000000000e+00
2989 502 -1.029358990322222e+00
2989 1975 -9.195967954302071e-03
2989 2931 -7.374957029522557e-03
2989 2989 3.045929915306047e+00
2990 137 -1.007672871357671e+00
2990 1022 -1.000000000000000e+00
2990 2990 2.008919725985459e+00
2991 53 -1.000000000000000e+00
2991 1231 -1.000000000000000e+00
2991 2991 3.016955721049081e+00
2992 1 -1.000000000000000e+00
2992 818 -1.000000000000000e+00
2992 2992 5.064187078427179e+00
2993 387 -1.000000000000000e+00
2993 988 -1.000000000000000e+00
2993 1751 -1.000000000000000e+00
2993 1890 -1.000000000000000e+00
2993 2418 -6.591242938551618e-03
2993 2993 6.027464187841282e+00
2994 943 -1.000000000000000e+00
2994 2137 -1.009191014155772e+00
2994 2730 -1.002049615249892e+00
2994 2994 3.011240629405664e+00
2995 856 -1.015774982846808e+00
2995 1939 -1.006497687722564e+00
2995 2995 2.022272670569372e+00
2996 1019 -1.023825990455746e+00
2996 1596 -1.000000000000000e+00
2996 2996 3.024890093044514e+00
2997 7 -1.000000000000000e+00
2997 854 -1.000000000000000e+00
2997 1071 -1.822736922230751e-02
2997 1249 -1.770465795323022e-02
2997 2710 -2.502087831842044e-02
2997 2997 4.117663376450041e+00
2998 652 -1.004343901318146e+00
2998 1347 -1.000000000000000e+00
2998 2998 2.005428183397973e+00
2999 175 -1.000000000000000e+00
2999 1341 -1.606076695802887e-02
2999 1631 -9.352976209702117e-03
2999 2985 -1.000000000000000e+00
2999 2999 4.025413743167731e+00
3000 1271 -1.003570729319115e+00
3000 2136 -1.000000000000000e+00
3000 2766 -9.925424620480239e-03
3000 3000 2.013496153939595e+00
3001 83 -1.000000000000000e+00
3001 243 -4.655186707586948e-03
3001 817 -1.701206518842975e-02
3001 1040 -1.000000000000000e+00
3001 1744 -1.351828748122029e-02
3001 3001 2.093312084569226e+00
3002 497 -1.000000000000000e+00
3002 736 -1.000000000000000e+00
3002 1993 -2.753270201113514e-02
3002 3002 4.058587478984587e+00
3003 816 -1.000000000000000e+00
3003 1226 -1.016820173523570e+00
3003 2247 -3.725837222452566e-03
3003 3003 2.026082726849325e+00
3004 94 -1.000000000000000e+00
3004 207 -1.000000000000000e+00
3004 384 -1.000000000000000e+00
3004 2278 -6.249651249532590e-03
3004 2358 -6.985542707503262e-03
3004 3004 6.028901077828394e+00
3005 314 -1.000000000000000e+00
3005 835 -1.000000000000000e+00
3005 1008 -1.806241943799209e-02
3005 1544 -1.300517156481691e-02
3005 2733 -1.000000000000000e+00
3005 3005 3.047449139494074e+00
3006 465 -1.007014343853611e+00
3006 969 -1.000000000000000e+00
3006 1443 -1.536953697474353e-02
3006 3006 2.036853448389218e+00
3007 19 -1.000000000000000e+00
3007 1102 -1.411538267608507e-02
3007 1191 -1.480217231453636e-02
3007 1623 -2.824881353977670e-02
3007 1811 -1.516442014224771e-02
3007 1812 -1.358752018097536e-02
3007 1933 -1.496512557478621e-02
3007 1942 -1.610480684481705e-02
3007 2022 -1.762113061250087e-02
3007 2252 -1.973533861286432e-02
3007 2487 -1.000000000000000e+00
3007 2609 -1.076472204821777e-02
3007 2815 -1.899107076153354e-02
3007 3007 2.344084814731556e+00
3008 64 -1.001423355084106e+00
3008 97 -1.000000000000000e+00
3008 367 -3.096704330394230e-03
3008 425 -6.448234119767843e-03
3008 2556 -1.217646219512715e-03
3008 3008 3.012185939753781e+00
3009 359 -7.655279628014595e-03
3009 688 -1.000000000000000e+00
3009 1133 -1.000000000000000e+00
3009 3009 2.008661166961419e+00
3010 57 -1.000000000000000e+00
3010 2397 -1.004692534420524e+00
3010 3010 6.029281826417118e+00
3011 442 -1.021690082299844e+00
3011 626 -1.210817546490402e-02
3011 998 -1.000000000000000e+00
3011 1528 -2.335677226921318e-02
3011 1624 -1.335621637337660e-02
3011 1903 -1.746439540149416e-02
3011 3011 3.087975641808832e+00
3012 5 -1.000000000000000e+00
3012 39 -1.003746346125370e+00
3012 1470 -1.547337503216944e-02
3012 3012 2.019219721157539e+00
3013 50 -1.000000000000000e+00
3013 2382 -1.000000000000000e+00
3013 3013 3.000000000000000e+00
3014 1949 -1.000000000000000e+00
3014 2822 -1.000000000000000e+00
3014 3014 5.033950935392910e+00
3015 637 -1.000000000000000e+00
3015 825 -1.000000000000000e+00
3015 1330 -1.799018070827755e-02
3015 3015 3.024035223160442e+00
3016 247 -5.237287559227901e-03
3016 369 -1.000000000000000e+00
3016 742 -1.000000000000000e+00
3016 1532 -2.606136359635943e-03
3016 1947 -6.098517978215551e-03
3016 2550 -1.555979488475456e-02
3016 2938 -1.185377771851588e-02
3016 3016 2.046254714944188e+00
3017 32 -1.474539154309772e-02
3017 593 -2.878087679080707e-02
3017 648 -1.000000000000000e+00
3017 726 -2.070070553922981e-02
3017 1021 -1.000000000000000e+00
3017 1381 -1.505615487751243e-02
3017 1404 -1.669763598501255e-02
3017 3017 2.095980764735660e+00
3018 16 -1.000000000000000e+00
3018 894 -2.869717120933866e-02
3018 1141 -2.872762337600991e-02
3018 1241 -2.789969878747784e-02
3018 1775 -3.142702097096873e-02
3018 2050 -1.000000000000000e+00
3018 2838 -2.815960591499926e-02
3018 2899 -2.412246928580187e-02
3018 3018 4.241686768018946e+00
3019 241 -2.057287963880433e-02
3019 261 -5.926370250029867e-03
3019 864 -9.767355222174248e-03
3019 1161 -4.223686151255322e-03
3019 1803 -1.046264215123127e-02
3019 2119 -1.347961723548909e-02
3019 2350 -1.076690025322046e-02
3019 2505 -1.489638314525369e-02
3019 2536 -1.000000000000000e+00
3019 2812 -1.000000000000000e+00
3019 3019 3.105404336299227e+00
3020 152 -1.445695213760442e-02
3020 538 -1.000000000000000e+00
3020 2563 -1.000000000000000e+00
3020 2862 -1.346815142993314e-02
3020 3020 2.027925103567537e+00
3021 247 -1.000000000000000e+00
3021 248 -1.014924349852590e+00
3021 1998 -1.553476246162550e-02
3021 3021 2.030459112314216e+00
3022 498 -1.000000000000000e+00
3022 2058 -1.000000000000000e+00
3022 2251 -1.801637172433659e-02
3022 3022 4.041227027853119e+00
3023 46 -5.629364231516683e-03
3023 287 -1.075235722587214e-02
3023 573 -1.008979592791318e+00
3023 878 -1.656275078841242e-02
3023 989 -2.351451056756479e-03
3023 1259 -4.748951636337280e-04
3023 1396 -1.096499713962061e-02
3023 2875 -1.000000000000000e+00
3023 3023 3.084516225231490e+00
3024 442 -1.000000000000000e+00
3024 2199 -1.000000000000000e+00
3024 2457 -1.238438521917277e-02
3024 2499 -1.230029711958070e-02
3024 3024 4.052894914304293e+00
3025 67 -1.000000000000000e+00
3025 287 -1.000000000000000e+00
3025 3025 3.004541626815879e+00
3026 450 -1.000000000000000e+00
3026 853 -1.000000000000000e+00
3026 3026 2.021416694373010e+00
3027 2 -1.000000000000000e+00
3027 27 -1.000000000000000e+00
3027 2122 -1.475638327932398e-02
3027 3027 2.067789404928272e+00
3028 515 -1.608793976064547e-02
3028 1425 -1.000000000000000e+00
3028 1799 -1.017687232021776e+00
3028 2596 -1.198748426123375e-02
3028 2825 -1.367155703579405e-02
3028 3028 3.070217772971650e+00
3029 238 -1.000000000000000e+00
3029 465 -1.000000000000000e+00
3029 517 -1.282860064705571e-02
3029 1793 -1.258146578847649e-02
3029 1794 -6.076552484695099e-03
3029 3029 3.044059788878654e+00
3030 70 -1.000000000000000e+00
3030 594 -2.124837658998290e-02
3030 774 -2.589191640549667e-02
3030 1745 -1.000000000000000e+00
3030 3030 3.047140292995480e+00
3031 504 -1.000000000000000e+00
3031 1163 -1.000000000000000e+00
3031 1262 -1.000000000000000e+00
3031 3031 3.000000000000000e+00
3032 85 -1.000000000000000e+00
3032 554 -1.000000000000000e+00
3032 1035 -1.000000000000000e+00
3032 3032 3.005930934178379e+00
3033 164 -1.000000000000000e+00
3033 946 -2.695365530554304e-02
3033 1029 -1.000000000000000e+00
3033 3033 2.057990674501709e+00
3034 541 -1.000000000000000e+00
3034 726 -1.000000000000000e+00
3034 1047 -1.192565979463034e-03
3034 1990 -1.000000000000000e+00
3034 2177 -1.000000000000000e+00
3034 3034 4.018825639298910e+00
3035 275 -1.000000000000000e+00
3035 2292 -1.000000000000000e+00
3035 3035 3.042443352371082e+00
3036 13 -1.000000000000000e+00
3036 353 -1.000000000000000e+00
3036 580 -1.739310277421693e-02
3036 985 -1.000000000000000e+00
3036 3036 3.030792103131706e+00
3037 1030 -1.000000000000000e+00
3037 1389 -1.000000000000000e+00
3037 2272 -1.291707383470272e-02
3037 2486 -7.879295311241045e-03
3037 3037 3.020796369145944e+00
3038 542 -1.000000000000000e+00
3038 844 -1.000000000000000e+00
3038 3038 2.006203050468133e+00
3039 7 -1.000000000000000e+00
3039 2229 -1.008829965582617e+00
3039 3039 3.008829965582617e+00
3040 1132 -1.000000000000000e+00
3040 1328 -1.000000000000000e+00
3040 2942 -1.334486663884426e-02
3040 3040 3.025353135989361e+00
3041 414 -1.650015800945526e-02
3041 736 -3.087814167316725e-03
3041 1086 -8.276690592164812e-03
3041 1548 -1.000000000000000e+00
3041 1921 -1.000000000000000e+00
3041 3002 -1.018182848027310e+00
3041 3041 3.069850014181409e+00
3042 297 -1.000000000000000e+00
3042 817 -1.331361941540188e-02
3042 1130 -1.000000000000000e+00
3042 1514 -1.125999564338896e-02
3042 3042 2.024573615058791e+00
3043 659 -1.000000000000000e+00
3043 1040 -1.000000000000000e+00
3043 2296 -2.494026989747833e-02
3043 3043 3.046212396260091e+00
3044 1 -1.000000000000000e+00
3044 219 -1.495040880060299e-02
3044 2178 -1.000000000000000e+00
3044 2418 -4.666664361076323e-03
3044 3044 4.019617073161680e+00
3045 396 -2.170021339891790e-02
3045 637 -1.000000000000000e+00
3045 1843 -1.000000000000000e+00
3045 3045 2.028972283054021e+00
3046 780 -1.000000000000000e+00
3046 1081 -1.000000000000000e+00
3046 1214 -2.297226427958856e-02
3046 3046 2.034047078785272e+00
3047 5 -1.000000000000000e+00
3047 1430 -2.155754351151263e-02
3047 1506 -1.000000000000000e+00
3047 3047 2.034129405439934e+00
3048 5 -1.000000000000000e+00
3048 1862 -1.018575378755656e+00
3048 2708 -1.901240400451578e-02
3048 3048 2.057061701077056e+00
3049 1472 -1.000000000000000e+00
3049 2108 -1.000000000000000e+00
3049 3049 3.000000000000000e+00
3050 97 -1.000000000000000e+00
3050 297 -1.560299516821339e-02
3050 904 -1.262160798089084e-02
3050 1023 -2.276536949602962e-02
3050 1555 -1.000000000000000e+00
3050 2711 -1.984739819609898e-02
3050 3050 2.178931497418717e+00
3051 79 -1.000000000000000e+00
3051 279 -1.385176882061051e-03
3051 762 -1.000000000000000e+00
3051 1435 -2.712280613931170e-02
3051 3051 3.041661912582045e+00
3052 16 -1.000000000000000e+00
3052 1460 -1.000000000000000e+00
3052 3052 3.017036792087598e+00
3053 33 -1.000000000000000e+00
3053 373 -3.349262470158448e-02
3053 2062 -1.000000000000000e+00
3053 3053 3.051961664115225e+00
3054 1316 -1.021390329492699e+00
3054 2514 -1.000000000000000e+00
3054 3054 3.039974040046579e+00
3055 148 -1.376271625443652e-02
3055 156 -1.000000000000000e+00
3055 1438 -1.000000000000000e+00
3055 2231 -2.240425020646034e-02
3055 2852 -1.487159049316364e-02
3055 3055 3.051038556954060e+00
3056 105 -9.424529070310824e-03
3056 284 -1.000000000000000e+00
3056 1819 -1.120039645478202e-02
3056 2210 -1.000000000000000e+00
3056 3056 3.057666870234484e+00
3057 780 -1.000000000000000e+00
3057 1160 -8.702462006052618e-03
3057 2149 -1.000000000000000e+00
3057 2968 -1.000000000000000e+00
3057 3057 5.069725259681746e+00
3058 751 -1.000000000000000e+00
3058 2040 -1.000000000000000e+00
3058 3058 4.013141245462180e+00
3059 88 -1.000000000000000e+00
3059 1020 -1.474315623921586e-02
3059 2261 -1.000000000000000e+00
3059 3059 2.021779328043785e+00
3060 1162 -1.000000000000000e+00
3060 1538 -1.000000000000000e+00
3060 1733 -1.894920467187717e-02
3060 3060 2.034988910309396e+00
3061 871 -1.004245189412939e+00
3061 1617 -2.039213680604306e-03
3061 1681 -1.000000000000000e+00
3061 3061 2.012243167213163e+00
3062 1 -1.000000000000000e+00
3062 202 -1.884865591662933e-02
3062 601 -1.000000000000000e+00
3062 1620 -3.202871287012091e-02
3062 3062 2.050877368786750e+00
3063 41 -1.000000000000000e+00
3063 158 -1.000000000000000e+00
3063 2842 -8.460646421305241e-03
3063 3063 2.022699628943962e+00
3064 2 -1.000000000000000e+00
3064 2701 -1.000000000000000e+00
3064 3064 2.053663763914733e+00
3065 2 -1.000000000000000e+00
3065 32 -1.000000000000000e+00
3065 830 -1.488443306062075e-03
3065 3065 3.016459243083747e+00
3066 534 -1.003796502325872e+00
3066 734 -1.000000000000000e+00
3066 3066 2.003796502325872e+00
3067 1 -1.000000000000000e+00
3067 830 -1.000000000000000e+00
3067 3067 3.015338434368806e+00
3068 11 -1.000000000000000e+00
3068 127 -1.000000000000000e+00
3068 1502 -2.894737665557661e-02
3068 1864 -3.608932616163506e-02
3068 3068 4.095442700342068e+00
3069 7 -1.000000000000000e+00
3069 787 -1.000000000000000e+00
3069 1194 -2.034985639211565e-02
3069 3069 2.068690709143802e+00
3070 62 -1.000000000000000e+00
3070 239 -2.699943334377820e-02
3070 1593 -2.128479782111014e-03
3070 2341 -1.000000000000000e+00
3070 2497 -3.601175988265253e-04
3070 3070 3.042442654787471e+00
3071 1117 -1.000000000000000e+00
3071 1594 -1.000000000000000e+00
3071 2013 -1.265144617558125e-03
3071 2138 -3.986047955728900e-03
3071 2631 -1.009421865693126e+00
3071 3071 4.047736198611691e+00
3072 2009 -1.000000000000000e+00
3072 2522 -1.000000000000000e+00
3072 2697 -1.000000000000000e+00
3072 3072 6.011707413972527e+00
3073 2156 -1.000000000000000e+00
3073 2446 -4.661942895389868e-03
3073 2558 -1.007347295192280e+00
3073 3073 2.012009238087670e+00
3074 2420 -1.000000000000000e+00
3074 2875 -1.000000000000000e+00
3074 3074 3.000000000000000e+00
3075 7 -1.000000000000000e+00
3075 875 -1.000000000000000e+00
3075 1426 -4.738437409082028e-05
3075 3075 2.012082992733770e+00
3076 161 -1.000000000000000e+00
3076 1503 -1.001866070904457e+00
3076 2235 -7.880756223243565e-03
3076 3076 2.015145251816780e+00
3077 32 -1.000000000000000e+00
3077 2282 -1.239586934503391e-03
3077 2484 -1.001063380962583e+00
3077 3077 2.012583799240791e+00
3078 40 -1.000000000000000e+00
3078 56 -1.000000000000000e+00
3078 1697 -1.000000000000000e+00
3078 3078 3.052076299201118e+00
3079 586 -1.000000000000000e+00
3079 857 -1.000000000000000e+00
3079 2688 -1.000000000000000e+00
3079 3079 3.000000000000000e+00
3080 330 -1.004239471805087e+00
3080 1612 -8.676361593050312e-03
3080 2015 -1.010875265112969e+00
3080 2742 -8.894376485065140e-03
3080 2901 -1.528368947255307e-02
3080 3080 2.139065952755430e+00
3081 36 -1.000000000000000e+00
3081 601 -1.000000000000000e+00
3081 1456 -1.386161224300740e-02
3081 2218 -6.621754944153669e-03
3081 3081 2.020483367187161e+00
3082 63 -1.000000000000000e+00
3082 251 -1.000000000000000e+00
3082 288 -1.483485324128739e-02
3082 1923 -1.782984690070587e-02
3082 2810 -1.604791176618996e-02
3082 3082 2.048712611908183e+00
3083 1862 -1.000000000000000e+00
3083 2288 -1.017373417820824e+00
3083 2532 -9.653069480900688e-03
3083 3083 2.027026487301725e+00
3084 796 -1.000000000000000e+00
3084 834 -1.015082682655928e-02
3084 1040 -2.158699227247961e-02
3084 1514 -1.000000000000000e+00
3084 1706 -1.000000000000000e+00
3084 1744 -1.374596675376604e-02
3084 3084 4.071000993008172e+00
3085 241 -1.000000000000000e+00
3085 1063 -1.014211643857118e+00
3085 2904 -1.000000000000000e+00
3085 3085 4.025690552517684e+00
3086 1091 -1.018085145646947e+00
3086 2529 -1.000000000000000e+00
3086 3086 5.019877736372763e+00
3087 169 -1.001226438006512e+00
3087 2169 -1.000000000000000e+00
3087 2629 -7.649678550388971e-03
3087 3087 2.018455880367157e+00
3088 220 -1.000000000000000e+00
3088 3010 -1.011025310584586e+00
3088 3088 2.022215134432184e+00
3089 282 -1.000000000000000e+00
3089 322 -1.581810246628563e-02
3089 1247 -1.000000000000000e+00
3089 1753 -1.959572419285766e-03
3089 1935 -1.024220632521024e-02
3089 1985 -1.867781356208640e-03
3089 3089 2.042491506802207e+00
3090 320 -1.000000000000000e+00
3090 2130 -1.000000000000000e+00
3090 3090 2.009615105522736e+00
3091 400 -1.000000000000000e+00
3091 417 -1.005712177150979e+00
3091 3091 2.007265464692721e+00
3092 2 -1.000000000000000e+00
3092 18 -1.000000000000000e+00
3092 2418 -7.236115000356557e-03
3092 3092 2.053409176556630e+00
3093 6 -1.000000000000000e+00
3093 24 -1.000000000000000e+00
3093 463 -7.715333796110668e-03
3093 2180 -1.007844747867470e+00
3093 3093 4.032910744179850e+00
3094 242 -1.000000000000000e+00
3094 349 -1.000000000000000e+00
3094 1025 -3.745609556810844e-03
3094 1557 -4.190001146787443e-03
3094 1877 -1.765377285023222e-02
3094 3094 3.029229846084119e+00
3095 2 -1.000000000000000e+00
3095 2693 -1.005533187619799e+00
3095 2751 -1.276449592357669e-02
3095 3095 2.033397299703813e+00
3096 1021 -1.000000000000000e+00
3096 1327 -1.508959956130802e-02
3096 2337 -1.000000000000000e+00
3096 3096 3.045848757679058e+00
3097 104 -1.000000000000000e+00
3097 735 -1.000000000000000e+00
3097 1774 -1.000000000000000e+00
3097 2752 -1.000000000000000e+00
3097 3097 5.049261980560050e+00
3098 215 -1.000000000000000e+00
3098 2013 -1.732251652838142e-02
3098 3071 -1.007604705287161e+00
3098 3098 3.031790979288696e+00
3099 1703 -1.000000000000000e+00
3099 1761 -1.012502293302199e+00
3099 3099 2.036808366759967e+00
3100 1 -1.000000000000000e+00
3100 1498 -2.157404607184688e-02
3100 2261 -1.005680341618338e+00
3100 3100 2.027254387690185e+00
3101 2364 -1.000000000000000e+00
3101 2618 -1.000000000000000e+00
3101 3002 -1.287192894614214e-02
3101 3041 -1.949681611058293e-03
3101 3101 2.014821610557200e+00
3102 1157 -1.000000000000000e+00
3102 1301 -6.885031325258456e-03
3102 2765 -1.000000000000000e+00
3102 3102 2.009269260587548e+00
3103 1881 -1.000000000000000e+00
3103 2880 -1.009104138836425e+00
3103 3103 3.025536711548931e+00
3104 384 -1.000000000000000e+00
3104 555 -1.947082699019874e-02
3104 2722 -2.116797498622729e-02
3104 2727 -1.000000000000000e+00
3104 3104 2.066030367047262e+00
3105 5 -1.000000000000000e+00
3105 219 -3.274226180577033e-02
3105 268 -2.736332796967230e-02
3105 271 -1.000000000000000e+00
3105 327 -2.279067854688473e-02
3105 373 -1.939343503758287e-02
3105 658 -1.438217967231602e-02
3105 662 -2.739031996444515e-02
3105 1149 -1.881768674270365e-02
3105 1201 -2.046884910674061e-02
3105 1228 -2.883091272942690e-02
3105 1429 -1.461108117548484e-02
3105 1655 -1.514921228015895e-02
3105 1844 -1.952004094580941e-02
3105 2106 -2.190100268813134e-02
3105 2296 -1.752088735216283e-02
3105 2769 -1.887370774795119e-02
3105 2993 -2.087294490273018e-02
3105 3105 3.442652338864634e+00
3106 481 -2.655436797349103e-02
3106 741 -1.000000000000000e+00
3106 764 -1.029989612010314e-02
3106 2255 -1.000000000000000e+00
3106 3106 9.036854264093595e+00
3107 565 -1.011683736186189e-02
3107 1094 -1.000000000000000e+00
3107 1181 -1.738925195986550e-02
3107 1647 -1.000000000000000e+00
3107 2225 -1.244292565325183e-02
3107 2238 -6.684197807029032e-03
3107 3107 2.055294614090769e+00
3108 180 -1.000000000000000e+00
3108 582 -1.000000000000000e+00
3108 2962 -3.390747889011948e-02
3108 3108 2.055830830688681e+00
3109 650 -1.000000000000000e+00
3109 1602 -1.374330977347623e-03
3109 2189 -1.015939816308085e+00
3109 3109 4.017314147285433e+00
3110 221 -2.444823116752808e-02
3110 581 -3.310873155941249e-02
3110 1176 -1.000000000000000e+00
3110 1497 -2.091029795234783e-02
3110 1817 -1.000000000000000e+00
3110 3110 2.099782802908642e+00
3111 67 -1.000000000000000e+00
3111 371 -7.163335211155994e-03
3111 733 -2.014080402779712e-02
3111 1293 -1.000000000000000e+00
3111 3110 -2.131554222935392e-02
3111 3111 2.072464825956204e+00
3112 780 -1.000000000000000e+00
3112 1332 -1.000000000000000e+00
3112 2534 -8.214163748925684e-03
3112 2909 -1.091711640413308e-03
3112 3112 3.027993930913317e+00
3113 1525 -1.000000000000000e+00
3113 1691 -1.000000000000000e+00
3113 3113 2.029466008191088e+00
3114 1425 -5.760610294884849e-03
3114 1766 -1.000000000000000e+00
3114 2596 -1.001215986224625e+00
3114 3114 2.006976596519511e+00
3115 6 -1.000000000000000e+00
3115 447 -8.240104311600787e-03
3115 1327 -1.000000000000000e+00
3115 2128 -1.038014356926498e-02
3115 3115 2.018620247880866e+00
3116 988 -1.000000000000000e+00
3116 1081 -1.000000000000000e+00
3116 1909 -1.000000000000000e+00
3116 1941 -9.463843619218934e-03
3116 2632 -5.021060297269950e-03
3116 3116 3.023653718371126e+00
3117 1602 -7.065093014691673e-03
3117 1885 -2.960632038788846e-03
3117 2237 -1.000000000000000e+00
3117 2309 -1.000000000000000e+00
3117 3117 3.010025725053481e+00
3118 99 -1.000000000000000e+00
3118 173 -1.000000000000000e+00
3118 3118 3.000000000000000e+00
3119 1460 -1.882039195448535e-03
3119 2256 -1.000000000000000e+00
3119 3052 -1.007276769506461e+00
3119 3119 3.014415598894092e+00
3120 1043 -1.000000000000000e+00
3120 1477 -1.013151964564346e+00
3120 3120 5.019746923978814e+00
3121 97 -1.000000000000000e+00
3121 563 -3.251493626523587e-03
3121 1835 -1.000000000000000e+00
3121 3121 2.026001629763976e+00
3122 3 -1.000000000000000e+00
3122 223 -9.079261621453210e-03
3122 260 -1.839435464844474e-02
3122 523 -1.162873943881513e-02
3122 670 -1.000000000000000e+00
3122 3122 2.072762943430550e+00
3123 144 -1.000000000000000e+00
3123 2977 -1.004114461822693e+00
3123 3123 3.004114461822693e+00
3124 69 -8.445885669178822e-03
3124 954 -1.000000000000000e+00
3124 1357 -1.168408513402065e-02
3124 2246 -1.000000000000000e+00
3124 3124 3.032861845149324e+00
3125 69 -1.000000000000000e+00
3125 133 -1.000000000000000e+00
3125 368 -1.430230662225419e-02
3125 2034 -1.605331708406522e-02
3125 2085 -1.956498349941632e-02
3125 2722 -1.870045247117207e-02
3125 3086 -1.000000000000000e+00
3125 3125 6.111223165647099e+00
3126 2 -1.000000000000000e+00
3126 102 -1.000000000000000e+00
3126 2624 -2.790281640991171e-02
3126 3126 4.059439531688101e+00
3127 29 -1.000000000000000e+00
3127 377 -1.000000000000000e+00
3127 3127 3.000000000000000e+00
3128 882 -1.024325748746232e+00
3128 911 -1.000000000000000e+00
3128 2554 -1.146974243874446e-02
3128 3128 2.035795491184976e+00
3129 91 -1.000000000000000e+00
3129 1292 -1.007333614190321e+00
3129 3129 2.019025018606239e+00
3130 550 -1.002115306369372e+00
3130 933 -1.000000000000000e+00
3130 3080 -6.747100482860072e-03
3130 3130 2.008862406852232e+00
3131 115 -1.000000000000000e+00
3131 2257 -3.018425044240386e-02
3131 2270 -1.000000000000000e+00
3131 2407 -1.126429168762469e-02
3131 3131 3.041448542130028e+00
3132 50 -1.000000000000000e+00
3132 1069 -4.500828356500780e-04
3132 1106 -1.000000000000000e+00
3132 2281 -1.000000000000000e+00
3132 3132 4.014478301707840e+00
3133 112 -1.000000000000000e+00
3133 146 -1.547440673057934e-02
3133 199 -1.511884501266162e-02
3133 636 -1.000000000000000e+00
3133 2714 -1.650572802097615e-02
3133 3133 2.047098979764217e+00
3134 157 -1.000000000000000e+00
3134 294 -1.000000000000000e+00
3134 3134 3.010929603687584e+00
3135 1459 -1.000000000000000e+00
3135 1888 -1.013425541921716e+00
3135 3135 2.034050593895038e+00
3136 149 -1.000000000000000e+00
3136 569 -1.000000000000000e+00
3136 706 -1.882464243134804e-02
3136 2014 -1.122742872093227e-02
3136 3136 2.030052071152280e+00
3137 56 -1.000000000000000e+00
3137 209 -7.091674909320275e-03
3137 1506 -1.000000000000000e+00
3137 3137 4.018298370658611e+00
3138 32 -1.000000000000000e+00
3138 2202 -2.366517010869037e-02
3138 2387 -1.000000000000000e+00
3138 3138 2.076978508599234e+00
3139 92 -1.000000000000000e+00
3139 1052 -1.000000000000000e+00
3139 3139 2.033466930273381e+00
3140 28 -1.000000000000000e+00
3140 377 -1.009665220595295e+00
3140 977 -2.134064877799214e-02
3140 3140 2.031005869373287e+00
3141 1640 -1.000000000000000e+00
3141 2339 -1.002933771598559e+00
3141 3141 2.005581365952509e+00
3142 538 -1.168529062217179e-02
3142 893 -1.000000000000000e+00
3142 958 -1.828234389560107e-02
3142 2333 -1.000000000000000e+00
3142 3142 4.029967634517773e+00
3143 1 -1.000000000000000e+00
3143 2397 -5.371822636215934e-03
3143 3010 -1.013563981412009e+00
3143 3088 -1.118982384759828e-02
3143 3143 2.030125627895823e+00
3144 29 -1.435803118924588e-02
3144 1332 -1.000000000000000e+00
3144 2413 -1.509175261435309e-02
3144 2966 -1.000000000000000e+00
3144 3144 5.048121111772352e+00
3145 622 -1.000000000000000e+00
3145 1899 -1.000000000000000e+00
3145 3145 3.000682600622412e+00
3146 87 -1.728387643410058e-02
3146 640 -1.300291601463362e-02
3146 1125 -1.900304353711587e-02
3146 2002 -1.000000000000000e+00
3146 2827 -1.000000000000000e+00
3146 3146 2.095545287713163e+00
3147 545 -1.000000000000000e+00
3147 2363 -2.574407009812284e-02
3147 2881 -1.000000000000000e+00
3147 3147 2.044496319556113e+00
3148 393 -1.000000000000000e+00
3148 1512 -1.001509918511299e-02
3148 1693 -1.000000000000000e+00
3148 3148 2.031033743220148e+00
3149 253 -1.000000000000000e+00
3149 2633 -1.000000000000000e+00
3149 3149 3.000000000000000e+00
3150 33 -1.000000000000000e+00
3150 725 -2.113716329716468e-02
3150 1596 -1.000000000000000e+00
3150 3150 4.025865077605508e+00
3151 274 -1.000000000000000e+00
3151 1268 -1.583368484742927e-03
3151 1565 -1.000000000000000e+00
3151 2208 -4.690685959673590e-03
3151 3151 3.006274054444416e+00
3152 12 -1.000000000000000e+00
3152 63 -1.000000000000000e+00
3152 397 -1.000000000000000e+00
3152 868 -1.618490395935615e-02
3152 3152 3.066372752376044e+00
3153 14 -1.000000000000000e+00
3153 1372 -1.000000000000000e+00
3153 1703 -1.348457576988355e-02
3153 1749 -1.000000000000000e+00
3153 2396 -1.038656254508583e-02
3153 3153 3.041800942811118e+00
3154 499 -1.001341985656545e+00
3154 711 -2.331503098193502e-03
3154 1104 -3.316481707734108e-03
3154 1781 -1.002235605043690e+00
3154 3154 5.011719805932196e+00
3155 496 -1.000000000000000e+00
3155 931 -1.000000000000000e+00
3155 1726 -1.482669060833772e-02
3155 3155 4.022998460102620e+00
3156 32 -1.000000000000000e+00
3156 580 -1.919757578950723e-02
3156 1274 -2.209866875752651e-02
3156 1404 -1.361367210700400e-02
3156 2091 -2.449719607945787e-02
3156 2391 -1.226420836037534e-02
3156 2676 -1.000000000000000e+00
3156 2753 -2.861752111860413e-02
3156 2945 -1.781730469574712e-02
3156 3036 -1.339900035748882e-02
3156 3156 2.158149534808279e+00
3157 49 -1.000000000000000e+00
3157 612 -1.000000000000000e+00
3157 822 -1.000000000000000e+00
3157 2221 -1.755905307738634e-02
3157 3157 3.030946453676064e+00
3158 182 -1.000000000000000e+00
3158 311 -1.000000000000000e+00
3158 3158 4.016196646609000e+00
3159 224 -1.000000000000000e+00
3159 1569 -1.000000000000000e+00
3159 3159 2.025056060259016e+00
3160 397 -1.000000000000000e+00
3160 2150 -1.000000000000000e+00
3160 3160 3.046224350407222e+00
3161 171 -1.006319944512179e+00
3161 1310 -1.000000000000000e+00
3161 3058 -1.000000000000000e+00
3161 3161 3.013911993504971e+00
3162 2214 -1.009349109513012e+00
3162 2316 -1.001519545361214e+00
3162 3162 2.010868654874226e+00
3163 107 -1.133365673770961e-02
3163 615 -1.000000000000000e+00
3163 1341 -1.000000000000000e+00
3163 2066 -8.877156480951044e-03
3163 2448 -6.605803517389272e-03
3163 3163 2.062289012853638e+00
3164 50 -1.000000000000000e+00
3164 1614 -2.431585830612641e-02
3164 1863 -1.408483632821987e-02
3164 2060 -1.000000000000000e+00
3164 3164 2.038400694634346e+00
3165 17 -1.809725496765264e-02
3165 37 -2.358580548843765e-02
3165 120 -1.000000000000000e+00
3165 143 -1.000000000000000e+00
3165 1182 -1.030550159466574e-02
3165 3165 2.051988562050756e+00
3166 209 -1.000000000000000e+00
3166 1621 -1.000000000000000e+00
3166 1724 -2.098007811203644e-02
3166 1871 -1.868039794338035e-02
3166 3166 2.039660476055417e+00
3167 330 -1.000000000000000e+00
3167 550 -1.973698698650916e-02
3167 2999 -1.000000000000000e+00
3167 3080 -1.674484904115869e-02
3167 3167 2.036481836027668e+00
3168 226 -1.000000000000000e+00
3168 1217 -1.381990963149075e-02
3168 1489 -1.452289737898390e-02
3168 3086 -1.000000000000000e+00
3168 3168 3.042584940470765e+00
3169 286 -2.293081360396673e-02
3169 431 -6.555532090157778e-03
3169 1644 -1.000000000000000e+00
3169 2440 -1.000000000000000e+00
3169 3169 4.078517835808684e+00
3170 75 -4.571367587049418e-03
3170 371 -1.022101013735092e+00
3170 990 -1.000000000000000e+00
3170 3170 2.026672381322141e+00
3171 912 -1.000000000000000e+00
3171 1076 -1.000000000000000e+00
3171 1123 -5.689990222424722e-03
3171 1882 -1.728652077018077e-02
3171 2691 -7.564984407268030e-03
3171 3171 3.030541495399873e+00
3172 2 -1.000000000000000e+00
3172 1189 -1.000000000000000e+00
3172 2089 -2.857034066396751e-02
3172 3172 3.050611686594998e+00
3173 160 -1.000000000000000e+00
3173 484 -2.067727577326294e-02
3173 591 -1.000000000000000e+00
3173 1182 -1.000000000000000e+00
3173 2098 -2.419663165156669e-02
3173 3173 3.044873907424829e+00
3174 49 -1.000000000000000e+00
3174 1379 -1.000000000000000e+00
3174 1492 -2.361156788786905e-02
3174 2635 -1.828628232767015e-02
3174 3174 2.041897850215539e+00
3175 22 -1.000000000000000e+00
3175 2343 -1.000000000000000e+00
3175 2418 -8.512286723002659e-03
3175 3175 2.029355350255391e+00
3176 204 -1.000000000000000e+00
3176 2039 -1.000000000000000e+00
3176 2206 -3.609199529291476e-02
3176 2373 -1.958147263928374e-02
3176 3055 -1.000000000000000e+00
3176 3176 3.055673467932198e+00
3177 70 -1.000000000000000e+00
3177 466 -1.973076895880997e-02
3177 723 -1.000000000000000e+00
3177 1111 -2.440370276405683e-02
3177 1498 -1.917548752992520e-02
3177 2261 -1.781835285911720e-02
3177 3177 2.095438961806664e+00
3178 151 -1.000000000000000e+00
3178 280 -1.000000000000000e+00
3178 2626 -1.000000000000000e+00
3178 2804 -1.247388664455143e-02
3178 3169 -6.400410788934979e-03
3178 3178 3.018874297433487e+00
3179 352 -1.442824763714707e-02
3179 798 -1.000000000000000e+00
3179 1023 -1.000000000000000e+00
3179 2423 -1.991753310142060e-02
3179 3179 3.062854698692165e+00
3180 642 -1.027730948522569e-02
3180 837 -1.534248823539632e-02
3180 1782 -1.000000000000000e+00
3180 3172 -1.000000000000000e+00
3180 3180 2.035132941439892e+00
3181 179 -1.000000000000000e+00
3181 297 -1.000000000000000e+00
3181 850 -1.990838271859391e-02
3181 903 -2.833219254505509e-02
3181 2321 -2.902241731154924e-02
3181 3181 2.077262992575198e+00
3182 292 -1.000000000000000e+00
3182 789 -2.749300851142101e-02
3182 1136 -1.889515191458744e-02
3182 2246 -1.000000000000000e+00
3182 3182 2.100342436628607e+00
3183 551 -7.102636561954408e-03
3183 1972 -1.020151790098148e+00
3183 2293 -1.000000000000000e+00
3183 3040 -5.947555861174993e-03
3183 3183 2.087943201429873e+00
3184 32 -1.000000000000000e+00
3184 102 -4.304172343082668e-03
3184 320 -1.000000000000000e+00
3184 556 -7.874011685777012e-03
3184 3184 3.020318041685653e+00
3185 882 -1.000000000000000e+00
3185 2411 -1.597335135127281e-02
3185 2674 -1.000000000000000e+00
3185 3124 -1.000000000000000e+00
3185 3185 4.031156227806338e+00
3186 178 -1.000000000000000e+00
3186 1217 -1.848767264409851e-02
3186 2098 -1.000000000000000e+00
3186 3168 -1.424213346029053e-02
3186 3186 5.032729806104389e+00
3187 1061 -1.670002400742878e-02
3187 1785 -1.000000000000000e+00
3187 2301 -1.000000000000000e+00
3187 3187 2.038265781273615e+00
3188 40 -1.000000000000000e+00
3188 742 -1.000000000000000e+00
3188 3188 4.061784231805725e+00
3189 841 -9.949324056436799e-03
3189 995 -1.000000000000000e+00
3189 1011 -1.000000000000000e+00
3189 2706 -2.731210915834559e-02
3189 3189 3.046741191183605e+00
3190 229 -1.000000000000000e+00
3190 516 -1.291048541545250e-02
3190 983 -9.807360837685273e-03
3190 1093 -1.000000000000000e+00
3190 3190 3.035469890735308e+00
3191 1764 -1.022876630389257e+00
3191 2263 -1.000000000000000e+00
3191 3184 -1.000000000000000e+00
3191 3191 4.027383081619477e+00
3192 1327 -1.000000000000000e+00
3192 2014 -1.790429880707294e-02
3192 2400 -1.508602132965439e-02
3192 2807 -1.016756009086448e+00
3192 3192 3.049746329223176e+00
3193 369 -1.000000000000000e+00
3193 406 -1.000000000000000e+00
3193 1273 -3.223682362978532e-03
3193 3193 3.006783467512767e+00
3194 463 -1.008887288532054e+00
3194 2115 -1.000000000000000e+00
3194 2180 -9.069652812413516e-03
3194 3194 2.017956941344467e+00
3195 311 -1.317272177678541e-02
3195 414 -1.000000000000000e+00
3195 1737 -1.000000000000000e+00
3195 1895 -1.956189576339297e-02
3195 3195 2.073146851806327e+00
3196 392 -2.214364167902544e-02
3196 619 -1.694487721088936e-02
3196 685 -2.707112570436951e-02
3196 913 -1.000000000000000e+00
3196 1105 -2.664462825863289e-02
3196 1429 -1.000000000000000e+00
3196 1689 -1.857633819008099e-02
3196 2244 -1.884958947895518e-02
3196 3196 2.167472188243834e+00
3197 11 -1.000000000000000e+00
3197 1316 -1.000000000000000e+00
3197 3197 4.017524904785524e+00
3198 36 -1.000000000000000e+00
3198 263 -2.383427117485336e-04
3198 1321 -6.045321597862115e-03
3198 2435 -1.005294436717590e+00
3198 3198 2.011578101027201e+00
3199 70 -1.000000000000000e+00
3199 2687 -1.000000000000000e+00
3199 3199 2.044446448290247e+00
3200 1251 -1.000000000000000e+00
3200 2549 -2.079863662035907e-02
3200 3155 -1.000000000000000e+00
3200 3200 4.049660051163364e+00
3201 536 -1.000000000000000e+00
3201 1076 -1.000000000000000e+00
3201 2692 -9.832509554221024e-05
3201 3201 4.016655683725194e+00
3202 5 -1.000000000000000e+00
3202 27 -1.000000000000000e+00
3202 576 -1.863804972170808e-03
3202 1906 -1.834541997307853e-02
3202 3027 -1.310039459755753e-02
3202 3202 2.074088223845667e+00
3203 164 -1.000000000000000e+00
3203 641 -3.093791837532977e-02
3203 1071 -2.553589154096833e-02
3203 1348 -3.503600499963978e-02
3203 2545 -2.404985343749310e-02
3203 2555 -1.000000000000000e+00
3203 3203 2.165080474170939e+00
3204 180 -1.000000000000000e+00
3204 186 -1.000000000000000e+00
3204 1430 -1.919569515777380e-02
3204 1820 -2.092891405998538e-02
3204 3204 2.040124609217759e+00
3205 360 -1.000000000000000e+00
3205 820 -1.000000000000000e+00
3205 827 -2.923436330899797e-02
3205 975 -2.998421730514271e-02
3205 3205 2.059218580614141e+00
3206 688 -1.000000000000000e+00
3206 1657 -3.507443943697894e-03
3206 1865 -1.000000000000000e+00
3206 2771 -5.652108798401498e-03
3206 3206 3.031016483538091e+00
3207 421 -2.774611474653509e-02
3207 481 -9.902920849019179e-03
3207 641 -1.000000000000000e+00
3207 1767 -1.269928622799920e-02
3207 3106 -1.000000000000000e+00
3207 3207 2.050348321823554e+00
3208 183 -1.788493051049533e-02
3208 191 -1.000000000000000e+00
3208 2986 -1.000000000000000e+00
3208 3208 2.031462362965904e+00
3209 85 -1.000000000000000e+00
3209 229 -1.000000000000000e+00
3209 1035 -1.878321797047968e-02
3209 3209 2.032883366523134e+00
3210 100 -1.000000000000000e+00
3210 226 -5.907797476795360e-03
3210 998 -1.000000000000000e+00
3210 1224 -2.505509087994163e-02
3210 3210 2.030962888356737e+00
3211 607 -1.000000000000000e+00
3211 2546 -1.000000000000000e+00
3211 3211 3.000000000000000e+00
3212 16 -1.000000000000000e+00
3212 35 -1.000000000000000e+00
3212 1525 -1.436518423134278e-02
3212 2060 -3.516099288050224e-02
3212 3212 2.073384208668415e+00
3213 349 -1.000000000000000e+00
3213 362 -4.285330111742949e-03
3213 2844 -1.006810173656522e+00
3213 3213 2.025625995384436e+00
3214 458 -1.000000000000000e+00
3214 1252 -1.000000000000000e+00
3214 3214 2.023799963403279e+00
3215 126 -1.000000000000000e+00
3215 1932 -1.000000000000000e+00
3215 3215 3.038620723959311e+00
3216 50 -1.000000000000000e+00
3216 88 -1.000000000000000e+00
3216 2452 -2.751437279775825e-02
3216 2949 -2.640730518238604e-02
3216 3216 2.053921677980144e+00
3217 220 -1.000000000000000e+00
3217 541 -1.023279143039705e+00
3217 3217 2.023582883191426e+00
3218 870 -1.000000000000000e+00
3218 1450 -9.098329137286166e-04
3218 2206 -1.000000000000000e+00
3218 3218 2.006274132676358e+00
3219 1 -1.000000000000000e+00
3219 642 -8.971202592175327e-03
3219 837 -1.000000000000000e+00
3219 2108 -1.000000000000000e+00
3219 3219 5.022971271485607e+00
3220 1503 -1.000000000000000e+00
3220 1942 -1.000000000000000e+00
3220 3007 -2.527252636716941e-02
3220 3220 3.048290961629228e+00
3221 112 -1.015790995100587e+00
3221 2250 -1.000000000000000e+00
3221 2887 -1.905344336081543e-02
3221 3221 2.048168403520066e+00
3222 519 -1.000000000000000e+00
3222 1495 -1.298967840577554e-02
3222 2554 -1.023506298203261e+00
3222 3222 2.047271660633058e+00
3223 75 -1.574526065126802e-02
3223 581 -1.000000000000000e+00
3223 2992 -1.000000000000000e+00
3223 3111 -2.384514448789669e-02
3223 3223 2.039590405139165e+00
3224 41 -1.000000000000000e+00
3224 172 -1.519014801421724e-02
3224 234 -1.000000000000000e+00
3224 840 -1.674551056221498e-02
3224 3224 4.031935658576432e+00
3225 20 -1.000000000000000e+00
3225 70 -1.000000000000000e+00
3225 613 -5.422130235561608e-03
3225 2342 -1.201721342224753e-02
3225 3225 2.017439343657809e+00
3226 87 -1.058315738165986e-02
3226 242 -1.087932470604799e-02
3226 669 -1.358080279176194e-02
3226 1125 -1.437863769262105e-02
3226 1545 -1.000000000000000e+00
3226 2002 -1.320965823985030e-02
3226 2390 -1.000000000000000e+00
3226 2737 -1.125887740080628e-02
3226 2935 -9.128891824519456e-03
3226 3226 3.100169828385029e+00
3227 934 -1.239443513660629e-02
3227 2160 -1.000000000000000e+00
3227 2627 -1.643809476854596e-02
3227 2720 -1.000000000000000e+00
3227 3227 4.056874239268329e+00
3228 29 -1.003144348107703e+00
3228 166 -1.000000000000000e+00
3228 3228 2.033389642626222e+00
3229 7 -1.000000000000000e+00
3229 700 -1.000000000000000e+00
3229 835 -9.294359329333956e-03
3229 1920 -1.502112539651942e-02
3229 1992 -1.092595394581142e-02
3229 3005 -1.638154849126483e-02
3229 3229 3.059753993848877e+00
3230 177 -1.000000000000000e+00
3230 206 -1.000000000000000e+00
3230 365 -9.020542967667676e-03
3230 2526 -1.713115900355969e-02
3230 3230 2.057676862426216e+00
3231 1184 -1.009610308129033e-02
3231 1672 -1.000000000000000e+00
3231 2855 -1.000000000000000e+00
3231 3231 3.018586005051341e+00
3232 1 -1.000000000000000e+00
3232 68 -1.007569901204923e+00
3232 3232 2.018236883126399e+00
3233 28 -1.000000000000000e+00
3233 1976 -1.350174941038404e-02
3233 2108 -1.098708769017975e-02
3233 2684 -1.000000000000000e+00
3233 3233 3.046082550326573e+00
3234 1 -1.000000000000000e+00
3234 275 -1.000768237358732e+00
3234 2816 -1.816026775884261e-02
3234 3234 2.043277395321648e+00
3235 1594 -1.000000000000000e+00
3235 2707 -1.000000000000000e+00
3235 2918 -1.914481496647896e-02
3235 2939 -1.003623988778641e+00
3235 3235 3.038944234783165e+00
3236 5 -1.000000000000000e+00
3236 219 -2.175025968188522e-02
3236 1135 -2.457029535989708e-02
3236 2103 -2.225737740032292e-02
3236 2418 -1.165088662449557e-02
3236 2718 -1.000000000000000e+00
3236 2893 -2.725928305807310e-02
3236 3053 -1.846903941364028e-02
3236 3105 -3.162715694345255e-02
3236 3236 4.238369426964892e+00
3237 158 -1.000000000000000e+00
3237 638 -1.371090075383404e-02
3237 2706 -1.000000000000000e+00
3237 3237 2.031797278513507e+00
3238 44 -1.000000000000000e+00
3238 444 -1.016169370865011e+00
3238 3238 3.024685170188431e+00
3239 357 -1.000000000000000e+00
3239 478 -3.016320101187675e-02
3239 2662 -1.000000000000000e+00
3239 3239 3.051699940424301e+00
3240 455 -1.005938219335800e+00
3240 601 -1.195680305600471e-02
3240 949 -1.000000000000000e+00
3240 1011 -3.571777687106047e-02
3240 3189 -9.479757968822647e-03
3240 3240 2.076632138734076e+00
3241 119 -1.000000000000000e+00
3241 1136 -1.724959871663642e-02
3241 2085 -1.000000000000000e+00
3241 3241 2.031671963430835e+00
3242 410 -1.000000000000000e+00
3242 2438 -1.011137145428824e+00
3242 2909 -1.000000000000000e+00
3242 3112 -5.000305484701567e-04
3242 3242 3.011637175977295e+00
3243 12 -1.000000000000000e+00
3243 47 -1.000000000000000e+00
3243 868 -2.168509881970850e-02
3243 3243 2.034322718370832e+00
3244 463 -1.000000000000000e+00
3244 2448 -1.000000000000000e+00
3244 3244 3.022513368559078e+00
3245 363 -1.000000000000000e+00
3245 766 -1.000000000000000e+00
3245 1162 -5.026396047563292e-03
3245 1733 -1.419168427242649e-02
3245 3060 -1.603970563751850e-02
3245 3245 2.035257785957509e+00
3246 817 -1.000000000000000e+00
3246 2053 -1.007825395459003e+00
3246 3246 2.031772196630573e+00
3247 563 -2.174882454677506e-02
3247 868 -1.000000000000000e+00
3247 1878 -1.000000000000000e+00
3247 2299 -1.000000000000000e+00
3247 2430 -1.089457574411235e-02
3247 2980 -1.772080698039287e-02
3247 3247 4.050364207271280e+00
3248 28 -1.000000000000000e+00
3248 1118 -1.000000000000000e+00
3248 2479 -2.392762210871019e-02
3248 3248 3.043371416397149e+00
3249 165 -1.000000000000000e+00
3249 368 -1.000000000000000e+00
3249 1500 -1.264735611592421e-02
3249 3124 -1.273187434612471e-02
3249 3125 -2.523403559149637e-02
3249 3249 2.050613266053545e+00
3250 1 -1.000000000000000e+00
3250 256 -2.982033744662059e-02
3250 894 -1.709695244559202e-02
3250 1251 -1.000000000000000e+00
3250 3250 2.046917289892213e+00
3251 423 -1.000000000000000e+00
3251 2009 -1.000000000000000e+00
3251 3251 3.000000000000000e+00
3252 539 -1.000000000000000e+00
3252 1460 -1.011771939224025e+00
3252 3052 -1.645437683663010e-03
3252 3252 2.013417376907688e+00
3253 11 -1.000000000000000e+00
3253 70 -1.000000000000000e+00
3253 3253 3.000000000000000e+00
3254 1368 -1.000000000000000e+00
3254 2805 -1.000000000000000e+00
3254 3254 2.041462334831654e+00
3255 7 -1.000000000000000e+00
3255 1247 -3.988911795554937e-03
3255 1458 -1.000000000000000e+00
3255 1977 -1.431256540010107e-02
3255 3255 2.018301477195656e+00
3256 23 -1.000000000000000e+00
3256 161 -2.088405408909456e-02
3256 2563 -1.000000000000000e+00
3256 3256 3.034610028449912e+00
3257 152 -1.000000000000000e+00
3257 1571 -1.000000000000000e+00
3257 2418 -5.952327705028422e-03
3257 3236 -2.177103580437527e-02
3257 3257 3.027723363509404e+00
3258 256 -1.000000000000000e+00
3258 538 -9.199967399329257e-03
3258 656 -8.958384238685804e-03
3258 1132 -1.000000000000000e+00
3258 3258 2.018158351638015e+00
3259 682 -1.000000000000000e+00
3259 1053 -1.000000000000000e+00
3259 1164 -9.973146792641146e-03
3259 2726 -3.803067567067201e-03
3259 3259 4.029703775367116e+00
3260 88 -1.951502012670643e-02
3260 123 -1.000000000000000e+00
3260 1588 -1.000000000000000e+00
3260 1638 -2.005037210230458e-02
3260 2161 -1.544945417291170e-02
3260 3260 2.055014846401923e+00
3261 620 -1.000000000000000e+00
3261 883 -2.559517788565244e-02
3261 1150 -1.000000000000000e+00
3261 3261 2.049183685569736e+00
3262 75 -1.993317995928640e-02
3262 208 -1.007508174648728e+00
3262 926 -1.000000000000000e+00
3262 3262 3.027441354608015e+00
3263 330 -1.000000000000000e+00
3263 1402 -1.000000000000000e+00
3263 3080 -2.972952665440010e-02
3263 3263 2.058425575322683e+00
3264 21 -1.000000000000000e+00
3264 2693 -1.000000000000000e+00
3264 2751 -4.697359991849543e-03
3264 3095 -1.509961616043714e-02
3264 3264 2.031265607661425e+00
3265 362 -1.000000000000000e+00
3265 1518 -3.290020983673469e-02
3265 2992 -1.000000000000000e+00
3265 3007 -1.680963088278129e-02
3265 3265 3.067151328659936e+00
3266 1568 -1.000000000000000e+00
3266 2135 -1.000000000000000e+00
3266 3266 3.009649150256289e+00
3267 1027 -1.000000000000000e+00
3267 2511 -1.009789160376097e+00
3267 3267 3.030733505105789e+00
3268 2529 -1.000000000000000e+00
3268 2814 -1.000000000000000e+00
3268 3268 4.043209674454681e+00
3269 934 -1.000000000000000e+00
3269 1175 -1.000000000000000e+00
3269 1280 -2.780980321529422e-02
3269 3269 2.028327938126164e+00
3270 467 -2.552127640636497e-03
3270 710 -1.866857153569847e-02
3270 987 -1.000000000000000e+00
3270 2349 -1.004030665939454e+00
3270 3270 3.037358753153027e+00
3271 628 -1.006666523429156e+00
3271 1749 -1.000000000000000e+00
3271 3271 2.075684079753193e+00
3272 249 -8.929442402375504e-03
3272 1158 -3.840324308676369e-03
3272 1282 -1.000000000000000e+00
3272 2482 -1.000000000000000e+00
3272 3272 4.012769766711052e+00
3273 1067 -1.000000000000000e+00
3273 1351 -1.000000000000000e+00
3273 1821 -6.324164757691398e-03
3273 1842 -1.000000000000000e+00
3273 1945 -2.647312909760773e-03
3273 2247 -1.000000000000000e+00
3273 3273 5.008971477667452e+00
3274 542 -1.000000000000000e+00
3274 2223 -1.012377056767839e+00
3274 3274 2.012377056767838e+00
3275 849 -1.000000000000000e+00
3275 2195 -2.315886136068115e-02
3275 2675 -1.000000000000000e+00
3275 3275 3.027023648472833e+00
3276 570 -1.000000000000000e+00
3276 2382 -1.000000000000000e+00
3276 3276 3.000000000000000e+00
3277 306 -1.000000000000000e+00
3277 431 -1.063589117288518e-02
3277 2005 -1.059067681841170e-02
3277 2804 -1.000000000000000e+00
3277 3277 3.021226567991297e+00
3278 568 -1.000000000000000e+00
3278 831 -1.000000000000000e+00
3278 1860 -1.546506920190134e-03
3278 2683 -9.555617407852414e-03
3278 3278 2.011102124328043e+00
3279 1268 -1.029477101761041e+00
3279 2071 -1.296509860739016e-02
3279 2217 -1.012000152256803e+00
3279 3279 2.068465132514316e+00
3280 1033 -1.384082402171626e-02
3280 1931 -2.886443443765438e-02
3280 2148 -1.000000000000000e+00
3280 2677 -1.000000000000000e+00
3280 3280 2.042705258459371e+00
3281 556 -1.000000000000000e+00
3281 1764 -1.000000000000000e+00
3281 3184 -8.139857656793212e-03
3281 3281 3.009303577710261e+00
3282 49 -1.000000000000000e+00
3282 597 -1.017808750334468e+00
3282 3282 2.031326137562281e+00
3283 1322 -2.589834737389778e-02
3283 2316 -1.000000000000000e+00
3283 2690 -1.000000000000000e+00
3283 3283 3.041577751981404e+00
3284 32 -1.000000000000000e+00
3284 47 -1.000000000000000e+00
3284 1584 -2.921943317004077e-02
3284 3284 3.042897986548934e+00
3285 280 -1.000000000000000e+00
3285 2285 -1.000000000000000e+00
3285 3285 2.011735149512438e+00
3286 1089 -2.072696739214167e-02
3286 1571 -1.000000000000000e+00
3286 2186 -1.330275252130481e-02
3286 2949 -1.000000000000000e+00
3286 3286 2.034029719913446e+00
3287 141 -1.000000000000000e+00
3287 487 -1.000000000000000e+00
3287 1087 -1.312150543129472e-02
3287 1247 -7.549513827501311e-03
3287 1700 -1.000000000000000e+00
3287 3287 4.020671019258796e+00
3288 297 -1.000000000000000e+00
3288 798 -1.903661924821547e-02
3288 1303 -1.000000000000000e+00
3288 3288 2.039534780716703e+00
3289 123 -1.000000000000000e+00
3289 1932 -6.439560632944809e-03
3289 2857 -1.000000000000000e+00
3289 3289 2.007856732867870e+00
3290 133 -1.000000000000000e+00
3290 2387 -1.000000000000000e+00
3290 2457 -8.763125408675793e-03
3290 3290 2.041097175177199e+00
3291 906 -1.000000000000000e+00
3291 1573 -1.768578874221736e-02
3291 1698 -1.000000000000000e+00
3291 2691 -1.477822012210862e-02
3291 3291 2.032464008864326e+00
3292 371 -8.159873669502573e-03
3292 1245 -1.000000000000000e+00
3292 1817 -1.000000000000000e+00
3292 3292 3.020122876850201e+00
3293 780 -1.000000000000000e+00
3293 974 -1.107298719727640e-03
3293 2611 -1.013704138287673e+00
3293 3293 3.024292489167335e+00
3294 2 -1.000000000000000e+00
3294 994 -1.000000000000000e+00
3294 3294 3.008912241663741e+00
3295 292 -1.000000000000000e+00
3295 411 -2.625635874915624e-02
3295 520 -1.902571514201197e-02
3295 2115 -1.000000000000000e+00
3295 2670 -1.562460903394988e-02
3295 3295 2.080163043533050e+00
3296 67 -1.000000000000000e+00
3296 772 -1.000000000000000e+00
3296 3296 2.040445072837311e+00
3297 541 -1.024116832763775e+00
3297 759 -1.000000000000000e+00
3297 1204 -1.049370655600264e-02
3297 2127 -3.605231270012553e-03
3297 2303 -9.560116378774871e-03
3297 3217 -3.037401517215457e-04
3297 3297 2.062038757135664e+00
3298 88 -1.000000000000000e+00
3298 3125 -1.000000000000000e+00
3298 3298 3.015850650351688e+00
3299 59 -1.001934879997988e+00
3299 2509 -1.011171168711811e+00
3299 3299 2.033874078085918e+00
3300 154 -1.000000000000000e+00
3300 373 -2.360101441275043e-02
3300 2483 -1.000000000000000e+00
3300 2624 -2.311946847170666e-02
3300 3300 3.046720482884457e+00
3301 1583 -1.000000000000000e+00
3301 2037 -9.611304539106458e-03
3301 2325 -1.000000000000000e+00
3301 3301 2.042885250382672e+00
3302 948 -1.000000000000000e+00
3302 1060 -2.325053049971473e-02
3302 2445 -1.000000000000000e+00
3302 2799 -1.692590166520478e-02
3302 3302 2.054494960907783e+00
3303 242 -1.000000000000000e+00
3303 948 -1.000000000000000e+00
3303 3146 -2.226625717023336e-02
3303 3303 2.029632722911282e+00
3304 109 -1.000000000000000e+00
3304 429 -1.733112963065838e-02
3304 1926 -3.806262323203343e-03
3304 2096 -1.000000000000000e+00
3304 3304 3.021137391953862e+00
3305 328 -1.000000000000000e+00
3305 464 -2.491519796230141e-02
3305 1474 -1.000000000000000e+00
3305 3305 2.041779684407793e+00
3306 11 -1.000000000000000e+00
3306 352 -9.961010333522050e-03
3306 941 -1.000000000000000e+00
3306 2112 -2.251237583200671e-02
3306 2821 -1.000000000000000e+00
3306 3306 3.032473386165529e+00
3307 2 -1.000000000000000e+00
3307 427 -1.005208689431922e+00
3307 961 -4.000322294589007e-03
3307 1012 -2.268814620173279e-03
3307 1197 -2.188826135837928e-02
3307 1295 -4.311371891312406e-03
3307 1519 -2.026433111255412e-02
3307 1584 -4.264452100120089e-03
3307 1610 -4.190120564419122e-03
3307 2031 -1.494595481518540e-03
3307 3284 -1.545200463477093e-03
3307 3307 2.079984839988950e+00
3308 35 -2.722853072021412e-02
3308 205 -1.934104160825378e-02
3308 2060 -1.000000000000000e+00
3308 2479 -1.000000000000000e+00
3308 2769 -1.000000000000000e+00
3308 3212 -2.385803155657019e-02
3308 3308 4.090303823898910e+00
3309 266 -1.682793773888413e-02
3309 363 -1.689693060432040e-02
3309 766 -1.000000000000000e+00
3309 875 -3.334566070025104e-03
3309 1426 -4.879555060743339e-03
3309 1538 -1.248989920062946e-02
3309 1950 -1.000000000000000e+00
3309 3075 -1.203560835967903e-02
3309 3309 2.082026814028477e+00
3310 1047 -1.193082870765013e-02
3310 1534 -1.000000000000000e+00
3310 2663 -1.000000000000000e+00
3310 3034 -1.763307331944768e-02
3310 3310 2.054781387260943e+00
3311 284 -1.000000000000000e+00
3311 413 -1.671006042630255e-02
3311 756 -1.014539581516658e+00
3311 1407 -1.525855485305677e-02
3311 2045 -1.192416282476414e-02
3311 3311 3.058432359620781e+00
3312 1943 -1.000000000000000e+00
3312 2015 -1.000000000000000e+00
3312 3080 -9.949388681403193e-04
3312 3263 -2.869604866828280e-02
3312 3312 2.029690987536423e+00
3313 158 -1.000000000000000e+00
3313 673 -1.000000000000000e+00
3313 841 -3.422993967038180e-03
3313 949 -1.170841917833087e-02
3313 3313 2.015131413145369e+00
3314 794 -1.008595383232399e+00
3314 929 -1.001122582057332e+00
3314 2297 -4.514061326277852e-03
3314 3314 3.017400046301859e+00
3315 25 -1.000000000000000e+00
3315 1676 -1.000000000000000e+00
3315 2612 -7.634184582079346e-03
3315 3315 2.011582892555446e+00
3316 46 -1.000000000000000e+00
3316 3134 -1.002137591993952e+00
3316 3316 3.003678680529784e+00
3317 333 -1.000000000000000e+00
3317 1694 -1.000000000000000e+00
3317 3317 3.020021631114172e+00
3318 268 -3.456233209005487e-02
3318 914 -1.000000000000000e+00
3318 1149 -2.847830955032780e-02
3318 1586 -3.944191433340311e-02
3318 3043 -1.000000000000000e+00
3318 3064 -2.647024446233815e-02
3318 3318 2.175503642943195e+00
3319 833 -1.000000000000000e+00
3319 2642 -7.222666965425954e-03
3319 2752 -1.000000000000000e+00
3319 3319 2.008051384020448e+00
3320 840 -1.000000000000000e+00
3320 2971 -1.396338477471783e-02
3320 3106 -1.000000000000000e+00
3320 3320 2.019830260144567e+00
3321 273 -1.012359966912908e+00
3321 572 -1.000000000000000e+00
3321 2759 -8.233490785201853e-03
3321 3321 3.029242274558338e+00
3322 152 -1.000000000000000e+00
3322 182 -1.000000000000000e+00
3322 1306 -1.557200785263735e-02
3322 2563 -1.027352249654510e-02
3322 3322 2.042469846461324e+00
3323 912 -1.000000000000000e+00
3323 2009 -1.000000000000000e+00
3323 3323 3.000000000000000e+00
3324 44 -1.000000000000000e+00
3324 339 -1.688538312391728e-03
3324 1333 -1.000000000000000e+00
3324 3324 3.010164197054013e+00
3325 70 -1.000000000000000e+00
3325 1007 -3.017152761935124e-03
3325 1013 -1.003629367015783e+00
3325 2347 -2.220788578889524e-02
3325 3325 2.030972750792180e+00
3326 22 -1.000000000000000e+00
3326 1231 -2.339966101438045e-02
3326 2246 -1.000000000000000e+00
3326 3326 5.063466710258132e+00
3327 75 -1.000000000000000e+00
3327 1469 -1.007790948548530e+00
3327 3327 3.028179461176929e+00
3328 1467 -1.000000000000000e+00
3328 3014 -1.000000000000000e+00
3328 3328 2.026203216672508e+00
3329 1123 -9.845468299058363e-03
3329 1284 -1.000000000000000e+00
3329 1759 -2.399222934685020e-02
3329 2952 -1.000000000000000e+00
3329 3329 2.033837697645909e+00
3330 384 -1.000000000000000e+00
3330 472 -1.633641107942117e-03
3330 2507 -1.013788783677928e+00
3330 3330 2.020067550505665e+00
3331 1 -1.000000000000000e+00
3331 202 -2.083544411965994e-02
3331 511 -2.627011968647171e-02
3331 1024 -2.838148525698466e-02
3331 1373 -2.669175210105110e-02
3331 2345 -1.000000000000000e+00
3331 3331 2.132501263532496e+00
3332 1233 -1.005752328643366e+00
3332 1589 -1.000000000000000e+00
3332 3332 2.009095835601121e+00
3333 425 -1.000000000000000e+00
3333 475 -1.007214574664110e+00
3333 985 -5.494546838339858e-03
3333 3333 2.012709121502450e+00
3334 28 -1.000000000000000e+00
3334 1545 -1.000000000000000e+00
3334 1905 -2.012175164654417e-02
3334 2635 -2.397779742565159e-02
3334 3334 2.065651711406209e+00
3335 39 -1.427454693104898e-02
3335 160 -1.000000000000000e+00
3335 2135 -1.000000000000000e+00
3335 3335 2.030477351272863e+00
3336 450 -1.000000000000000e+00
3336 1272 -1.408855947206413e-02
3336 1852 -1.000000000000000e+00
3336 2723 -1.768925065471738e-02
3336 3336 3.045931760701803e+00
3337 176 -1.000000000000000e+00
3337 1350 -1.000000000000000e+00
3337 3337 4.110124171774658e+00
3338 420 -4.881876025823848e-03
3338 541 -1.000000000000000e+00
3338 1650 -5.974459502299877e-03
3338 2127 -1.009938203456396e+00
3338 3297 -1.880208850860504e-03
3338 3338 2.022674747835380e+00
3339 82 -1.000000000000000e+00
3339 1621 -1.410834192080221e-02
3339 2113 -1.000000000000000e+00
3339 2958 -2.383968302330107e-02
3339 3339 2.037948024944103e+00
3340 163 -1.022237294441466e+00
3340 1229 -9.534485628436314e-03
3340 1632 -1.237212787294479e-02
3340 1637 -2.780438079079925e-02
3340 2822 -1.000000000000000e+00
3340 3340 2.071948288733646e+00
3341 73 -1.463017267706995e-02
3341 814 -1.000000000000000e+00
3341 1578 -1.000000000000000e+00
3341 1589 -1.000000000000000e+00
3341 3341 4.043627580207286e+00
3342 1064 -3.051447562819412e-02
3342 1441 -1.000000000000000e+00
3342 1506 -1.000000000000000e+00
3342 1760 -1.000000000000000e+00
3342 2294 -3.690175335652617e-02
3342 3342 3.116801298597389e+00
3343 204 -1.000000000000000e+00
3343 1184 -6.751367803368300e-03
3343 1285 -1.000000000000000e+00
3343 3231 -4.606330870514518e-03
3343 3343 2.011357698673883e+00
3344 780 -1.000000000000000e+00
3344 1195 -1.000000000000000e+00
3344 2239 -2.447853835583189e-02
3344 3064 -2.719351945239424e-02
3344 3344 2.140211519622589e+00
3345 102 -1.000000000000000e+00
3345 1311 -1.004957893757177e+00
3345 3345 2.004957893757176e+00
3346 906 -1.260578588422555e-02
3346 1035 -1.000000000000000e+00
3346 1882 -1.000000000000000e+00
3346 3171 -1.000000000000000e+00
3346 3346 3.018566685174764e+00
3347 483 -2.439916727431381e-03
3347 674 -1.000000000000000e+00
3347 787 -3.791457212984626e-03
3347 916 -1.523013192032428e-02
3347 1051 -1.251451008677782e-02
3347 1787 -2.305764688110785e-03
3347 1892 -1.003316115564831e+00
3347 3347 2.039597896200460e+00
3348 320 -6.942324422327236e-04
3348 572 -1.000000000000000e+00
3348 684 -1.000000000000000e+00
3348 1328 -2.379682619236024e-02
3348 3090 -2.559943331555234e-03
3348 3348 2.051316783324498e+00
3349 30 -1.000000000000000e+00
3349 687 -1.000000000000000e+00
3349 1208 -1.000089225386553e+00
3349 3349 5.017861372118428e+00
3350 100 -1.000000000000000e+00
3350 1595 -1.208913626178808e-02
3350 1745 -1.000000000000000e+00
3350 3350 2.024656152781211e+00
3351 585 -1.000000000000000e+00
3351 614 -1.435229968044385e-02
3351 1031 -1.272820800003787e-02
3351 2120 -1.000000000000000e+00
3351 3351 4.061418194865979e+00
3352 768 -1.000000000000000e+00
3352 1901 -1.000000000000000e+00
3352 2418 -1.674302468011869e-03
3352 3352 4.022799957569394e+00
3353 4 -1.000000000000000e+00
3353 1314 -1.000000000000000e+00
3353 3342 -3.141934203112337e-02
3353 3353 2.051931766316090e+00
3354 527 -9.649287298422259e-03
3354 1448 -1.290110224907087e-03
3354 2053 -1.004259246626846e+00
3354 2947 -1.398357589228834e-03
3354 2962 -1.000000000000000e+00
3354 3246 -2.394680117157061e-02
3354 3354 2.061627498033788e+00
3355 466 -1.000000000000000e+00
3355 496 -1.000000000000000e+00
3355 1638 -1.237661085137840e-02
3355 2161 -2.217595261236252e-02
3355 3059 -7.036171804568781e-03
3355 3355 2.088850777322593e+00
3356 569 -1.531547776536648e-02
3356 706 -4.409300153667485e-03
3356 2400 -1.000000000000000e+00
3356 3192 -1.000000000000000e+00
3356 3356 2.019724777919034e+00
3357 1 -1.000000000000000e+00
3357 128 -1.000000000000000e+00
3357 2278 -1.426602461133483e-02
3357 2358 -1.421861113146039e-02
3357 3357 2.028484635742795e+00
3358 42 -8.627534493277434e-03
3358 214 -1.772085622088476e-02
3358 554 -1.000000000000000e+00
3358 1149 -1.000000000000000e+00
3358 3358 3.026348390714162e+00
3359 1327 -1.000000000000000e+00
3359 1696 -1.000000000000000e+00
3359 3359 3.012099442855654e+00
3360 10 -1.000927694821031e+00
3360 122 -2.777120600367208e-03
3360 125 -2.815460899815552e-03
3360 407 -3.769153684936790e-03
3360 418 -5.174240638616480e-04
3360 557 -2.749454631473699e-04
3360 784 -1.225125111120672e-02
3360 957 -9.607573007338865e-03
3360 1515 -1.558648678882170e-03
3360 1849 -1.003711651877606e+00
3360 2152 -5.341886998474603e-03
3360 2195 -1.071932690169782e-02
3360 2675 -6.904494529923816e-03
3360 3275 -3.864787112151785e-03
3360 3360 2.075430085601440e+00
3361 735 -1.000000000000000e+00
3361 994 -1.000000000000000e+00
3361 3361 2.019941482486691e+00
3362 1375 -2.512338201135553e-02
3362 2420 -1.000000000000000e+00
3362 2921 -1.000000000000000e+00
3362 3362 4.031232028802587e+00
3363 76 -1.000000000000000e+00
3363 278 -1.000000000000000e+00
3363 506 -1.000000000000000e+00
3363 1897 -2.099071574091801e-02
3363 2407 -1.418352818527694e-02
3363 3363 4.035174243926195e+00
3364 334 -1.000000000000000e+00
3364 747 -1.014594457903149e+00
3364 1027 -2.356327431142537e-02
3364 3364 5.061190496919953e+00
3365 861 -1.025543699792351e+00
3365 1060 -5.575816414499968e-03
3365 1079 -1.000000000000000e+00
3365 1729 -1.056451539848680e-02
3365 3015 -6.045042452164660e-03
3365 3365 2.067949457768069e+00
3366 146 -1.000000000000000e+00
3366 199 -1.566235561244106e-02
3366 2659 -1.000000000000000e+00
3366 3366 2.035296146176083e+00
3367 674 -1.000000000000000e+00
3367 1775 -2.478494819017025e-02
3367 2992 -1.000000000000000e+00
3367 3367 2.071410434751239e+00
3368 32 -1.000000000000000e+00
3368 969 -1.000000000000000e+00
3368 2184 -2.727813121779822e-02
3368 2533 -4.708567495444042e-03
3368 2561 -1.901368429055417e-02
3368 3368 5.051000383003797e+00
3369 376 -1.000000000000000e+00
3369 378 -1.000000000000000e+00
3369 2162 -1.539278715872291e-02
3369 3261 -7.540854644558364e-03
3369 3369 2.040816189806093e+00
3370 470 -1.000000000000000e+00
3370 2845 -2.286841857089916e-02
3370 2895 -1.000000000000000e+00
3370 3370 3.027852164741325e+00
3371 2 -1.000000000000000e+00
3371 637 -8.354414090895606e-03
3371 1843 -1.000000000000000e+00
3371 3371 2.027955188590831e+00
3372 61 -1.000000000000000e+00
3372 588 -1.587636186072582e-02
3372 608 -9.813221467357868e-03
3372 1489 -1.000000000000000e+00
3372 1826 -1.062709360822106e-02
3372 3372 2.036316676936305e+00
3373 129 -1.545991301713583e-02
3373 742 -1.000000000000000e+00
3373 1033 -1.000000000000000e+00
3373 1854 -1.402122483646706e-02
3373 2148 -1.000000000000000e+00
3373 3373 3.029481137853603e+00
3374 107 -1.000000000000000e+00
3374 423 -1.000000000000000e+00
3374 1377 -6.606438562494208e-03
3374 3163 -8.205848719229081e-03
3374 3374 2.014812287281723e+00
3375 12 -1.000000000000000e+00
3375 150 -2.225628658027694e-02
3375 2098 -1.000000000000000e+00
3375 2756 -1.701414216936424e-02
3375 3375 3.039270428749641e+00
3376 657 -1.000000000000000e+00
3376 1317 -1.033545567465870e+00
3376 3376 2.063532073087186e+00
3377 900 -1.000000000000000e+00
3377 913 -1.000000000000000e+00
3377 2933 -2.155744533407017e-02
3377 3377 3.068781412657517e+00
3378 182 -1.000000000000000e+00
3378 1561 -1.000000000000000e+00
3378 2617 -2.599473807992007e-02
3378 2748 -2.156883380818130e-02
3378 3378 3.047563571888102e+00
3379 484 -1.011024747596408e+00
3379 702 -1.000000000000000e+00
3379 1182 -1.642045133853749e-02
3379 3149 -1.000000000000000e+00
3379 3379 3.052317883052814e+00
3380 200 -1.000000000000000e+00
3380 441 -2.694228235482419e-02
3380 1375 -1.000000000000000e+00
3380 2669 -1.000000000000000e+00
3380 3380 3.035165016337823e+00
3381 336 -1.000000000000000e+00
3381 617 -1.000000000000000e+00
3381 3381 3.026752688944092e+00
3382 17 -1.000000000000000e+00
3382 512 -1.000000000000000e+00
3382 984 -2.867204771028921e-02
3382 1377 -1.996106610241457e-02
3382 2311 -1.367969576673465e-02
3382 3382 2.062312809579439e+00
3383 14 -1.000000000000000e+00
3383 735 -1.000000000000000e+00
3383 994 -1.585285507997034e-02
3383 1861 -1.387196514391005e-02
3383 3383 2.046170025896184e+00
3384 161 -1.000000000000000e+00
3384 2873 -1.158268334742407e-02
3384 2919 -1.000000000000000e+00
3384 3322 -1.662431611214198e-02
3384 3384 3.028206999459566e+00
3385 1264 -1.000000000000000e+00
3385 1721 -1.000000000000000e+00
3385 3385 3.014981992163169e+00
3386 496 -2.045434604663053e-03
3386 1270 -1.000000000000000e+00
3386 1436 -1.700867568966918e-02
3386 2993 -1.000000000000000e+00
3386 3386 2.026370973364573e+00
3387 1565 -1.000000000000000e+00
3387 1606 -1.158637551332960e-02
3387 1672 -4.867289158813761e-03
3387 1830 -1.000000000000000e+00
3387 2625 -1.048423873175483e-02
3387 3387 3.077260736490595e+00
3388 1185 -1.000000000000000e+00
3388 2568 -1.005012805736932e+00
3388 3388 2.005812365041165e+00
3389 220 -1.000000000000000e+00
3389 484 -1.000000000000000e+00
3389 1182 -1.060560715950068e-02
3389 2756 -2.051534110954115e-02
3389 3389 3.031120948269042e+00
3390 541 -1.000000000000000e+00
3390 833 -1.000000000000000e+00
3390 3097 -1.690971845711535e-02
3390 3390 2.019738103357839e+00
3391 5 -1.000000000000000e+00
3391 219 -2.381411428860997e-02
3391 1223 -1.000000000000000e+00
3391 1722 -2.045144887165022e-02
3391 2109 -1.000000000000000e+00
3391 3391 3.044265563160260e+00
3392 257 -2.815659642605920e-04
3392 1039 -1.002219650781045e+00
3392 2387 -1.000000000000000e+00
3392 3392 2.018730814690997e+00
3393 18 -1.000000000000000e+00
3393 1881 -1.017031549784197e+00
3393 2030 -1.600258851866978e-02
3393 3393 2.033034138302866e+00
3394 6 -1.015184054037765e+00
3394 1339 -2.226497348951564e-02
3394 1737 -2.804077759432728e-02
3394 1895 -1.000000000000000e+00
3394 2295 -2.182207945187167e-02
3394 2436 -2.236820860818485e-02
3394 2599 -3.498483703446815e-02
3394 3394 2.144664930216133e+00
3395 663 -1.000000000000000e+00
3395 1047 -9.662037895337948e-03
3395 2663 -1.000000000000000e+00
3395 3395 2.020734143675718e+00
3396 26 -1.000000000000000e+00
3396 1408 -1.000000000000000e+00
3396 1758 -2.145126758565873e-02
3396 3396 2.038117785336091e+00
3397 270 -1.000000000000000e+00
3397 1623 -2.994582106143183e-02
3397 1689 -1.000000000000000e+00
3397 3007 -3.449306866732144e-02
3397 3397 2.064438889728753e+00
3398 599 -2.637896735962115e-02
3398 728 -1.000000000000000e+00
3398 1239 -2.710637674254292e-02
3398 2414 -1.000000000000000e+00
3398 3398 4.054421199625099e+00
3399 179 -1.000000000000000e+00
3399 1951 -1.000000000000000e+00
3399 3027 -1.462825032385315e-02
3399 3399 2.024764839378017e+00
3400 1682 -1.000000000000000e+00
3400 1861 -1.000000000000000e+00
3400 3400 2.034509223995463e+00
3401 6 -1.000000000000000e+00
3401 43 -1.095900862433135e-02
3401 1812 -1.000000000000000e+00
3401 2128 -7.631418394568048e-03
3401 2436 -1.489267815830715e-02
3401 3113 -1.527490456253087e-02
3401 3401 2.128828948721510e+00
3402 356 -9.033329329179579e-03
3402 602 -1.000000000000000e+00
3402 2465 -1.000000000000000e+00
3402 3402 3.033846433064807e+00
3403 8 -1.000000000000000e+00
3403 29 -1.000000000000000e+00
3403 296 -1.509181092024509e-02
3403 464 -1.699018662117142e-02
3403 1474 -1.236072701484597e-02
3403 3403 2.058891876491690e+00
3404 634 -1.000000000000000e+00
3404 1933 -2.638662816274792e-02
3404 2244 -1.000000000000000e+00
3404 3404 2.074187802529728e+00
3405 808 -3.236567651886632e-02
3405 1423 -2.871417914772079e-02
3405 2541 -1.000000000000000e+00
3405 2577 -1.000000000000000e+00
3405 3405 2.061079855666587e+00
3406 526 -1.689306060347241e-02
3406 1375 -1.704990453246271e-02
3406 2286 -1.000000000000000e+00
3406 2921 -1.000000000000000e+00
3406 3406 2.060236806097127e+00
3407 14 -1.000000000000000e+00
3407 69 -1.000000000000000e+00
3407 1481 -6.093389456702906e-03
3407 1602 -1.927609914619654e-04
3407 3407 3.006286150448165e+00
3408 17 -1.000000000000000e+00
3408 145 -1.023023283462493e+00
3408 397 -2.378625265285940e-02
3408 441 -1.679201316456217e-02
3408 2420 -2.577560748754055e-02
3408 3160 -1.059601671973044e-02
3408 3408 3.114502422722832e+00
3409 6 -1.000000000000000e+00
3409 228 -1.000000000000000e+00
3409 480 -1.499597842753290e-02
3409 3409 3.098443313600540e+00
3410 1432 -1.000000000000000e+00
3410 2678 -1.001853515866776e+00
3410 3410 4.020635396934959e+00
3411 12 -1.000000000000000e+00
3411 23 -1.000000000000000e+00
3411 3411 2.059542958521901e+00
3412 135 -1.000000000000000e+00
3412 210 -1.000000000000000e+00
3412 3412 3.000000000000000e+00
3413 1817 -1.000000000000000e+00
3413 2370 -1.002721277917537e+00
3413 3413 2.002721277917537e+00
3414 499 -1.000000000000000e+00
3414 972 -1.000000000000000e+00
3414 2531 -7.793501182814931e-03
3414 3414 2.016330885207398e+00
3415 41 -1.000000000000000e+00
3415 203 -1.000000000000000e+00
3415 1621 -8.472978672904710e-03
3415 2958 -1.409788863971170e-02
3415 3415 2.022570867312616e+00
3416 26 -1.000000000000000e+00
3416 106 -1.113572469102864e-02
3416 676 -1.000000000000000e+00
3416 1710 -1.000000000000000e+00
3416 2690 -1.154312140124819e-02
3416 2745 -6.720224964111901e-03
3416 2761 -1.947174045005033e-02
3416 3416 3.074851825106323e+00
3417 67 -1.000000000000000e+00
3417 663 -1.014699209994378e+00
3417 2025 -1.426460751623495e-02
3417 2403 -1.380776346344436e-03
3417 2763 -1.339862911348905e-02
3417 3417 3.046221630637698e+00
3418 1167 -1.003042302174733e+00
3418 1414 -3.240735397644236e-03
3418 2755 -1.000000000000000e+00
3418 3418 2.021714645582788e+00
3419 1 -1.000000000000000e+00
3419 894 -1.540249709013982e-02
3419 2131 -1.000000000000000e+00
3419 3419 2.031767246526559e+00
3420 1066 -1.000000000000000e+00
3420 1070 -1.275632534536659e-02
3420 2359 -9.882319959187360e-03
3420 2869 -1.000000000000000e+00
3420 3420 2.022638645304554e+00
3421 1084 -1.000000000000000e+00
3421 2072 -9.971931764628511e-03
3421 2185 -1.032551229896617e-03
3421 2439 -1.007383792733610e+00
3421 3421 3.019827647957342e+00
3422 1280 -1.000000000000000e+00
3422 2305 -1.000000000000000e+00
3422 3227 -1.020879399487237e+00
3422 3422 4.031870009475276e+00
3423 121 -1.000000000000000e+00
3423 729 -1.000000000000000e+00
3423 2513 -1.024818591031138e+00
3423 3423 5.048513876632100e+00
3424 11 -1.141313547029225e-02
3424 53 -1.000000000000000e+00
3424 179 -1.088813261795201e-02
3424 798 -1.561154075557507e-02
3424 885 -1.064424866709343e-02
3424 904 -9.891728930097939e-03
3424 1555 -1.411344602083549e-02
3424 1635 -8.966104014616998e-03
3424 1740 -5.657074603810322e-03
3424 1800 -1.400464447749273e-02
3424 2009 -1.000000000000000e+00
3424 2112 -1.754366029574868e-03
3424 2318 -3.068038932787600e-02
3424 2495 -4.028090713338427e-03
3424 2684 -2.437206309276443e-03
3424 2711 -2.210066731219745e-02
3424 3050 -3.625153653928698e-03
3424 3288 -2.049816146848703e-02
3424 3398 -9.358555229347627e-04
3424 3424 4.236052406035072e+00
3425 149 -1.000000000000000e+00
3425 158 -1.000000000000000e+00
3425 2014 -1.414740917731278e-02
3425 2793 -1.390814774938618e-02
3425 3425 2.028055556926699e+00
3426 16 -1.000000000000000e+00
3426 3025 -3.965569891101462e-03
3426 3150 -1.000000000000000e+00
3426 3426 4.006839150064544e+00
3427 525 -1.000000000000000e+00
3427 1002 -1.681585477573760e-02
3427 1066 -1.019614893984023e-02
3427 1228 -1.000000000000000e+00
3427 1735 -6.372929834101541e-03
3427 1779 -1.016932234138927e-02
3427 2306 -8.709922347490323e-03
3427 2739 -2.769414286799675e-02
3427 2747 -7.403398903991506e-05
3427 3427 3.130133526136863e+00
3428 904 -1.232007669689333e-02
3428 1421 -1.000000000000000e+00
3428 1512 -1.000000000000000e+00
3428 2775 -2.466925784919765e-02
3428 3428 3.036989334546091e+00
3429 40 -1.471080036213501e-02
3429 70 -1.000000000000000e+00
3429 3362 -1.000000000000000e+00
3429 3429 4.028750925889385e+00
3430 1400 -1.000000000000000e+00
3430 3109 -1.000000000000000e+00
3430 3430 3.011538530308166e+00
3431 268 -1.000000000000000e+00
3431 1897 -2.597450355299052e-02
3431 2257 -1.000000000000000e+00
3431 3431 2.051834150227825e+00
3432 235 -1.000000000000000e+00
3432 565 -1.113724849497392e-02
3432 767 -1.229445142731403e-02
3432 1094 -1.000000000000000e+00
3432 1647 -1.680067375231039e-02
3432 3432 3.099666832604851e+00
3433 276 -1.002055016892097e+00
3433 451 -2.570118141079431e-03
3433 502 -1.000000000000000e+00
3433 1278 -9.009974639813418e-04
3433 3433 3.027125995999994e+00
3434 336 -1.000000000000000e+00
3434 338 -1.000000000000000e+00
3434 1108 -1.000000000000000e+00
3434 3434 3.033282112254759e+00
3435 877 -1.000000000000000e+00
3435 1945 -1.097909174110232e-02
3435 2161 -1.000000000000000e+00
3435 3435 2.013730039700169e+00
3436 342 -1.326508068730938e-03
3436 432 -1.384008029146689e-02
3436 1697 -1.000000000000000e+00
3436 2151 -1.000000000000000e+00
3436 3436 3.015166588360198e+00
3437 42 -1.000000000000000e+00
3437 371 -1.235607737842584e-02
3437 862 -1.000000000000000e+00
3437 1279 -7.220521287181446e-03
3437 1807 -1.379551902997012e-02
3437 3437 4.117587702518141e+00
3438 622 -1.000000000000000e+00
3438 2509 -1.000000000000000e+00
3438 3438 3.003085479406204e+00
3439 218 -1.000000000000000e+00
3439 450 -1.000000000000000e+00
3439 1272 -2.093854027311064e-02
3439 2895 -1.506283147087248e-02
3439 3026 -1.310993113840120e-02
3439 3439 3.085444297765237e+00
3440 371 -1.000000000000000e+00
3440 2991 -1.016955721049081e+00
3440 3440 2.016955721049081e+00
3441 1304 -1.000000000000000e+00
3441 2169 -1.009363105580217e+00
3441 3441 2.021158364768051e+00
3442 41 -1.000000000000000e+00
3442 364 -1.000000000000000e+00
3442 2922 -1.747393795630968e-02
3442 3442 2.034692630222183e+00
3443 2823 -1.000000000000000e+00
3443 2968 -1.000000000000000e+00
3443 3057 -1.547260009931150e-02
3443 3443 2.032201322296550e+00
3444 74 -1.054549249772704e-02
3444 714 -1.000000000000000e+00
3444 1672 -1.023951989687312e+00
3444 1856 -1.000000000000000e+00
3444 3444 5.043176503462123e+00
3445 97 -1.000000000000000e+00
3445 589 -4.788235987406048e-03
3445 616 -1.000000000000000e+00
3445 1998 -8.495624785018635e-03
3445 3445 2.031848099672344e+00
3446 996 -1.000000000000000e+00
3446 1752 -1.368051080725197e-02
3446 2496 -1.006372099028960e+00
3446 3446 3.020052609836212e+00
3447 202 -1.000000000000000e+00
3447 319 -2.759342387591899e-02
3447 932 -3.363006155364913e-02
3447 1066 -1.000000000000000e+00
3447 1232 -2.451556782550720e-02
3447 1418 -2.571547190940933e-02
3447 1623 -2.978137848306462e-02
3447 3447 3.167537605568667e+00
3448 1081 -1.000000000000000e+00
3448 2278 -1.176987685550815e-02
3448 2358 -1.000000000000000e+00
3448 3448 2.019349646978932e+00
3449 36 -1.000000000000000e+00
3449 1367 -2.588678997782899e-02
3449 2018 -3.190399738063424e-02
3449 2555 -1.000000000000000e+00
3449 3449 3.070604141712563e+00
3450 39 -1.000000000000000e+00
3450 2107 -1.000000000000000e+00
3450 3450 3.000000000000000e+00
3451 1737 -1.000000000000000e+00
3451 2307 -1.000000000000000e+00
3451 3437 -2.200295595092078e-02
3451 3451 3.046904912257888e+00
3452 1196 -1.441960528250617e-02
3452 2131 -1.000000000000000e+00
3452 2672 -1.486509802440309e-02
3452 2989 -1.000000000000000e+00
3452 3452 2.029284703306909e+00
3453 1121 -1.175009349079933e-02
3453 1203 -1.074785682662446e-02
3453 1590 -1.745950766257618e-02
3453 1645 -1.628580999381855e-02
3453 1898 -1.000000000000000e+00
3453 2041 -1.000000000000000e+00
3453 2331 -1.323029162066095e-02
3453 3453 2.114829897403746e+00
3454 14 -1.000000000000000e+00
3454 1056 -2.860097712640013e-02
3454 1612 -1.586921600115178e-02
3454 2015 -1.000000000000000e+00
3454 3080 -1.918805401431946e-02
3454 3454 2.063658247141871e+00
3455 452 -1.860791565061207e-02
3455 739 -1.000000000000000e+00
3455 2202 -1.000000000000000e+00
3455 3455 2.038101215315902e+00
3456 63 -1.000000000000000e+00
3456 450 -1.000000000000000e+00
3456 2723 -2.736612239164804e-02
3456 3456 2.045001433864169e+00
3457 795 -1.000000000000000e+00
3457 1192 -1.000000000000000e+00
3457 3337 -1.626633134103423e-02
3457 3457 3.022195529739720e+00
3458 4 -1.000000000000000e+00
3458 115 -1.000000000000000e+00
3458 721 -1.530292945359630e-02
3458 2273 -2.254522644982482e-02
3458 3458 2.094466215325251e+00
3459 25 -1.353967846168994e-02
3459 73 -1.000000000000000e+00
3459 1761 -1.000000000000000e+00
3459 3459 2.044375701748472e+00
3460 1568 -1.000000000000000e+00
3460 2564 -1.000000000000000e+00
3460 3460 3.023594498786936e+00
3461 153 -1.000000000000000e+00
3461 573 -1.692509073685702e-02
3461 1396 -5.088039025100917e-03
3461 3023 -1.000000000000000e+00
3461 3461 2.022013129761958e+00
3462 331 -1.014041629584626e+00
3462 831 -1.000000000000000e+00
3462 1943 -8.857496958614498e-04
3462 3462 2.030768650620360e+00
3463 6 -1.000000000000000e+00
3463 1252 -1.000000000000000e+00
3463 1267 -1.967907378770776e-02
3463 3463 4.040488590442696e+00
3464 16 -1.000000000000000e+00
3464 1698 -1.004983374615463e+00
3464 3464 2.016759018747816e+00
3465 307 -1.000000000000000e+00
3465 762 -1.000000000000000e+00
3465 1435 -5.305837455155189e-03
3465 3051 -1.315392956067290e-02
3465 3465 2.018459767015828e+00
3466 86 -1.000000000000000e+00
3466 429 -1.716295543872839e-02
3466 1926 -1.774692245632278e-02
3466 3304 -1.000000000000000e+00
3466 3466 2.058181955425731e+00
3467 2 -1.000000000000000e+00
3467 327 -2.516938755807171e-02
3467 872 -1.000000000000000e+00
3467 2418 -2.327159878997089e-02
3467 3467 4.048440986348043e+00
3468 44 -1.000000000000000e+00
3468 286 -1.418025167188390e-02
3468 448 -9.770188598907039e-03
3468 2005 -2.441746785673646e-02
3468 2124 -8.040941416754516e-03
3468 2626 -1.000000000000000e+00
3468 2804 -2.205176617988514e-04
3468 3169 -1.000000000000000e+00
3468 3468 4.056629367206081e+00
3469 619 -1.000000000000000e+00
3469 1295 -1.000000000000000e+00
3469 3469 2.040813604092102e+00
3470 27 -1.000000000000000e+00
3470 1156 -1.000000000000000e+00
3470 1564 -2.682497265688244e-02
3470 1906 -2.175967269948710e-02
3470 3470 3.048584645356370e+00
3471 219 -2.307663404812266e-02
3471 280 -1.000000000000000e+00
3471 1238 -2.367095427072272e-02
3471 1423 -2.535579773671598e-02
3471 1622 -2.492570678682196e-02
3471 1683 -3.253633358652998e-02
3471 3239 -1.000000000000000e+00
3471 3471 4.152287021333259e+00
3472 202 -2.265836114495908e-02
3472 948 -1.582447222443982e-02
3472 1102 -2.243261579258065e-02
3472 1232 -1.000000000000000e+00
3472 1263 -1.000000000000000e+00
3472 1811 -2.084734230203523e-02
3472 2933 -3.303062850988332e-02
3472 3469 -2.450922883324747e-02
3472 3472 2.201486875194977e+00
3473 1268 -1.010046753939239e+00
3473 2255 -1.000000000000000e+00
3473 2648 -1.000000000000000e+00
3473 3279 -1.402277988908156e-02
3473 3473 4.057645545881949e+00
3474 1329 -1.000000000000000e+00
3474 2271 -5.354879026567600e-03
3474 3144 -1.000000000000000e+00
3474 3474 5.006590612337884e+00
3475 25 -1.000000000000000e+00
3475 53 -1.000000000000000e+00
3475 1117 -1.567561556286752e-02
3475 2412 -1.000000000000000e+00
3475 3459 -1.343363692848974e-02
3475 3475 3.029109252491357e+00
3476 1 -1.000000000000000e+00
3476 5 -1.000000000000000e+00
3476 485 -3.032983125772029e-02
3476 662 -2.730687468370070e-02
3476 2418 -3.336240831485705e-03
3476 3476 3.132226193988073e+00
3477 83 -1.000000000000000e+00
3477 404 -1.010207599690651e+00
3477 3477 2.034533167551749e+00
3478 85 -1.008547376876655e+00
3478 914 -1.000000000000000e+00
3478 1035 -1.976356095515376e-02
3478 3478 2.030529314736534e+00
3479 11 -1.000000000000000e+00
3479 903 -2.965252113344652e-02
3479 904 -1.949648913681078e-02
3479 1785 -1.000000000000000e+00
3479 3479 2.049149010270257e+00
3480 12 -1.000000000000000e+00
3480 128 -1.000000000000000e+00
3480 1003 -2.810408094181088e-02
3480 2358 -1.660577546816282e-02
3480 3480 2.044709856409974e+00
3481 797 -1.000000000000000e+00
3481 1356 -1.000000000000000e+00
3481 3007 -2.203652350656515e-02
3481 3481 2.046536163528924e+00
3482 1167 -1.000000000000000e+00
3482 1331 -1.000000000000000e+00
3482 3482 2.028879747310076e+00
3483 112 -1.000000000000000e+00
3483 1438 -1.753844377776531e-02
3483 1840 -1.000000000000000e+00
3483 2699 -1.910951410864105e-02
3483 3483 4.036647957886406e+00
3484 1946 -1.000000000000000e+00
3484 3268 -1.000000000000000e+00
3484 3484 3.020283260160015e+00
3485 148 -1.000000000000000e+00
3485 2278 -7.904992786387772e-03
3485 2647 -1.000000000000000e+00
3485 3004 -1.566588387135792e-02
3485 3485 2.023570876657746e+00
3486 29 -1.000000000000000e+00
3486 130 -1.000000000000000e+00
3486 3228 -1.675895271220878e-02
3486 3486 2.055939330097094e+00
3487 12 -1.000000000000000e+00
3487 1029 -1.000000000000000e+00
3487 1659 -1.214727703751683e-02
3487 3487 2.042179608208673e+00
3488 332 -2.701009112150816e-03
3488 560 -1.876794188452803e-03
3488 772 -1.000000000000000e+00
3488 1889 -1.004240846607419e+00
3488 2656 -8.311817354163177e-03
3488 3488 2.017130467262185e+00
3489 567 -2.812689841357099e-02
3489 740 -1.000000000000000e+00
3489 1375 -1.000000000000000e+00
3489 2209 -1.628926092105381e-02
3489 3489 2.044416159334625e+00
3490 458 -1.000000000000000e+00
3490 3337 -1.000000000000000e+00
3490 3490 3.004511964174878e+00
3491 293 -1.516247896692562e-02
3491 729 -7.110279258713912e-03
3491 802 -4.304584071697834e-03
3491 1511 -7.567784856942201e-03
3491 1513 -4.602960128630234e-03
3491 1698 -1.000000000000000e+00
3491 1981 -1.416777058962444e-02
3491 2216 -3.847615793806524e-03
3491 2479 -2.208657759803579e-04
3491 3044 -1.000000000000000e+00
3491 3464 -1.177564413235283e-02
3491 3491 4.101209792036872e+00
3492 7 -1.000000000000000e+00
3492 1795 -1.626866392172117e-02
3492 3035 -2.329086187678441e-02
3492 3234 -6.984833066094411e-03
3492 3423 -1.000000000000000e+00
3492 3492 3.046544358864600e+00
3493 5 -1.000000000000000e+00
3493 550 -1.000000000000000e+00
3493 2015 -1.329446059449386e-02
3493 3080 -5.424530239294375e-03
3493 3493 3.041526489876393e+00
3494 1 -1.000000000000000e+00
3494 1158 -1.000000000000000e+00
3494 2562 -4.345961599624514e-03
3494 3494 3.019764572112561e+00
3495 423 -1.000000000000000e+00
3495 2357 -9.297005215260995e-03
3495 2772 -1.156974077612497e-02
3495 2780 -1.013670070512201e+00
3495 3495 2.045107683588246e+00
3496 565 -1.000000000000000e+00
3496 681 -2.319505989576621e-02
3496 2197 -1.000000000000000e+00
3496 3107 -8.661401308760874e-03
3496 3496 2.064669800017414e+00
3497 79 -1.000000000000000e+00
3497 463 -1.000000000000000e+00
3497 1732 -1.000000000000000e+00
3497 2175 -1.622548855862188e-02
3497 2327 -1.613600860164598e-02
3497 3497 3.062505970298401e+00
3498 457 -1.892994296365824e-04
3498 938 -1.000000000000000e+00
3498 2578 -8.171019662566986e-03
3498 2810 -1.020913965715094e+00
3498 3498 2.031867235334179e+00
3499 591 -1.598885242997830e-02
3499 1361 -1.000000000000000e+00
3499 3277 -1.000000000000000e+00
3499 3499 2.021311955580572e+00
3500 1035 -1.000000000000000e+00
3500 2392 -2.500367284076883e-02
3500 3262 -1.000000000000000e+00
3500 3437 -1.359094954969802e-02
3500 3500 2.038594622390467e+00
3501 95 -1.000000000000000e+00
3501 614 -1.000000000000000e+00
3501 1252 -2.598009365324091e-02
3501 1970 -2.325154105755845e-02
3501 3501 4.049231634710799e+00
3502 1151 -1.010425423217393e+00
3502 1844 -1.000000000000000e+00
3502 2600 -6.504359119537897e-03
3502 3446 -1.000000000000000e+00
3502 3502 3.016929782336931e+00
3503 130 -1.000000000000000e+00
3503 658 -1.000000000000000e+00
3503 2207 -3.085170540448816e-02
3503 2418 -1.070197985916154e-02
3503 3503 2.041553685263650e+00
3504 173 -1.727330656396686e-02
3504 371 -1.000000000000000e+00
3504 1539 -1.000000000000000e+00
3504 1921 -1.278857221355849e-02
3504 3504 2.030061878777525e+00
3505 1360 -1.000000000000000e+00
3505 1898 -1.001447381210756e+00
3505 2591 -2.978746878076808e-03
3505 3505 2.004426128088832e+00
3506 682 -1.000000000000000e+00
3506 2341 -1.000000000000000e+00
3506 3506 3.002540652186255e+00
3507 1598 -1.000000000000000e+00
3507 2429 -2.112169110046672e-02
3507 2483 -1.000000000000000e+00
3507 2680 -1.289248579917688e-02
3507 3507 2.034014176899644e+00
3508 770 -1.000000000000000e+00
3508 1549 -1.949029341389392e-02
3508 1772 -3.688934687567413e-03
3508 2440 -1.000000000000000e+00
3508 3508 3.023179228101462e+00
3509 481 -1.006088577184861e+00
3509 2216 -1.000000000000000e+00
3509 2971 -1.750271253677268e-03
3509 3106 -1.000000000000000e+00
3509 3320 -5.866875369849792e-03
3509 3509 3.013705723808388e+00
3510 36 -1.000000000000000e+00
3510 1265 -1.000000000000000e+00
3510 3510 3.000000000000000e+00
3511 1 -1.000000000000000e+00
3511 1191 -2.053161266297970e-02
3511 2171 -3.159612785587901e-02
3511 2259 -2.840794651854897e-02
3511 2891 -1.000000000000000e+00
3511 3511 2.096882260585627e+00
3512 132 -1.000000000000000e+00
3512 2910 -1.000000000000000e+00
3512 3512 2.039746546214460e+00
3513 50 -1.000000000000000e+00
3513 1513 -1.000000000000000e+00
3513 1712 -2.040693961233738e-02
3513 2914 -1.374105326532570e-02
3513 3513 2.034147992877663e+00
3514 358 -1.000000000000000e+00
3514 383 -1.036525600448038e-02
3514 902 -1.646844305006369e-02
3514 1589 -9.944536399485315e-03
3514 2038 -1.007190587190691e+00
3514 3332 -3.343506957755084e-03
3514 3514 2.058256131340141e+00
3515 6 -1.000000000000000e+00
3515 70 -1.000000000000000e+00
3515 667 -2.422591241104462e-02
3515 2443 -1.000000000000000e+00
3515 2756 -1.397258554856949e-02
3515 3515 5.038198497959614e+00
3516 218 -1.000000000000000e+00
3516 735 -7.367121524035607e-03
3516 1861 -1.000000000000000e+00
3516 3400 -2.245951692599772e-02
3516 3516 4.059212549726510e+00
3517 159 -1.012214121798012e+00
3517 637 -8.846476836351454e-03
3517 1242 -1.000000000000000e+00
3517 3517 2.021060598634364e+00
3518 23 -1.000000000000000e+00
3518 1122 -2.262018506223202e-02
3518 2153 -1.000000000000000e+00
3518 3518 4.033225305544597e+00
3519 462 -1.005437270166562e+00
3519 719 -1.000000000000000e+00
3519 930 -1.031088569242522e-02
3519 3519 2.015748155858987e+00
3520 870 -1.013913583911686e+00
3520 1450 -1.940409358437668e-03
3520 1535 -1.000000000000000e+00
3520 3218 -5.364299762629188e-03
3520 3441 -1.179525918783333e-02
3520 3520 2.033013552220587e+00
3521 33 -1.000000000000000e+00
3521 482 -1.358423900618087e-02
3521 3188 -1.023174428261855e+00
3521 3521 3.036758667268035e+00
3522 278 -1.000000000000000e+00
3522 830 -1.000000000000000e+00
3522 3065 -1.497079977768457e-02
3522 3522 4.024276230286665e+00
3523 1430 -1.162413637775219e-02
3523 1820 -1.000000000000000e+00
3523 2075 -1.000000000000000e+00
3523 3523 2.032375039353966e+00
3524 10 -1.000000000000000e+00
3524 557 -1.915026851012652e-02
3524 1849 -2.531358960016415e-02
3524 3275 -1.000000000000000e+00
3524 3524 2.044463858110291e+00
3525 611 -1.000000000000000e+00
3525 1979 -1.000000000000000e+00
3525 3525 2.025418078638468e+00
3526 11 -1.000000000000000e+00
3526 228 -1.000000000000000e+00
3526 1303 -2.501786947021404e-02
3526 3526 2.056150878832932e+00
3527 301 -1.000000000000000e+00
3527 470 -1.011644105289306e+00
3527 2411 -8.690541738874832e-03
3527 3527 2.020334647028180e+00
3528 270 -1.127256718919064e-02
3528 1226 -1.000000000000000e+00
3528 1976 -5.865689848503059e-03
3528 2147 -1.000000000000000e+00
3528 3528 4.017138257037693e+00
3529 411 -1.000000000000000e+00
3529 1864 -2.426474003030904e-02
3529 3179 -1.000000000000000e+00
3529 3529 2.105593538997285e+00
3530 589 -1.000000000000000e+00
3530 1343 -1.000000000000000e+00
3530 2212 -2.582994813389241e-02
3530 2985 -2.120782166999565e-02
3530 3530 5.103894130576000e+00
3531 246 -1.000000000000000e+00
3531 711 -2.142861351162180e-02
3531 1104 -3.236431098708253e-03
3531 1709 -9.751295220694380e-03
3531 3154 -1.000000000000000e+00
3531 3531 2.034416339831024e+00
3532 1441 -1.000000000000000e+00
3532 2723 -1.283655774436729e-02
3532 2895 -1.015289875207882e+00
3532 3370 -4.983746170425682e-03
3532 3532 2.044348260823272e+00
3533 546 -1.000000000000000e+00
3533 1033 -8.279373845619244e-03
3533 2774 -1.000000000000000e+00
3533 2917 -1.247499501361726e-02
3533 3533 3.020754368859237e+00
3534 213 -1.000000000000000e+00
3534 608 -1.000000000000000e+00
3534 698 -2.271406567185938e-02
3534 2970 -1.000000000000000e+00
3534 3344 -3.607635785323404e-02
3534 3534 4.088859901298685e+00
3535 152 -1.000000000000000e+00
3535 1884 -1.008659206203170e+00
3535 3535 3.008659206203170e+00
3536 1203 -4.912636830720140e-03
3536 1590 -1.000000000000000e+00
3536 2221 -8.496836552060610e-03
3536 2587 -1.000000000000000e+00
3536 3536 3.023466095545087e+00
3537 355 -1.000000000000000e+00
3537 2142 -1.000000000000000e+00
3537 3537 2.043731913316601e+00
3538 19 -1.000000000000000e+00
3538 582 -2.286041035263735e-02
3538 890 -1.856648934504958e-02
3538 1276 -1.000000000000000e+00
3538 3538 2.050274241246726e+00
3539 144 -1.000000000000000e+00
3539 254 -1.992016009706682e-02
3539 391 -3.409052515452150e-02
3539 1952 -1.000000000000000e+00
3539 3539 2.054010685251588e+00
3540 1019 -1.000000000000000e+00
3540 3476 -1.000000000000000e+00
3540 3540 3.031445026453119e+00
3541 5 -1.000000000000000e+00
3541 359 -1.000000000000000e+00
3541 3541 4.020142747168393e+00
3542 144 -1.000000000000000e+00
3542 191 -1.000000000000000e+00
3542 1261 -9.425168911313805e-03
3542 1792 -1.026842898978183e-02
3542 3542 2.019693597901095e+00
3543 73 -1.000000000000000e+00
3543 1065 -1.000000000000000e+00
3543 2135 -5.880342959374408e-03
3543 2885 -1.408365319650508e-02
3543 3543 2.035087650052843e+00
3544 1045 -1.000000000000000e+00
3544 1640 -1.000000000000000e+00
3544 3544 3.018667968273138e+00
3545 338 -1.810621443814464e-02
3545 1127 -1.394057381242310e-02
3545 1158 -2.942674960274826e-04
3545 1282 -1.025091769446319e+00
3545 3056 -1.000000000000000e+00
3545 3545 2.069150536866954e+00
3546 58 -1.000000000000000e+00
3546 2368 -1.004995500842142e+00
3546 3546 2.008975935517022e+00
3547 426 -1.232952248721325e-02
3547 1168 -4.974057585409044e-03
3547 1281 -1.000000000000000e+00
3547 3109 -1.000000000000000e+00
3547 3547 2.017303580072622e+00
3548 629 -2.060078038789442e-02
3548 862 -1.000000000000000e+00
3548 1005 -1.205124418552585e-02
3548 2619 -1.000000000000000e+00
3548 3548 3.057985585218959e+00
3549 244 -1.000000000000000e+00
3549 584 -1.000000000000000e+00
3549 661 -1.519544486240884e-02
3549 1385 -1.273966123913834e-02
3549 3549 3.027935106101547e+00
3550 478 -2.288527097608243e-02
3550 791 -1.000000000000000e+00
3550 1176 -1.000000000000000e+00
3550 2207 -2.592322311196484e-02
3550 3550 2.048808494088047e+00
3551 69 -1.000000000000000e+00
3551 435 -1.000000000000000e+00
3551 1668 -6.613621235872028e-03
3551 2183 -9.298612530619354e-04
3551 2948 -1.554569499938017e-02
3551 3551 2.037111307026400e+00
3552 969 -1.000000000000000e+00
3552 1091 -3.932423187957054e-03
3552 3086 -1.000000000000000e+00
3552 3552 2.011677611987296e+00
3553 1809 -1.015861654218656e+00
3553 2751 -1.000000000000000e+00
3553 3553 2.015861654218656e+00
3554 484 -1.000000000000000e+00
3554 621 -1.255124384451913e-02
3554 1119 -1.008860224277896e+00
3554 1763 -1.658069251589652e-03
3554 1936 -1.000000000000000e+00
3554 2990 -1.246854627787334e-03
3554 3554 3.024316392001792e+00
3555 314 -1.000000000000000e+00
3555 614 -1.000000000000000e+00
3555 2842 -1.877439884511722e-02
3555 3555 3.042157796391885e+00
3556 471 -1.000000000000000e+00
3556 906 -8.072454038361081e-03
3556 1123 -1.007841182354504e+00
3556 2691 -1.000000000000000e+00
3556 3556 4.015913636392865e+00
3557 5 -1.000000000000000e+00
3557 654 -1.344606593327130e-02
3557 2554 -1.009742652629030e+00
3557 3557 2.023188718562301e+00
3558 1309 -1.332134094430176e-02
3558 2108 -1.000000000000000e+00
3558 2131 -1.000000000000000e+00
3558 3558 3.015344619116014e+00
3559 53 -1.000000000000000e+00
3559 81 -1.019598957109993e+00
3559 3559 2.025930284352156e+00
3560 660 -1.797044911692090e-02
3560 679 -1.000000000000000e+00
3560 1437 -1.000000000000000e+00
3560 1756 -2.328036557503257e-02
3560 2904 -2.468031741713841e-02
3560 3560 2.080419392230366e+00
3561 1065 -1.000000000000000e+00
3561 1252 -1.556241495455839e-02
3561 1307 -1.000000000000000e+00
3561 1970 -1.363463002989775e-02
3561 3537 -1.429910740172125e-02
3561 3561 2.043496152386177e+00
3562 353 -1.000000000000000e+00
3562 582 -1.000000000000000e+00
3562 731 -1.988501325623298e-02
3562 3562 2.039560617506631e+00
3563 66 -1.000000000000000e+00
3563 67 -1.000000000000000e+00
3563 901 -8.485689448364862e-03
3563 2600 -2.031326614339254e-03
3563 3563 2.010517016062704e+00
3564 52 -1.932216082998454e-02
3564 63 -1.000000000000000e+00
3564 179 -1.000000000000000e+00
3564 2495 -1.798204703920719e-02
3564 2684 -2.054222584826359e-02
3564 3424 -1.449470725470578e-02
3564 3526 -3.113300936271843e-02
3564 3564 2.103474150334879e+00
3565 704 -1.000000000000000e+00
3565 1005 -1.000000000000000e+00
3565 2975 -2.860662944845559e-02
3565 3565 2.038251876510986e+00
3566 276 -1.000000000000000e+00
3566 294 -1.000000000000000e+00
3566 2027 -1.138883750638400e-02
3566 3054 -1.000000000000000e+00
3566 3566 3.028358920013285e+00
3567 598 -1.000000000000000e+00
3567 2514 -1.000000000000000e+00
3567 3054 -1.443802972113654e-02
3567 3567 4.045670326755564e+00
3568 57 -1.000000000000000e+00
3568 1628 -1.000000000000000e+00
3568 2508 -8.292777826959419e-04
3568 2920 -9.418863964930736e-03
3568 3568 2.010248141747627e+00
3569 210 -1.000000000000000e+00
3569 535 -1.000000000000000e+00
3569 3569 3.013644284792014e+00
3570 121 -1.000000000000000e+00
3570 465 -1.000000000000000e+00
3570 2446 -1.000102535160396e+00
3570 2558 -5.281241367573110e-04
3570 2636 -1.000000000000000e+00
3570 3570 4.000630659297153e+00
3571 209 -1.000000000000000e+00
3571 219 -2.008811033556875e-02
3571 2769 -1.000000000000000e+00
3571 3318 -2.571521700455370e-02
3571 3571 2.045803327340122e+00
3572 340 -1.000000000000000e+00
3572 436 -1.000000000000000e+00
3572 730 -1.902804525327030e-02
3572 1953 -1.000000000000000e+00
3572 3572 5.026944955611042e+00
3573 40 -1.000000000000000e+00
3573 355 -1.000000000000000e+00
3573 2319 -2.399425125365807e-02
3573 3573 2.061486933530885e+00
3574 68 -1.000000000000000e+00
3574 1749 -1.004293450534998e+00
3574 3271 -1.756077917651203e-02
3574 3574 3.021854229711510e+00
3575 11 -1.000000000000000e+00
3575 23 -1.000000000000000e+00
3575 393 -1.000000000000000e+00
3575 1094 -1.731302632712831e-02
3575 1914 -2.079323480822979e-02
3575 3575 4.050397905924176e+00
3576 2430 -1.000000000000000e+00
3576 2444 -1.000000000000000e+00
3576 3576 3.000000000000000e+00
3577 1171 -1.390414184283609e-02
3577 2527 -1.000000000000000e+00
3577 2739 -1.913160051028072e-02
3577 3427 -1.000000000000000e+00
3577 3577 3.033035742353117e+00
3578 1478 -4.749037182067427e-03
3578 2829 -1.000000000000000e+00
3578 2867 -1.011259040308417e+00
3578 3578 2.016008077490484e+00
3579 57 -1.000000000000000e+00
3579 632 -1.006930757167756e+00
3579 1666 -4.422457929301067e-03
3579 3579 2.011529621566959e+00
3580 1282 -1.000000000000000e+00
3580 1459 -1.000000000000000e+00
3580 3057 -1.000000000000000e+00
3580 3580 3.000000000000000e+00
3581 41 -2.075511489685341e-02
3581 585 -1.000000000000000e+00
3581 614 -1.000000000000000e+00
3581 3581 2.037147410047369e+00
3582 814 -1.000000000000000e+00
3582 2211 -1.000000000000000e+00
3582 3582 2.000000000000000e+00
3583 1003 -1.855299623944669e-02
3583 2189 -1.000000000000000e+00
3583 2647 -1.562719713550216e-02
3583 2750 -1.000000000000000e+00
3583 3583 3.034180193374949e+00
3584 97 -1.000000000000000e+00
3584 3317 -1.020021631114172e+00
3584 3584 2.020021631114172e+00
3585 324 -1.010817274521817e+00
3585 3098 -1.000000000000000e+00
3585 3585 3.011001597838762e+00
3586 29 -1.000000000000000e+00
3586 157 -1.000000000000000e+00
3586 688 -3.143521669649880e-03
3586 1488 -1.531875692924850e-02
3586 3586 2.023320711296523e+00
3587 542 -1.000000000000000e+00
3587 1318 -1.246268057155208e-02
3587 2328 -1.004856058885099e+00
3587 3587 2.022881078231590e+00
3588 383 -1.000000000000000e+00
3588 836 -1.483942974180523e-03
3588 1589 -1.000000000000000e+00
3588 3514 -1.092243671073457e-02
3588 3588 2.012406379684915e+00
3589 123 -1.000000000000000e+00
3589 2308 -8.090737743807700e-03
3589 2582 -1.000000000000000e+00
3589 3589 3.032058201921785e+00
3590 84 -6.296439553523626e-03
3590 126 -1.000000000000000e+00
3590 558 -1.002396432245867e+00
3590 3590 2.009037426271088e+00
3591 32 -1.000000000000000e+00
3591 70 -1.245172082067108e-02
3591 179 -1.000000000000000e+00
3591 639 -5.925370821533375e-03
3591 754 -4.901613435719046e-03
3591 1052 -8.401133747876002e-03
3591 1200 -4.914226088095866e-03
3591 2039 -8.075014941949208e-03
3591 2308 -1.379272897593142e-02
3591 2356 -1.657070473471341e-02
3591 2367 -2.373963790050178e-02
3591 2946 -2.570108438996184e-02
3591 3139 -1.032925730821138e-02
3591 3591 3.198531044856260e+00
3592 2642 -1.004867202207080e+00
3592 2752 -1.482068458782036e-02
3592 2806 -1.000000000000000e+00
3592 3592 2.019687886794900e+00
3593 538 -1.000000000000000e+00
3593 1343 -1.220873890210328e-02
3593 3142 -1.000000000000000e+00
3593 3593 2.031657200217482e+00
3594 503 -1.003085974020766e+00
3594 1120 -1.000000000000000e+00
3594 1776 -1.000000000000000e+00
3594 1869 -1.233074204016594e-02
3594 3594 3.015416716060932e+00
3595 3 -1.000000000000000e+00
3595 919 -1.000000000000000e+00
3595 2499 -1.000000000000000e+00
3595 3595 3.013328803254216e+00
3596 189 -4.952509238727038e-03
3596 589 -1.006511618876359e+00
3596 591 -1.000000000000000e+00
3596 616 -8.815638101303914e-03
3596 2574 -1.324358446181663e-02
3596 3596 5.039451047812076e+00
3597 372 -7.743792051244858e-03
3597 1059 -1.000000000000000e+00
3597 1151 -1.135771036576190e-02
3597 2529 -1.000000000000000e+00
3597 3597 2.019101502417007e+00
3598 226 -3.699344215093480e-03
3598 1224 -7.379165925295985e-03
3598 1491 -1.000000000000000e+00
3598 1608 -1.000000000000000e+00
3598 3598 2.011078510140389e+00
3599 4 -1.000000000000000e+00
3599 2868 -1.000728415560132e+00
3599 3599 2.000728415560132e+00
3600 157 -1.000000000000000e+00
3600 2443 -2.123762058756757e-02
3600 2727 -1.000000000000000e+00
3600 3600 2.029496551559971e+00
3601 270 -1.303889210185946e-04
3601 1309 -7.380841454107746e-03
3601 3233 -1.000000000000000e+00
3601 3528 -1.000000000000000e+00
3601 3601 2.019700070567182e+00
3602 209 -1.000000000000000e+00
3602 1859 -1.015891565979313e+00
3602 2075 -4.145396117694229e-03
3602 3137 -1.120669574929065e-02
3602 3602 2.090641525334836e+00
3603 126 -1.000000000000000e+00
3603 1999 -1.007640254158369e+00
3603 2692 -1.000000000000000e+00
3603 2879 -4.701985830780129e-03
3603 3603 3.012342239989149e+00
3604 270 -1.000000000000000e+00
3604 318 -7.434929542348479e-03
3604 385 -1.599993488616646e-02
3604 1949 -1.000000000000000e+00
3604 3604 3.023434864428515e+00
3605 7 -1.000000000000000e+00
3605 1442 -1.000000000000000e+00
3605 3605 3.000000000000000e+00
3606 1075 -1.000000000000000e+00
3606 1963 -1.000000000000000e+00
3606 3606 2.035713169990946e+00
3607 188 -4.194171477592380e-02
3607 702 -1.000000000000000e+00
3607 872 -1.000000000000000e+00
3607 3607 2.063018700137410e+00
3608 153 -1.000000000000000e+00
3608 615 -1.000000000000000e+00
3608 680 -1.400298959554836e-02
3608 1693 -1.000000000000000e+00
3608 2385 -1.214165925867776e-02
3608 3608 4.043765661729458e+00
3609 823 -1.981513408555498e-02
3609 1430 -1.000000000000000e+00
3609 2478 -1.000000000000000e+00
3609 2898 -2.674469117804426e-02
3609 3609 2.098490780170367e+00
3610 524 -1.000000000000000e+00
3610 2356 -1.000000000000000e+00
3610 3610 3.046506745732710e+00
3611 424 -1.000000000000000e+00
3611 2083 -1.000000000000000e+00
3611 3499 -4.555066310201641e-03
3611 3611 2.015419268177908e+00
3612 1664 -1.000000000000000e+00
3612 2865 -1.906068024176059e-02
3612 3063 -9.174810476228189e-03
3612 3351 -1.000000000000000e+00
3612 3612 2.028235490717989e+00
3613 2928 -1.000000000000000e+00
3613 3266 -1.009649150256289e+00
3613 3613 2.009649150256289e+00
3614 5 -1.000000000000000e+00
3614 1337 -1.000000000000000e+00
3614 3471 -2.272159490434530e-02
3614 3614 3.041586890433027e+00
3615 604 -1.000000000000000e+00
3615 1047 -3.311211162425726e-03
3615 2280 -1.000000000000000e+00
3615 3310 -2.521748523384480e-02
3615 3615 2.028528696396271e+00
3616 293 -1.000000000000000e+00
3616 1698 -1.734843049493813e-02
3616 1981 -2.233440412943367e-02
3616 2732 -1.827105153877326e-02
3616 3248 -1.000000000000000e+00
3616 3491 -1.305164401403429e-03
3616 3616 2.059259050564548e+00
3617 356 -1.000000000000000e+00
3617 1084 -1.000000000000000e+00
3617 2072 -1.981613223085052e-03
3617 3421 -1.439372229207501e-03
3617 3617 2.003420985452292e+00
3618 229 -4.018759959515194e-03
3618 363 -1.000000000000000e+00
3618 1070 -8.555013176424165e-03
3618 1644 -1.000000000000000e+00
3618 3618 2.024449900892549e+00
3619 311 -1.000000000000000e+00
3619 2421 -1.010150504322723e+00
3619 3619 4.010150504322723e+00
3620 68 -1.190959217436443e-02
3620 177 -1.000000000000000e+00
3620 1153 -1.000000000000000e+00
3620 2624 -1.000000000000000e+00
3620 3620 3.017717074150067e+00
3621 8 -1.000000000000000e+00
3621 700 -2.884940128199067e-02
3621 1072 -1.000000000000000e+00
3621 3621 3.045226509406500e+00
3622 470 -1.028045158760786e+00
3622 571 -1.217150461555462e-02
3622 1978 -1.000000000000000e+00
3622 2170 -1.907639319988362e-02
3622 3622 2.059293056576224e+00
3623 230 -1.000000000000000e+00
3623 273 -1.000000000000000e+00
3623 635 -7.440261191613963e-03
3623 647 -1.354258491773790e-02
3623 768 -1.722785168220961e-02
3623 1257 -1.000000000000000e+00
3623 2068 -1.622365902121608e-02
3623 2477 -8.567529628494832e-03
3623 2759 -1.324238968605398e-02
3623 3321 -8.648816860228741e-03
3623 3623 3.084893092987555e+00
3624 855 -1.000000000000000e+00
3624 1398 -1.000000000000000e+00
3624 2777 -6.673961967624741e-03
3624 3624 3.023428809911866e+00
3625 2845 -1.033442710167921e+00
3625 3336 -1.014153950575022e+00
3625 3625 2.047596660742943e+00
3626 1768 -1.000000000000000e+00
3626 2423 -1.000000000000000e+00
3626 2437 -1.000000000000000e+00
3626 3261 -1.604765303952548e-02
3626 3626 4.021118297375152e+00
3627 18 -1.000000000000000e+00
3627 2857 -5.668154841933926e-03
3627 3215 -1.013282709845654e+00
3627 3627 4.018950864687588e+00
3628 98 -2.202096596433744e-02
3628 416 -1.000000000000000e+00
3628 580 -3.521028363389996e-02
3628 1553 -1.633517489067437e-02
3628 1684 -1.775995788964645e-02
3628 2652 -1.000000000000000e+00
3628 3227 -1.000000000000000e+00
3628 3628 5.116580374723508e+00
3629 919 -1.000000000000000e+00
3629 1404 -1.000000000000000e+00
3629 3629 3.032534798520885e+00
3630 152 -1.000000000000000e+00
3630 202 -1.508754453113880e-02
3630 217 -1.024181550006312e+00
3630 267 -6.891707954069601e-03
3630 315 -1.194422066751318e-02
3630 476 -2.148840195903743e-02
3630 634 -2.386607466589629e-02
3630 913 -1.826304538881325e-02
3630 920 -1.124302785456872e-02
3630 975 -2.496851657229817e-02
3630 1314 -1.644137045697370e-02
3630 1380 -1.501649505676689e-02
3630 2294 -1.656376969989141e-02
3630 2812 -1.384319769081290e-02
3630 2817 -1.586594939804998e-02
3630 2847 -1.858827126546181e-02
3630 2883 -1.361787890349138e-02
3630 3404 -2.329326501629408e-02
3630 3530 -2.546842226297956e-02
3630 3630 2.480066393498713e+00
3631 69 -1.022550037413620e+00
3631 711 -1.000000000000000e+00
3631 1398 -7.742759761519272e-03
3631 1673 -1.507346752178264e-02
3631 2443 -1.004054612622923e-02
3631 2717 -1.703064086763482e-02
3631 3182 -2.093861099929631e-02
3631 3241 -1.442236471419829e-02
3631 3631 2.107798427404281e+00
3632 282 -1.000000000000000e+00
3632 2745 -1.000000000000000e+00
3632 3632 3.036704873040141e+00
3633 504 -1.002906550690262e+00
3633 2918 -1.000000000000000e+00
3633 3633 4.009258722796667e+00
3634 1400 -1.000000000000000e+00
3634 1851 -2.002817527903150e-02
3634 1862 -1.720605709074358e-02
3634 2080 -1.842835672185555e-02
3634 2354 -1.000000000000000e+00
3634 3048 -8.861428994389020e-03
3634 3634 4.065604219160825e+00
3635 76 -1.000000000000000e+00
3635 494 -7.712791393106350e-03
3635 796 -1.029120608639162e-02
3635 951 -1.000000000000000e+00
3635 2270 -2.398365481612294e-02
3635 2441 -1.000000000000000e+00
3635 2687 -2.074931567744830e-02
3635 3635 4.062736967973069e+00
3636 2428 -1.000000000000000e+00
3636 2444 -1.003368700310233e+00
3636 3636 3.007235844054844e+00
3637 1163 -1.000000000000000e+00
3637 1335 -1.013180914114887e+00
3637 2842 -7.096789091597559e-04
3637 3581 -1.639229515051516e-02
3637 3637 2.030282888174562e+00
3638 204 -4.041318166020318e-03
3638 224 -6.702717255351182e-03
3638 402 -1.000000000000000e+00
3638 1273 -9.212550710715492e-03
3638 1391 -5.798673648024115e-03
3638 2276 -1.012955102293058e+00
3638 2821 -1.425848661108790e-02
3638 3159 -8.886860205037993e-03
3638 3193 -3.559785149788441e-03
3638 3638 2.077636037222298e+00
3639 202 -2.580921889579041e-02
3639 360 -2.936776961663608e-02
3639 470 -1.000000000000000e+00
3639 892 -2.395414180933703e-02
3639 1114 -1.795552113106556e-02
3639 1263 -1.789453747871773e-02
3639 1409 -2.607905977914913e-02
3639 1826 -1.000000000000000e+00
3639 2345 -1.925016236723160e-02
3639 2715 -2.070695730110160e-02
3639 2937 -2.605389736164131e-02
3639 3283 -1.567940460750570e-02
3639 3331 -3.032246236832830e-02
3639 3367 -1.421100766223047e-02
3639 3481 -2.449964002235873e-02
3639 3639 5.412579385399830e+00
3640 488 -2.049715511967346e-03
3640 724 -1.000000000000000e+00
3640 1165 -1.000000000000000e+00
3640 1264 -1.000000000000000e+00
3640 3640 3.016559404484465e+00
3641 57 -1.000000000000000e+00
3641 118 -1.000000000000000e+00
3641 1467 -4.560761050270858e-03
3641 3014 -1.015866202696948e+00
3641 3328 -1.033648217498791e-02
3641 3641 3.047105351318348e+00
3642 7 -1.000000000000000e+00
3642 1554 -2.061041455721457e-02
3642 2189 -1.000000000000000e+00
3642 3642 3.033624607545189e+00
3643 176 -1.000000000000000e+00
3643 2810 -1.000000000000000e+00
3643 3498 -1.106069553468961e-03
3643 3643 2.007695000183896e+00
3644 2214 -1.000000000000000e+00
3644 2445 -1.000000000000000e+00
3644 3644 3.000000000000000e+00
3645 994 -1.006709995069421e+00
3645 1421 -1.000000000000000e+00
3645 2620 -1.000000000000000e+00
3645 3383 -1.644520567230404e-02
3645 3645 3.023155200741725e+00
3646 1227 -1.000000000000000e+00
3646 1754 -1.440091166198547e-02
3646 2027 -1.000000000000000e+00
3646 2360 -1.532716063061146e-02
3646 3646 2.029728072292597e+00
3647 116 -1.000000000000000e+00
3647 1804 -8.919586293010681e-04
3647 2644 -1.000000000000000e+00
3647 3647 2.008348143464216e+00
3648 254 -1.000000000000000e+00
3648 373 -1.000000000000000e+00
3648 3648 3.045901071845085e+00
3649 175 -1.000000000000000e+00
3649 1625 -3.086952383597712e-03
3649 3211 -1.000000000000000e+00
3649 3349 -1.000000000000000e+00
3649 3649 4.019019805262859e+00
3650 150 -1.000000000000000e+00
3650 1163 -1.000000000000000e+00
3650 1959 -1.786200915576159e-02
3650 3650 4.037814975706593e+00
3651 1460 -4.747493174135472e-03
3651 2381 -1.000000000000000e+00
3651 2693 -1.000000000000000e+00
3651 3052 -8.114584897473989e-03
3651 3119 -1.005256790192183e+00
3651 3651 3.018118868263792e+00
3652 2608 -1.007847684838666e+00
3652 3106 -1.000000000000000e+00
3652 3652 2.007847684838666e+00
3653 3 -1.000000000000000e+00
3653 2880 -8.105589936239988e-03
3653 3103 -1.016432572712505e+00
3653 3653 2.024538162648745e+00
3654 603 -1.000000000000000e+00
3654 2709 -1.004581162674206e+00
3654 3654 2.004581162674206e+00
3655 27 -1.000000000000000e+00
3655 588 -1.000000000000000e+00
3655 608 -7.539507099746295e-03
3655 1217 -1.320049392735207e-02
3655 1826 -1.406402626502525e-02
3655 3655 2.034804027292124e+00
3656 53 -1.000000000000000e+00
3656 618 -2.718573036433867e-03
3656 1196 -1.010133847677290e+00
3656 2672 -6.453020533925553e-03
3656 3656 2.019305441247650e+00
3657 7 -1.000000000000000e+00
3657 428 -1.000000000000000e+00
3657 1962 -1.831572482034591e-02
3657 3203 -2.910817404697665e-02
3657 3657 3.100366852199450e+00
3658 1698 -1.707430488241313e-02
3658 1834 -1.000000000000000e+00
3658 1981 -1.000000000000000e+00
3658 3248 -1.944379428843863e-02
3658 3491 -7.410153063192309e-03
3658 3658 2.043928252234044e+00
3659 78 -1.000000000000000e+00
3659 120 -1.000000000000000e+00
3659 1182 -9.507736830022321e-03
3659 3659 2.026229145934756e+00
3660 1179 -1.012137990539926e+00
3660 3445 -6.683049762198218e-03
3660 3596 -1.000000000000000e+00
3660 3660 2.018821040302124e+00
3661 89 -2.005517899937043e-02
3661 545 -1.402315978862485e-02
3661 1230 -1.000000000000000e+00
3661 1299 -1.007200885203426e+00
3661 3147 -1.875224945799012e-02
3661 3661 2.068167725311615e+00
3662 2338 -1.000328989582126e+00
3662 3256 -1.000000000000000e+00
3662 3662 2.000328989582126e+00
3663 164 -1.000000000000000e+00
3663 1035 -1.000000000000000e+00
3663 3137 -1.000000000000000e+00
3663 3663 3.000000000000000e+00
3664 269 -7.093898561361710e-03
3664 301 -1.721126851725339e-02
3664 361 -1.000000000000000e+00
3664 1783 -1.000000000000000e+00
3664 3664 3.026842714812475e+00
3665 368 -1.000000000000000e+00
3665 587 -1.000000000000000e+00
3665 1413 -5.286449057457576e-03
3665 3665 2.006071742490060e+00
3666 26 -1.000000000000000e+00
3666 346 -1.720339984653792e-02
3666 2389 -1.000000000000000e+00
3666 3666 2.033992314039130e+00
3667 18 -4.254512883395413e-03
3667 1676 -1.316759500938033e-02
3667 2093 -1.010484657272384e+00
3667 2507 -1.000000000000000e+00
3667 3667 2.036282832266648e+00
3668 294 -1.018297584616104e-02
3668 1658 -1.000000000000000e+00
3668 3474 -1.000000000000000e+00
3668 3566 -4.608172034893076e-03
3668 3668 2.014791147881054e+00
3669 5 -1.000000000000000e+00
3669 2562 -8.370783470030275e-03
3669 3494 -1.000000000000000e+00
3669 3669 3.020654241564146e+00
3670 258 -1.000000000000000e+00
3670 1207 -1.000000000000000e+00
3670 2452 -2.796571211791812e-02
3670 3609 -3.463294262245260e-02
3670 3670 2.092084420752240e+00
3671 67 -1.000000000000000e+00
3671 371 -1.006501641428824e+00
3671 1189 -2.124990520251019e-02
3671 2392 -1.370952897226359e-02
3671 3671 2.041461075603598e+00
3672 5 -1.000000000000000e+00
3672 220 -1.000000000000000e+00
3672 1182 -6.309800084390207e-03
3672 1546 -1.990448853732635e-02
3672 2352 -1.399343397011967e-02
3672 3650 -1.542531669125159e-02
3672 3672 2.097661817213282e+00
3673 1238 -2.423883171846435e-02
3673 2296 -1.000000000000000e+00
3673 2543 -2.865852841309872e-02
3673 2883 -1.000000000000000e+00
3673 3673 2.112265145735539e+00
3674 1414 -1.000000000000000e+00
3674 3364 -1.000000000000000e+00
3674 3674 3.014784500478111e+00
3675 191 -1.000000000000000e+00
3675 1261 -2.458698442851924e-02
3675 1792 -1.257040565161300e-02
3675 3530 -1.000000000000000e+00
3675 3675 3.058772982587846e+00
3676 1158 -1.000000000000000e+00
3676 3548 -1.000000000000000e+00
3676 3676 3.018745104969452e+00
3677 130 -1.000000000000000e+00
3677 966 -1.000000000000000e+00
3677 2699 -2.540335615650115e-02
3677 3677 2.047291427359394e+00
3678 628 -1.009931297911295e+00
3678 1749 -7.571939091297690e-03
3678 1999 -1.000000000000000e+00
3678 3271 -1.354157087279277e-02
3678 3678 2.031044807875386e+00
3679 384 -1.033827085697099e-02
3679 550 -1.000000000000000e+00
3679 1617 -1.000000000000000e+00
3679 2092 -7.297710263603879e-03
3679 3679 2.034097630058101e+00
3680 781 -1.000000000000000e+00
3680 1028 -1.000000000000000e+00
3680 2365 -8.911236239684574e-03
3680 2563 -1.013176236406520e+00
3680 3680 3.022087472646204e+00
3681 1570 -1.000000000000000e+00
3681 2720 -1.000000000000000e+00
3681 2918 -1.395004181004038e-03
3681 2939 -1.230368138881312e-02
3681 3235 -8.238605719304758e-03
3681 3681 3.021937291289122e+00
3682 632 -1.000000000000000e+00
3682 1565 -1.000000000000000e+00
3682 3682 3.014176357992599e+00
3683 1738 -1.268713541620308e-02
3683 1785 -1.000000000000000e+00
3683 2235 -1.007103452629628e+00
3683 3076 -5.398424689079502e-03
3683 3683 2.025189012734911e+00
3684 452 -1.020957977440654e+00
3684 2063 -1.909931322770467e-02
3684 2243 -1.690171738489347e-02
3684 2312 -1.333176479061478e-02
3684 2474 -1.808795436332666e-02
3684 2716 -1.000000000000000e+00
3684 3301 -1.867185491010426e-02
3684 3487 -3.003233117115586e-02
3684 3684 2.137082913288454e+00
3685 28 -1.000000000000000e+00
3685 51 -3.040239961923848e-02
3685 842 -1.000000000000000e+00
3685 3685 2.041895312406060e+00
3686 572 -1.000000000000000e+00
3686 773 -1.000000000000000e+00
3686 3669 -1.010877245827697e+00
3686 3686 4.011967215924493e+00
3687 313 -1.000000000000000e+00
3687 360 -1.000000000000000e+00
3687 813 -3.690386950124951e-02
3687 3687 2.057873059712355e+00
3688 860 -1.049480583819546e-02
3688 1192 -1.000000000000000e+00
3688 1478 -1.000000000000000e+00
3688 3688 6.023641313221460e+00
3689 1160 -1.020158459153280e-02
3689 1477 -1.220600175959257e-02
3689 1711 -1.000000000000000e+00
3689 2968 -1.006911338721360e+00
3689 3057 -9.249906479534506e-03
3689 3120 -6.594959414468641e-03
3689 3443 -1.672872219723803e-02
3689 3689 3.079482642098787e+00
3690 202 -9.719200868266383e-03
3690 634 -1.000000000000000e+00
3690 788 -1.539621182952493e-02
3690 1184 -1.000000000000000e+00
3690 3690 2.025115412697791e+00
3691 1735 -1.493474325741665e-02
3691 2739 -1.544293710726646e-02
3691 2747 -1.000000000000000e+00
3691 3427 -1.675881389827219e-02
3691 3577 -1.000000000000000e+00
3691 3691 2.047136494262955e+00
3692 345 -1.025938340821856e+00
3692 351 -5.566696782673332e-03
3692 484 -1.000000000000000e+00
3692 3692 2.038789977528431e+00
3693 50 -1.000000000000000e+00
3693 296 -1.000000000000000e+00
3693 1026 -2.414096647241034e-02
3693 1453 -2.032001748390352e-02
3693 2478 -2.793168650262257e-02
3693 3693 2.097081803817932e+00
3694 62 -1.000000000000000e+00
3694 853 -9.602459158457092e-03
3694 2658 -1.000000000000000e+00
3694 2703 -7.015698680731964e-03
3694 3694 2.016618157839189e+00
3695 592 -1.000000000000000e+00
3695 1944 -1.024489960362025e-02
3695 2699 -1.636093214413012e-02
3695 2957 -1.000000000000000e+00
3695 3695 2.026605831747750e+00
3696 238 -1.000000000000000e+00
3696 1996 -1.000000000000000e+00
3696 2857 -6.347376492320608e-03
3696 3627 -1.000000000000000e+00
3696 3696 3.011753467482238e+00
3697 520 -1.139250378725024e-02
3697 1791 -1.000000000000000e+00
3697 2697 -1.000000000000000e+00
3697 3295 -1.925636060793158e-02
3697 3697 2.030648864395182e+00
3698 29 -1.004397936258112e+00
3698 343 -1.436596315550277e-02
3698 349 -1.000000000000000e+00
3698 3698 3.018763899413615e+00
3699 21 -1.000000000000000e+00
3699 2633 -1.000000000000000e+00
3699 3699 2.014667711577290e+00
3700 109 -1.006646328428153e+00
3700 316 -6.368518300372753e-03
3700 811 -1.386980916603583e-02
3700 1403 -1.000000000000000e+00
3700 1652 -1.000000000000000e+00
3700 2573 -2.665402213017371e-02
3700 3700 3.070239237097624e+00
3701 11 -1.000000000000000e+00
3701 1303 -2.851183114299686e-02
3701 1870 -1.000000000000000e+00
3701 3050 -1.009099784376261e-02
3701 3701 4.038602828986759e+00
3702 275 -1.000000000000000e+00
3702 1035 -1.000000000000000e+00
3702 3032 -3.703339292758491e-03
3702 3209 -1.410014855265442e-02
3702 3702 2.017803487845413e+00
3703 164 -1.000000000000000e+00
3703 2218 -8.876369771903523e-04
3703 2478 -1.000000000000000e+00
3703 3449 -1.000000000000000e+00
3703 3703 4.009300950305863e+00
3704 1154 -1.830384004023265e-02
3704 1746 -1.000000000000000e+00
3704 2555 -1.017438707811208e+00
3704 3657 -2.312901261266842e-02
3704 3704 2.096230113686822e+00
3705 251 -1.000000000000000e+00
3705 496 -1.007652362756624e+00
3705 1270 -7.459258810691072e-03
3705 1436 -6.988805759824099e-03
3705 3386 -4.794663601756585e-03
3705 3705 3.033885233436563e+00
3706 11 -1.000000000000000e+00
3706 1261 -1.000000000000000e+00
3706 2009 -1.967598157711382e-02
3706 2089 -1.000000000000000e+00
3706 2112 -1.475973325598389e-02
3706 3706 3.056200085365990e+00
3707 127 -7.053194805131234e-03
3707 200 -1.592475221188283e-02
3707 1375 -1.066169997284101e-02
3707 1377 -1.000000000000000e+00
3707 2319 -1.213717016884899e-02
3707 2921 -1.000000000000000e+00
3707 3362 -6.108646791231596e-03
3707 3707 2.079039865206875e+00
3708 126 -1.000000000000000e+00
3708 558 -1.001117743873900e-02
3708 1578 -1.000000000000000e+00
3708 3708 3.018001987812577e+00
3709 800 -1.037482155442521e-02
3709 927 -1.000000000000000e+00
3709 1218 -1.937297689600374e-03
3709 1420 -1.000000000000000e+00
3709 1778 -8.568150764899998e-03
3709 3709 2.020994504734121e+00
3710 50 -1.000000000000000e+00
3710 236 -1.725813686873066e-02
3710 1742 -1.000000000000000e+00
3710 3710 3.022993964916590e+00
3711 11 -1.000000000000000e+00
3711 73 -1.000000000000000e+00
3711 1303 -1.701401094282779e-02
3711 2112 -1.588382230048276e-02
3711 2704 -1.708653446631585e-02
3711 3529 -3.332657036661282e-02
3711 3711 3.117783692420316e+00
3712 468 -1.714576022341004e-02
3712 1486 -1.019695829998912e+00
3712 1685 -8.689994761009165e-03
3712 1981 -1.000000000000000e+00
3712 2320 -1.927779355050763e-04
3712 2713 -1.529441674096757e-02
3712 3712 2.098228826676946e+00
3713 2996 -1.000000000000000e+00
3713 3471 -1.000000000000000e+00
3713 3540 -2.613065468987887e-02
3713 3713 2.057308384322325e+00
3714 972 -1.000000000000000e+00
3714 2856 -2.212330541349036e-02
3714 2919 -1.000000000000000e+00
3714 3714 3.040517846734823e+00
3715 82 -1.000000000000000e+00
3715 1105 -1.000000000000000e+00
3715 1191 -2.138983507257929e-02
3715 2050 -2.706359829584001e-02
3715 3715 3.048453433368419e+00
3716 164 -1.000000000000000e+00
3716 1685 -1.000000000000000e+00
3716 2043 -1.124965212110375e-02
3716 2468 -2.251724351052852e-02
3716 3712 -2.437294587773790e-02
3716 3716 2.058139841509370e+00
3717 186 -1.000000000000000e+00
3717 2149 -2.259871953156113e-02
3717 2363 -1.000000000000000e+00
3717 3523 -2.075090297621420e-02
3717 3602 -1.945257060603481e-02
3717 3717 2.062802193113810e+00
3718 5 -1.000000000000000e+00
3718 105 -1.000000000000000e+00
3718 935 -1.408111175695994e-02
3718 2680 -1.407051549902434e-02
3718 3326 -2.104670973161599e-02
3718 3718 4.049198336987600e+00
3719 131 -1.000000000000000e+00
3719 469 -1.000000000000000e+00
3719 3567 -3.123229703442791e-02
3719 3719 3.042584162719981e+00
3720 162 -1.000000000000000e+00
3720 1512 -1.000000000000000e+00
3720 1732 -2.068769662746878e-02
3720 3720 3.037168646289957e+00
3721 466 -1.000000000000000e+00
3721 2379 -1.000000000000000e+00
3721 3721 3.050343979510644e+00
3722 179 -1.000000000000000e+00
3722 388 -3.856382296021299e-04
3722 893 -1.000000000000000e+00
3722 1055 -3.851259864300326e-03
3722 3268 -1.137345712539378e-02
3722 3722 4.030260471035371e+00
3723 330 -1.000000000000000e+00
3723 584 -1.000000000000000e+00
3723 1317 -1.575174468232520e-02
3723 1407 -1.144797519006770e-02
3723 2182 -3.057782043702194e-03
3723 2510 -1.811334109756546e-02
3723 3723 2.048370843013660e+00
3724 652 -1.000000000000000e+00
3724 2993 -1.000000000000000e+00
3724 3724 4.007283003005940e+00
3725 369 -1.000000000000000e+00
3725 1489 -1.000000000000000e+00
3725 3522 -1.000000000000000e+00
3725 3725 3.000000000000000e+00
3726 32 -1.000000000000000e+00
3726 406 -1.000000000000000e+00
3726 863 -3.533644158603517e-02
3726 2652 -1.976631663209622e-02
3726 2676 -1.906945569177978e-02
3726 3726 2.091563698741723e+00
3727 28 -1.000000000000000e+00
3727 672 -1.459343322519164e-02
3727 1147 -1.000000000000000e+00
3727 3727 4.017801993888949e+00
3728 99 -2.297547704251713e-02
3728 238 -1.000000000000000e+00
3728 252 -1.000000000000000e+00
3728 493 -2.149278674883161e-02
3728 3728 2.044468263791349e+00
3729 373 -1.000000000000000e+00
3729 2146 -1.000000000000000e+00
3729 2340 -2.510047121498179e-02
3729 3639 -1.947064813265307e-02
3729 3729 2.044571119347635e+00
3730 359 -1.000000000000000e+00
3730 2418 -1.061816761200509e-02
3730 2501 -1.000000000000000e+00
3730 3673 -3.199797604948885e-02
3730 3730 3.042616143661494e+00
3731 292 -1.000000000000000e+00
3731 420 -1.578773956394942e-03
3731 541 -1.000000000000000e+00
3731 1650 -3.890754133591722e-03
3731 3297 -2.609106845784036e-04
3731 3731 2.027745920805201e+00
3732 1285 -1.000000000000000e+00
3732 1957 -2.404764269566936e-02
3732 1972 -1.000000000000000e+00
3732 3040 -1.000000000000000e+00
3732 3183 -2.184048304530756e-02
3732 3732 3.056811103135473e+00
3733 1350 -1.875259079993859e-02
3733 1521 -1.006066215247729e+00
3733 1915 -4.928746205315090e-03
3733 2721 -1.000000000000000e+00
3733 3337 -2.666614355016651e-02
3733 3457 -5.929198398686031e-03
3733 3733 3.106385047570396e+00
3734 322 -1.000000000000000e+00
3734 2758 -1.000000000000000e+00
3734 2804 -1.000000000000000e+00
3734 3734 3.000000000000000e+00
3735 2211 -1.000000000000000e+00
3735 2598 -1.000000000000000e+00
3735 2751 -1.793502789402302e-02
3735 3264 -6.283258403496524e-03
3735 3735 2.024218286297520e+00
3736 129 -1.000000000000000e+00
3736 199 -1.008469731080993e-02
3736 1282 -1.000000000000000e+00
3736 2900 -1.988016855266185e-02
3736 3736 2.029964865863472e+00
3737 1282 -1.000000000000000e+00
3737 1538 -1.000000000000000e+00
3737 3737 3.009781017918387e+00
3738 5 -1.000000000000000e+00
3738 566 -1.000000000000000e+00
3738 1326 -2.547739012327515e-02
3738 1746 -1.000000000000000e+00
3738 2997 -1.714505218181147e-02
3738 3704 -1.609123955613413e-02
3738 3738 3.090652274626911e+00
3739 289 -1.000000000000000e+00
3739 626 -1.420197566007102e-02
3739 1528 -1.000000000000000e+00
3739 3190 -8.824181568613679e-03
3739 3739 2.023026157228685e+00
3740 18 -1.000000000000000e+00
3740 976 -3.471515715818653e-03
3740 2140 -3.150978590247410e-03
3740 2612 -1.044989806528117e-02
3740 3191 -1.000000000000000e+00
3740 3740 2.044131899148895e+00
3741 247 -1.000000000000000e+00
3741 1719 -1.000000000000000e+00
3741 1862 -1.000000000000000e+00
3741 3555 -1.000000000000000e+00
3741 3741 4.035492337910092e+00
3742 972 -1.006363531508453e+00
3742 2102 -1.000000000000000e+00
3742 2531 -5.505909301230492e-03
3742 3414 -8.537384024582845e-03
3742 3742 2.020406824834266e+00
3743 1924 -1.020561170547865e+00
3743 2353 -1.000000000000000e+00
3743 3743 2.020561170547865e+00
3744 8 -2.442839837544334e-02
3744 296 -1.730254868546553e-02
3744 715 -1.728900982889379e-02
3744 1146 -2.404119595645650e-02
3744 1360 -1.000000000000000e+00
3744 2837 -1.021071901920039e-02
3744 3008 -1.000000000000000e+00
3744 3744 2.093271871865459e+00
3745 1288 -1.000000000000000e+00
3745 1448 -1.000000000000000e+00
3745 3354 -1.089082382784608e-02
3745 3745 2.026012473450385e+00
3746 249 -1.625217974233156e-02
3746 1158 -2.612102552869039e-03
3746 1209 -1.000000000000000e+00
3746 2972 -1.529549489215575e-02
3746 3272 -1.000000000000000e+00
3746 3746 2.034159777187357e+00
3747 2 -1.000000000000000e+00
3747 914 -3.119286009582182e-02
3747 1187 -1.000000000000000e+00
3747 2418 -2.107291526345050e-03
3747 3747 3.033300151622167e+00
3748 147 -1.000000000000000e+00
3748 480 -3.628665954591431e-03
3748 484 -9.216310324223558e-03
3748 667 -1.330817464381705e-02
3748 1836 -1.195373707030135e-02
3748 2164 -2.217576352830431e-02
3748 2233 -1.048456921045692e-02
3748 2756 -2.791701390991641e-02
3748 2849 -1.000000000000000e+00
3748 3659 -1.672140910473366e-02
3748 3748 2.134913932671477e+00
3749 2450 -1.011506761220939e+00
3749 2925 -1.346177746088326e-02
3749 3072 -1.006453359453486e+00
3749 3749 2.052651376602350e+00
3750 563 -6.242999945409596e-03
3750 893 -1.000000000000000e+00
3750 1076 -1.000000000000000e+00
3750 1449 -2.790143547811398e-03
3750 1835 -1.370924731900343e-02
3750 1902 -1.483865951014433e-02
3750 2430 -1.092333705344480e-02
3750 2980 -1.003095261988762e+00
3750 3750 3.051599649364575e+00
3751 1631 -1.439124463770565e-02
3751 2206 -1.000000000000000e+00
3751 2311 -1.020097468682653e+00
3751 3751 2.034488713320359e+00
3752 254 -1.000000000000000e+00
3752 373 -2.040237308850228e-02
3752 1069 -1.000000000000000e+00
3752 2669 -2.072528367120021e-02
3752 3752 5.041127656759702e+00
3753 1214 -1.000000000000000e+00
3753 1347 -4.410274865903310e-03
3753 2580 -1.000000000000000e+00
3753 3753 3.012130245447222e+00
3754 465 -1.000000000000000e+00
3754 695 -1.001645354356416e+00
3754 2313 -8.226968538244941e-03
3754 3754 3.009872322894661e+00
3755 42 -1.000000000000000e+00
3755 710 -3.090925189352996e-02
3755 718 -1.000000000000000e+00
3755 3270 -1.181055011653869e-02
3755 3755 2.042719802010069e+00
3756 384 -1.000000000000000e+00
3756 668 -1.000000000000000e+00
3756 871 -8.446880491401826e-04
3756 3061 -5.958764119620269e-03
3756 3679 -1.646164893752612e-02
3756 3756 2.023265101106287e+00
3757 46 -1.025712718079475e+00
3757 573 -1.000000000000000e+00
3757 1396 -2.515328360018844e-02
3757 3023 -1.614988414475888e-02
3757 3757 2.067015885824423e+00
3758 114 -1.000000000000000e+00
3758 561 -1.000000000000000e+00
3758 1912 -1.838312067481923e-02
3758 1947 -1.585277277426640e-02
3758 3758 2.064643935700442e+00
3759 1041 -8.284173945314138e-03
3759 1177 -1.000000000000000e+00
3759 1988 -1.000000000000000e+00
3759 3759 2.017170788231052e+00
3760 70 -1.000000000000000e+00
3760 340 -1.000000000000000e+00
3760 436 -3.450530060781370e-03
3760 730 -2.442319223503751e-02
3760 2245 -6.158813874715757e-03
3760 2750 -1.018786399655932e-03
3760 3572 -7.916910357772261e-03
3760 3760 2.042968232927963e+00
3761 317 -1.000000000000000e+00
3761 2073 -1.000000000000000e+00
3761 2384 -1.262327508771465e-02
3761 2480 -7.410096213829680e-03
3761 3761 3.020033371301544e+00
3762 349 -1.000000000000000e+00
3762 1984 -1.000000000000000e+00
3762 3490 -1.004511964174877e+00
3762 3762 3.004511964174878e+00
3763 77 -1.000000000000000e+00
3763 433 -1.000000000000000e+00
3763 834 -1.000000000000000e+00
3763 960 -1.298130176127284e-02
3763 3763 3.021529371730039e+00
3764 89 -3.037402267257515e-03
3764 545 -1.018178933658783e+00
3764 891 -1.600353915774849e-02
3764 2205 -1.000000000000000e+00
3764 3764 2.037219875083789e+00
3765 68 -1.000000000000000e+00
3765 1153 -1.015031550970812e+00
3765 3232 -1.066698192147667e-02
3765 3765 2.044388983240872e+00
3766 19 -1.582937452247922e-02
3766 287 -1.000000000000000e+00
3766 755 -2.183725191070392e-02
3766 2454 -1.000000000000000e+00
3766 3516 -1.000000000000000e+00
3766 3766 3.037666626433183e+00
3767 1 -1.000000000000000e+00
3767 688 -8.373122279035557e-03
3767 1116 -1.010770328373299e+00
3767 1488 -1.199412128311235e-02
3767 3039 -1.000000000000000e+00
3767 3767 3.031137571935447e+00
3768 459 -1.014757918132000e+00
3768 926 -1.000000000000000e+00
3768 3768 3.014757918132000e+00
3769 159 -1.000000000000000e+00
3769 3730 -1.000000000000000e+00
3769 3769 3.007689488799990e+00
3770 247 -2.364634861903366e-02
3770 1912 -6.698159775151881e-03
3770 2426 -1.014282577704370e+00
3770 3029 -1.000000000000000e+00
3770 3770 2.044627086098555e+00
3771 1 -1.000000000000000e+00
3771 2702 -1.000000000000000e+00
3771 3007 -1.736327197896491e-02
3771 3630 -7.368594421219544e-03
3771 3771 2.024731866400185e+00
3772 1309 -1.000000000000000e+00
3772 1517 -1.000000000000000e+00
3772 3772 3.000000000000000e+00
3773 605 -1.000000000000000e+00
3773 1328 -3.238497666832809e-03
3773 3311 -1.000000000000000e+00
3773 3773 2.019776842649046e+00
3774 786 -6.237928576446676e-03
3774 795 -1.000000000000000e+00
3774 2986 -1.004441183116107e+00
3774 3774 2.010679111692554e+00
3775 152 -1.000000000000000e+00
3775 1306 -1.266622973133867e-02
3775 2365 -1.000000000000000e+00
3775 2862 -2.611133895814558e-02
3775 3775 2.038777568689484e+00
3776 278 -1.000000000000000e+00
3776 743 -1.000000000000000e+00
3776 3776 2.035458300990031e+00
3777 306 -1.000000000000000e+00
3777 1953 -1.000000000000000e+00
3777 2174 -1.720754737966469e-02
3777 3777 2.058816745527869e+00
3778 138 -1.000000000000000e+00
3778 692 -1.107985454867970e-02
3778 1267 -1.257263285510477e-02
3778 2792 -1.390075352056570e-02
3778 3533 -1.000000000000000e+00
3778 3778 4.037553240924350e+00
3779 348 -1.000000000000000e+00
3779 1007 -1.000000000000000e+00
3779 3779 3.000000000000000e+00
3780 135 -1.000000000000000e+00
3780 473 -1.000000000000000e+00
3780 3282 -1.351738722781296e-02
3780 3780 2.035806046872012e+00
3781 88 -1.000000000000000e+00
3781 379 -9.188024318605888e-03
3781 2184 -1.789357380017039e-02
3781 3368 -1.000000000000000e+00
3781 3781 2.027081598118776e+00
3782 112 -1.000000000000000e+00
3782 1216 -1.195413855680772e-02
3782 2705 -1.000000000000000e+00
3782 3433 -1.000000000000000e+00
3782 3782 4.030623303206062e+00
3783 29 -1.000000000000000e+00
3783 1091 -1.024786429781112e+00
3783 2894 -2.591883876582241e-03
3783 3783 2.046350946696803e+00
3784 2 -1.000000000000000e+00
3784 311 -1.000000000000000e+00
3784 1525 -1.117619118788669e-02
3784 3401 -1.898507195955930e-02
3784 3784 2.030161263147446e+00
3785 5 -2.888601665844916e-02
3785 485 -1.000000000000000e+00
3785 977 -1.000000000000000e+00
3785 3785 2.055388165284153e+00
3786 1805 -1.006656652478940e+00
3786 2976 -1.000242379339794e+00
3786 3786 2.006899031818734e+00
3787 157 -1.002292710474554e+00
3787 688 -8.840555555239858e-03
3787 2614 -1.000000000000000e+00
3787 3224 -1.000000000000000e+00
3787 3586 -4.858432697624011e-03
3787 3787 3.015991698727418e+00
3788 76 -1.000000000000000e+00
3788 866 -1.000000000000000e+00
3788 1124 -1.516675504530363e-02
3788 3788 3.018905451546166e+00
3789 447 -1.417887073648393e-02
3789 1525 -1.208154960157864e-02
3789 1737 -1.000000000000000e+00
3789 3010 -1.000000000000000e+00
3789 3718 -1.000000000000000e+00
3789 3789 3.026260420338063e+00
3790 225 -1.000000000000000e+00
3790 529 -1.582290150960468e-02
3790 745 -1.200269013742854e-02
3790 847 -1.000000000000000e+00
3790 3790 2.027825591647033e+00
3791 1085 -1.000000000000000e+00
3791 2605 -2.194217058171539e-02
3791 2633 -1.000000000000000e+00
3791 2987 -5.297883908782078e-03
3791 3791 3.027240054490497e+00
3792 104 -1.000000000000000e+00
3792 2376 -1.075150350188190e-02
3792 3359 -1.000000000000000e+00
3792 3792 2.030161056117150e+00
3793 2 -1.000000000000000e+00
3793 4 -1.000000000000000e+00
3793 1482 -1.808022990369245e-02
3793 3458 -2.070594996612289e-02
3793 3793 3.038786179869815e+00
3794 16 -1.000000000000000e+00
3794 442 -3.276294716292268e-02
3794 636 -1.000000000000000e+00
3794 1903 -1.000000000000000e+00
3794 2101 -8.298099218733881e-03
3794 2588 -1.256437705069598e-02
3794 2725 -1.000000000000000e+00
3794 3794 6.053625423432353e+00
3795 806 -1.000000000000000e+00
3795 1950 -1.241798154692832e-02
3795 1953 -1.016210999028575e+00
3795 3795 2.028628980575504e+00
3796 1178 -1.002506777454672e+00
3796 1237 -6.881800011599781e-03
3796 1953 -1.000000000000000e+00
3796 3796 2.009388577466272e+00
3797 1531 -9.702533887627710e-03
3797 2261 -1.000000000000000e+00
3797 3001 -9.261344193589085e-03
3797 3084 -1.000000000000000e+00
3797 3797 2.018963878081217e+00
3798 379 -1.000000000000000e+00
3798 1523 -5.677174254965260e-03
3798 2533 -8.285564560526763e-03
3798 3368 -1.000000000000000e+00
3798 3798 2.013962738815492e+00
3799 955 -1.000000000000000e+00
3799 1558 -1.000000000000000e+00
3799 1933 -1.000000000000000e+00
3799 3799 4.014808494001449e+00
3800 27 -1.000000000000000e+00
3800 2167 -9.473703213861996e-03
3800 2695 -9.414970519218526e-03
3800 2802 -1.000000000000000e+00
3800 3800 4.023372836043695e+00
3801 859 -5.203903126030727e-03
3801 992 -7.856546297547637e-03
3801 1424 -8.261993549000533e-03
3801 1600 -1.000000000000000e+00
3801 1649 -1.494891043116256e-02
3801 1946 -1.000000000000000e+00
3801 3801 2.041569978890567e+00
3802 597 -1.000000000000000e+00
3802 1078 -1.000000000000000e+00
3802 3802 2.025658887529341e+00
3803 2175 -1.000000000000000e+00
3803 3567 -1.000000000000000e+00
3803 3803 3.001935656308392e+00
3804 51 -1.000000000000000e+00
3804 269 -5.218645942068418e-03
3804 1783 -1.000000000000000e+00
3804 3664 -2.537547733860141e-03
3804 3804 3.020177000726318e+00
3805 495 -1.281605204692552e-02
3805 1185 -1.011797460416082e+00
3805 2167 -1.224069343499688e-02
3805 3800 -1.000000000000000e+00
3805 3805 3.036854205898004e+00
3806 388 -1.778131317100277e-02
3806 823 -1.000000000000000e+00
3806 1055 -9.249272981904255e-03
3806 3268 -1.000000000000000e+00
3806 3722 -8.997105461951267e-03
3806 3806 3.058115035641167e+00
3807 1567 -1.000000000000000e+00
3807 2309 -1.015483982982956e+00
3807 3807 2.018156768647407e+00
3808 90 -1.000000000000000e+00
3808 2174 -1.011912448525340e+00
3808 3777 -2.816769936159733e-02
3808 3808 2.040080147886937e+00
3809 1 -1.000000000000000e+00
3809 132 -1.000000000000000e+00
3809 202 -1.889235243018841e-02
3809 3630 -1.707655714195876e-02
3809 3809 2.072602806309880e+00
3810 401 -1.000000000000000e+00
3810 3761 -1.000000000000000e+00
3810 3810 3.000000000000000e+00
3811 53 -1.000000000000000e+00
3811 582 -1.309145462172326e-02
3811 1015 -1.158309444890930e-03
3811 2613 -1.000000000000000e+00
3811 3811 2.014249764066614e+00
3812 36 -1.000000000000000e+00
3812 153 -1.000000000000000e+00
3812 1771 -9.227044446552058e-03
3812 3812 2.015192006910737e+00
3813 153 -1.413884196932312e-02
3813 1771 -1.015617582493500e+00
3813 2503 -1.008547004681983e+00
3813 3813 2.038303429144806e+00
3814 77 -1.001056606513236e+00
3814 2673 -1.001901124625534e+00
3814 3763 -1.202441995915735e-03
3814 3814 2.004160173134685e+00
3815 346 -1.376137258979536e-02
3815 520 -1.055162009047893e-02
3815 1119 -1.000000000000000e+00
3815 1686 -3.167162182780262e-02
3815 2697 -1.875540753438041e-02
3815 3518 -1.000000000000000e+00
3815 3815 2.074740022042457e+00
3816 17 -1.000000000000000e+00
3816 1095 -1.000000000000000e+00
3816 2188 -1.473404827243253e-02
3816 3816 2.029753322471449e+00
3817 123 -1.006253797362563e+00
3817 1096 -1.000000000000000e+00
3817 3215 -2.319005480266349e-02
3817 3817 2.029443852165226e+00
3818 405 -1.000000000000000e+00
3818 1048 -1.023141953622331e+00
3818 2776 -1.747987843455496e-02
3818 3818 2.061164901619393e+00
3819 70 -1.000000000000000e+00
3819 109 -2.827221186037784e-03
3819 274 -1.118551615575200e-02
3819 2395 -1.000000000000000e+00
3819 3819 3.014012737341790e+00
3820 92 -1.549338757044465e-02
3820 617 -1.000000000000000e+00
3820 1891 -1.000000000000000e+00
3820 3591 -1.342686803993336e-02
3820 3820 3.028920255610378e+00
3821 88 -1.398585066913762e-02
3821 1020 -9.034535994081692e-03
3821 1111 -6.581142421249465e-03
3821 2261 -7.883771034477268e-03
3821 2768 -1.000000000000000e+00
3821 3169 -1.000000000000000e+00
3821 3355 -1.172160973896256e-02
3821 3821 2.058104801007038e+00
3822 514 -1.025997583994206e+00
3822 2631 -1.000000000000000e+00
3822 3822 2.030073474562041e+00
3823 2522 -1.005429135939248e+00
3823 2925 -1.401047805066196e-02
3823 3010 -1.000000000000000e+00
3823 3749 -1.695125130049211e-03
3823 3823 2.021134739119959e+00
3824 904 -1.000000000000000e+00
3824 3158 -1.002897829590925e+00
3824 3824 3.017325473133309e+00
3825 404 -2.465603466838375e-02
3825 546 -1.000000000000000e+00
3825 2132 -1.000000000000000e+00
3825 3477 -2.963826777533063e-03
3825 3825 2.027619861445917e+00
3826 661 -1.000000000000000e+00
3826 977 -1.586858581375472e-02
3826 2230 -1.279603268182606e-02
3826 2778 -1.010290931420931e+00
3826 3826 2.038955549916512e+00
3827 7 -1.000000000000000e+00
3827 405 -1.343316689493756e-02
3827 739 -1.000000000000000e+00
3827 868 -1.999652091273933e-02
3827 926 -1.007307391972495e-02
3827 1652 -3.091033689602334e-02
3827 2738 -1.545055086825280e-02
3827 3827 2.111090229905178e+00
3828 2 -1.000000000000000e+00
3828 1084 -1.000000000000000e+00
3828 3828 3.000000000000000e+00
3829 2 -1.000000000000000e+00
3829 1342 -1.473456218660246e-03
3829 2758 -1.000000000000000e+00
3829 3829 3.011916040419792e+00
3830 37 -1.000000000000000e+00
3830 150 -1.615438317679919e-02
3830 667 -1.000000000000000e+00
3830 1366 -2.339933573403534e-02
3830 3409 -1.000000000000000e+00
3830 3830 3.039553718910835e+00
3831 15 -1.000000000000000e+00
3831 51 -1.000000000000000e+00
3831 3019 -4.462277663325805e-03
3831 3831 3.007104140660616e+00
3832 50 -1.000000000000000e+00
3832 906 -1.000000000000000e+00
3832 3832 3.000000000000000e+00
3833 277 -1.854927721263342e-02
3833 428 -1.000000000000000e+00
3833 475 -1.000000000000000e+00
3833 1736 -1.570541443463217e-02
3833 1827 -1.701756338138079e-02
3833 2610 -1.267383234321927e-02
3833 3738 -1.340939204824644e-02
3833 3833 2.077355479420112e+00
3834 1829 -1.000000000000000e+00
3834 2810 -1.000000000000000e+00
3834 3834 2.012035706358567e+00
3835 901 -1.000000000000000e+00
3835 1442 -1.000000000000000e+00
3835 1611 -2.006508046896891e-02
3835 2787 -1.533398825277648e-02
3835 3835 2.043912019676271e+00
3836 179 -1.000000000000000e+00
3836 2973 -1.001993556487665e+00
3836 3836 2.001993556487665e+00
3837 793 -1.024920634010823e+00
3837 1034 -1.000000000000000e+00
3837 3177 -1.431064969475490e-02
3837 3837 4.051027656467824e+00
3838 2 -1.000000000000000e+00
3838 102 -1.000000000000000e+00
3838 324 -1.104573745147017e-02
3838 3838 3.016409688517332e+00
3839 66 -1.000000000000000e+00
3839 379 -1.000000000000000e+00
3839 1174 -2.220157621075767e-02
3839 1523 -1.161126268903722e-02
3839 2533 -1.776779934752300e-02
3839 3839 2.051580638247318e+00
3840 190 -1.651401466814808e-02
3840 235 -1.000000000000000e+00
3840 2415 -4.565486591652059e-03
3840 2436 -1.000000000000000e+00
3840 3840 3.021493006598905e+00
3841 536 -1.000000000000000e+00
3841 2692 -2.876200817639661e-03
3841 3201 -7.397737263940209e-03
3841 3664 -1.000000000000000e+00
3841 3841 2.010273938081580e+00
3842 89 -1.000000000000000e+00
3842 149 -1.000000000000000e+00
3842 1487 -1.195933925680969e-02
3842 2453 -1.469643050417913e-02
3842 3780 -1.660455162569164e-02
3842 3782 -1.866916464925449e-02
3842 3802 -1.918583441857813e-02
3842 3842 3.081115320454513e+00
3843 184 -2.359862326868218e-02
3843 234 -1.000000000000000e+00
3843 840 -1.259388061975539e-02
3843 1773 -2.707694184079016e-02
3843 2157 -2.499292172008060e-02
3843 2616 -1.000000000000000e+00
3843 3276 -1.000000000000000e+00
3843 3843 4.088262367449309e+00
3844 424 -1.002370168121834e+00
3844 501 -1.000000000000000e+00
3844 609 -1.688167000572783e-03
3844 2083 -3.736483661732845e-03
3844 2528 -9.784202336592777e-03
3844 3499 -7.680368403924037e-04
3844 3611 -1.086420186770645e-02
3844 3844 2.029211259828831e+00
3845 75 -1.000000000000000e+00
3845 356 -1.000000000000000e+00
3845 633 -1.663949633091557e-02
3845 2230 -9.095697185493508e-03
3845 3845 3.025735193516409e+00
3846 2216 -1.811765782209129e-02
3846 2479 -1.018193234877752e+00
3846 3510 -1.000000000000000e+00
3846 3846 2.036310892699843e+00
3847 93 -1.000000000000000e+00
3847 1542 -1.008597718001980e+00
3847 3847 2.008597718001980e+00
3848 1349 -1.855959590860090e-02
3848 2691 -1.017290757848161e+00
3848 3131 -1.000000000000000e+00
3848 3848 2.035850353756762e+00
3849 860 -1.602573785096849e-02
3849 1192 -8.269257252170696e-03
3849 2656 -1.000000000000000e+00
3849 3688 -1.009496704158203e+00
3849 3849 2.048013494321294e+00
3850 221 -1.929453956884387e-02
3850 386 -1.176477880906918e-02
3850 2321 -1.000000000000000e+00
3850 3292 -1.000000000000000e+00
3850 3850 3.031059318377913e+00
3851 759 -1.000000000000000e+00
3851 2883 -1.000000000000000e+00
3851 3851 3.045390392997358e+00
3852 63 -1.000000000000000e+00
3852 615 -1.027101887900016e+00
3852 2373 -1.683129882281324e-02
3852 3677 -2.188807120289282e-02
3852 3852 4.065821257925721e+00
3853 757 -1.000000000000000e+00
3853 1040 -1.000000000000000e+00
3853 3084 -1.562854512056783e-02
3853 3853 3.040700689112274e+00
3854 1209 -1.000000000000000e+00
3854 1915 -1.000000000000000e+00
3854 3854 3.056501574890027e+00
3855 30 -1.000000000000000e+00
3855 1588 -1.542591544564492e-02
3855 3355 -8.444682440623639e-03
3855 3837 -1.000000000000000e+00
3855 3855 2.023870597886269e+00
3856 51 -1.912113834733249e-02
3856 241 -1.000000000000000e+00
3856 1455 -2.686421763300321e-02
3856 1880 -2.120774910588300e-02
3856 2320 -1.000000000000000e+00
3856 3685 -1.149291278682176e-02
3856 3856 3.098681006880578e+00
3857 112 -1.000000000000000e+00
3857 1101 -1.000000000000000e+00
3857 1476 -9.052705982922252e-03
3857 1660 -2.810886567254037e-02
3857 3221 -1.332396505866373e-02
3857 3857 2.053359958944150e+00
3858 86 -1.795656009346332e-02
3858 106 -1.000000000000000e+00
3858 1781 -1.000000000000000e+00
3858 3858 4.050996598594605e+00
3859 256 -2.784122733492614e-02
3859 1180 -2.775542943086391e-02
3859 1751 -1.000000000000000e+00
3859 1933 -1.000000000000000e+00
3859 2962 -2.813578823655379e-02
3859 2992 -2.314916409480487e-02
3859 3630 -1.962556199151056e-02
3859 3859 2.149267599445498e+00
3860 24 -1.000000000000000e+00
3860 968 -2.640750400433820e-02
3860 1712 -1.212544663989975e-02
3860 2478 -1.000000000000000e+00
3860 3860 3.038532950644238e+00
3861 32 -1.000000000000000e+00
3861 612 -1.000000000000000e+00
3861 1203 -1.128005035355932e-02
3861 1848 -2.012003553526005e-02
3861 1868 -2.138662428295340e-02
3861 2331 -1.474847716957503e-02
3861 3861 2.067535187341348e+00
3862 817 -1.940545761448882e-02
3862 834 -1.000000000000000e+00
3862 1327 -1.000000000000000e+00
3862 1531 -1.085354418545044e-02
3862 3862 2.030259001799939e+00
3863 468 -1.000000000000000e+00
3863 1250 -1.799540648639933e-02
3863 3200 -1.000000000000000e+00
3863 3863 2.028336863643150e+00
3864 174 -1.000000000000000e+00
3864 641 -1.000000000000000e+00
3864 1138 -1.000000000000000e+00
3864 1296 -1.705047207074500e-02
3864 3864 3.033090743515935e+00
3865 258 -1.000000000000000e+00
3865 2098 -1.000000000000000e+00
3865 3230 -2.169368531939258e-02
3865 3865 2.034865184825638e+00
3866 173 -1.000000000000000e+00
3866 829 -8.678642456508576e-03
3866 1539 -1.069816470168542e-02
3866 1570 -1.000000000000000e+00
3866 1594 -1.000000000000000e+00
3866 1921 -1.455741965092848e-03
3866 3866 3.020832549123287e+00
3867 7 -1.000000000000000e+00
3867 566 -1.623721378670446e-02
3867 1365 -1.000000000000000e+00
3867 3657 -1.338913013354935e-02
3867 3867 2.029626343920254e+00
3868 1060 -1.019697511163559e+00
3868 1233 -1.000000000000000e+00
3868 3365 -1.695117423223277e-02
3868 3868 2.036648685395792e+00
3869 78 -1.010576168228722e+00
3869 555 -1.234494995124180e-02
3869 731 -1.000000000000000e+00
3869 789 -1.697007969856237e-02
3869 2246 -8.224086587913257e-03
3869 2286 -2.195907588916186e-02
3869 2719 -8.532883072515790e-03
3869 2727 -9.805376020678862e-03
3869 3600 -8.258930972402965e-03
3869 3869 3.112664223410873e+00
3870 75 -8.062136221434542e-03
3870 78 -1.000000000000000e+00
3870 581 -3.311606448562571e-02
3870 1807 -1.000000000000000e+00
3870 3870 2.041178200707060e+00
3871 403 -1.717726339630561e-02
3871 539 -1.000000000000000e+00
3871 823 -1.000000000000000e+00
3871 1291 -2.206433342190241e-02
3871 1565 -2.421953446014564e-02
3871 1614 -1.916864330781301e-02
3871 3871 2.082629774586167e+00
3872 824 -1.003252901758753e+00
3872 2502 -1.000000000000000e+00
3872 3872 2.003252901758753e+00
3873 75 -8.479510492155583e-03
3873 208 -1.293778910388754e-02
3873 733 -1.000000000000000e+00
3873 1059 -1.000000000000000e+00
3873 3351 -1.000000000000000e+00
3873 3873 3.021417299596043e+00
3874 283 -1.272184548483929e-02
3874 798 -1.000000000000000e+00
3874 2646 -1.000000000000000e+00
3874 3874 2.033454975442844e+00
3875 140 -1.000000000000000e+00
3875 189 -1.000000000000000e+00
3875 1998 -1.741319175512950e-02
3875 3445 -1.076162159379152e-02
3875 3875 2.028174813348921e+00
3876 2071 -1.000000000000000e+00
3876 2078 -2.171178499959788e-02
3876 3151 -1.000000000000000e+00
3876 3473 -3.357601205362861e-02
3876 3876 2.055287797053226e+00
3877 341 -1.029010277165853e+00
3877 370 -1.059616985770674e-02
3877 851 -1.810507399612915e-02
3877 897 -1.013339095385138e+00
3877 3877 2.071050616404826e+00
3878 146 -1.000000000000000e+00
3878 202 -1.107014535184402e-02
3878 2517 -1.000000000000000e+00
3878 3859 -2.276042835683887e-02
3878 3878 2.033830573708683e+00
3879 30 -1.000000000000000e+00
3879 1862 -1.000000000000000e+00
3879 2033 -2.074806277879006e-02
3879 3879 2.047691374801542e+00
3880 1811 -1.000000000000000e+00
3880 1812 -1.000000000000000e+00
3880 3809 -3.663389673773312e-02
3880 3880 5.061949793443195e+00
3881 113 -1.000000000000000e+00
3881 329 -5.706437013267263e-03
3881 440 -3.288023173483646e-03
3881 1063 -1.000000000000000e+00
3881 3881 3.008994460186751e+00
3882 145 -1.000000000000000e+00
3882 237 -1.712852055893919e-02
3882 301 -1.000000000000000e+00
3882 441 -2.611298946777510e-02
3882 3882 3.043241510026714e+00
3883 15 -2.042112678096022e-02
3883 220 -1.000000000000000e+00
3883 1014 -2.059886478081322e-02
3883 1959 -1.396138814045289e-02
3883 2098 -1.000000000000000e+00
3883 2352 -1.911396639788306e-02
3883 2968 -1.000000000000000e+00
3883 3883 3.104622721416234e+00
3884 158 -1.000000000000000e+00
3884 517 -1.000000000000000e+00
3884 1416 -1.554348949713783e-02
3884 1793 -2.232872385609493e-03
3884 3006 -1.446956756086262e-02
3884 3029 -1.257316995842696e-02
3884 3884 2.044819099402037e+00
3885 1016 -1.000000000000000e+00
3885 1829 -1.133297894023761e-02
3885 3186 -1.000000000000000e+00
3885 3834 -5.722138925977174e-03
3885 3885 4.049009273580357e+00
3886 79 -1.000000000000000e+00
3886 202 -1.537280087152944e-02
3886 2899 -3.720439140964029e-02
3886 3530 -1.000000000000000e+00
3886 3886 2.052577192281170e+00
3887 612 -1.000000000000000e+00
3887 1946 -1.923431682673797e-02
3887 2041 -1.000000000000000e+00
3887 2221 -1.674146765907707e-02
3887 3887 2.052504366663113e+00
3888 238 -9.129260852459341e-03
3888 689 -1.000000000000000e+00
3888 1561 -2.349765211877693e-02
3888 2625 -1.000000000000000e+00
3888 3888 2.032626912971236e+00
3889 6 -1.000000000000000e+00
3889 3158 -1.006338290507341e+00
3889 3889 3.018268520619013e+00
3890 157 -1.000000000000000e+00
3890 2275 -1.002830484646758e+00
3890 2725 -2.438059175466444e-03
3890 3890 2.005268543822225e+00
3891 28 -1.854293300190661e-02
3891 174 -1.000000000000000e+00
3891 436 -1.000000000000000e+00
3891 984 -1.071121846087981e-02
3891 2311 -1.000000000000000e+00
3891 3891 4.029254151462786e+00
3892 75 -1.000000000000000e+00
3892 623 -1.000000000000000e+00
3892 1493 -1.605381533746213e-02
3892 2515 -1.904546687380191e-02
3892 2635 -1.938762387906503e-02
3892 3892 2.073069271727191e+00
3893 126 -1.000000000000000e+00
3893 304 -2.875316236284277e-02
3893 709 -1.632938996547510e-03
3893 1353 -1.000000000000000e+00
3893 2447 -1.000000000000000e+00
3893 2490 -3.473600964553302e-03
3893 3893 3.033859702323944e+00
3894 1605 -1.000000000000000e+00
3894 2308 -1.281499321715279e-02
3894 2356 -1.017304049308851e+00
3894 3894 2.030119042526004e+00
3895 1 -1.000000000000000e+00
3895 594 -1.197540967342984e-02
3895 617 -8.606101824749858e-03
3895 774 -2.137414290128021e-02
3895 1797 -1.000000000000000e+00
3895 2144 -7.011430640582337e-03
3895 2248 -1.264781051502448e-02
3895 2356 -1.637258853374638e-02
3895 2367 -2.984918545515404e-02
3895 2864 -2.153368919004184e-02
3895 3607 -2.107698536148664e-02
3895 3895 2.150447344095495e+00
3896 148 -1.515031448141587e-02
3896 330 -1.000000000000000e+00
3896 2957 -2.496256707881200e-02
3896 3852 -1.000000000000000e+00
3896 3896 2.040112881560228e+00
3897 2012 -1.000000000000000e+00
3897 3160 -1.000000000000000e+00
3897 3707 -1.127193704366808e-02
3897 3897 2.027078239764043e+00
3898 212 -1.020383145633516e+00
3898 294 -1.000000000000000e+00
3898 797 -1.939657962505122e-02
3898 894 -1.615214971809170e-02
3898 917 -2.118538640558865e-02
3898 943 -1.819721566889430e-02
3898 1191 -1.106213326927973e-02
3898 1263 -1.452397957920415e-02
3898 1322 -2.105279877852825e-02
3898 1409 -1.198878897356295e-02
3898 1585 -1.656312262848460e-02
3898 2506 -2.040084771180617e-02
3898 2576 -1.596733927861073e-02
3898 2847 -1.639556849498357e-02
3898 3220 -2.301843526205833e-02
3898 3342 -1.796572758154509e-02
3898 3469 -1.630437525885452e-02
3898 3630 -1.535833913245240e-02
3898 3898 2.499220310220891e+00
3899 104 -1.390508376240120e-02
3899 1005 -1.000000000000000e+00
3899 1530 -5.889337085758462e-03
3899 2564 -1.006459215830366e+00
3899 2954 -2.029086828222118e-02
3899 3899 3.060684926400913e+00
3900 2983 -1.000000000000000e+00
3900 3201 -1.000000000000000e+00
3900 3900 3.012636952635680e+00
3901 2507 -1.011815864905284e+00
3901 3219 -1.000000000000000e+00
3901 3901 3.045867017408593e+00
3902 1 -1.000000000000000e+00
3902 242 -1.000000000000000e+00
3902 827 -2.466218118866767e-02
3902 2992 -4.103791433237405e-02
3902 3902 3.065700095521042e+00
3903 16 -1.000000000000000e+00
3903 294 -1.000000000000000e+00
3903 2027 -7.883780668827157e-03
3903 2271 -1.215596331997311e-02
3903 3566 -8.869903526603369e-03
3903 3903 2.035982971534301e+00
3904 1577 -1.000000000000000e+00
3904 1745 -1.000000000000000e+00
3904 3904 2.022414812420174e+00
3905 4 -1.000000000000000e+00
3905 11 -1.000000000000000e+00
3905 1552 -1.919756571284874e-02
3905 1761 -2.755575738480148e-02
3905 3905 4.046753323097650e+00
3906 53 -1.637985295520619e-02
3906 240 -1.000000000000000e+00
3906 1977 -1.000000000000000e+00
3906 3906 3.020310202238804e+00
3907 416 -1.000000000000000e+00
3907 1961 -1.372590581226050e-02
3907 2152 -2.040074402590825e-02
3907 2195 -1.000000000000000e+00
3907 3360 -6.714996516220363e-03
3907 3907 2.040841646354389e+00
3908 289 -1.018668325627071e+00
3908 2048 -1.000000000000000e+00
3908 2433 -1.394279500839126e-02
3908 3832 -1.000000000000000e+00
3908 3908 3.070720507785937e+00
3909 196 -1.187354975300529e-02
3909 1368 -1.000000000000000e+00
3909 1465 -7.496513484538913e-03
3909 2795 -1.000000000000000e+00
3909 3909 2.019370063237544e+00
3910 79 -1.000000000000000e+00
3910 1643 -1.010853639266194e+00
3910 2843 -1.063057037146540e-02
3910 3910 2.029744709459030e+00
3911 202 -1.000000000000000e+00
3911 788 -1.426013332967337e-02
3911 1950 -1.000000000000000e+00
3911 2592 -1.000000000000000e+00
3911 3639 -1.778955051574907e-02
3911 3911 4.032049683845423e+00
3912 253 -1.021165842008154e+00
3912 893 -1.000000000000000e+00
3912 902 -1.299859003888104e-02
3912 1009 -1.000000000000000e+00
3912 3912 3.047364454020762e+00
3913 113 -1.000000000000000e+00
3913 2192 -1.000000000000000e+00
3913 2407 -8.700512054164273e-03
3913 3913 2.029706561021124e+00
3914 96 -1.250971382414475e-02
3914 1395 -1.010697071425880e+00
3914 1780 -2.844751171351577e-03
3914 2810 -1.000000000000000e+00
3914 3914 2.054444728575460e+00
3915 332 -1.000000000000000e+00
3915 522 -4.906679638763758e-03
3915 1083 -5.843624759630447e-03
3915 1727 -1.399522773043870e-02
3915 2358 -1.000000000000000e+00
3915 3915 3.047970220695589e+00
3916 1602 -3.679023283386200e-03
3916 1885 -1.018948487202723e+00
3916 3117 -1.000000000000000e+00
3916 3916 2.022627510486109e+00
3917 656 -1.899232081490797e-02
3917 958 -1.970458057778679e-02
3917 967 -2.177286444728301e-02
3917 1190 -1.000000000000000e+00
3917 1343 -1.591180677926743e-02
3917 3142 -1.000000000000000e+00
3917 3917 2.114308428958640e+00
3918 76 -1.859045994860267e-02
3918 560 -1.000000000000000e+00
3918 740 -2.096982797918074e-02
3918 796 -2.295989483316274e-02
3918 834 -1.000000000000000e+00
3918 1694 -1.000000000000000e+00
3918 1704 -2.787001258963616e-02
3918 1897 -2.086435317498373e-02
3918 2407 -2.913254068594611e-03
3918 3199 -2.341754974964022e-02
3918 3918 3.137585352343801e+00
3919 228 -1.000000000000000e+00
3919 278 -1.017317537167370e+00
3919 321 -1.020961318277649e-02
3919 2173 -1.707315896643548e-02
3919 3776 -1.838257278981757e-02
3919 3919 2.088940436329980e+00
3920 36 -1.000000000000000e+00
3920 1576 -1.006714279380385e+00
3920 3920 3.006714279380386e+00
3921 43 -1.625088113617085e-02
3921 46 -1.000000000000000e+00
3921 311 -1.000000000000000e+00
3921 866 -2.078613727232513e-02
3921 1327 -1.101045180482307e-02
3921 2655 -1.238506379779673e-02
3921 3113 -1.419110362855738e-02
3921 3921 3.074623637639673e+00
3922 222 -1.000000000000000e+00
3922 228 -1.000000000000000e+00
3922 1898 -1.906048834149794e-02
3922 3922 4.041682696958786e+00
3923 747 -1.357095472008976e-02
3923 1600 -1.000000000000000e+00
3923 3674 -1.008012970976286e+00
3923 3923 2.056890051609960e+00
3924 67 -1.000000000000000e+00
3924 1184 -5.389435261241709e-03
3924 1285 -1.017764497327939e+00
3924 3924 2.041638769232685e+00
3925 6 -1.000000000000000e+00
3925 296 -2.056757555921800e-02
3925 881 -2.148642865419448e-02
3925 1229 -5.547655670568328e-04
3925 1360 -1.022180318843384e-02
3925 1474 -1.000000000000000e+00
3925 1637 -2.088722381637133e-02
3925 2105 -1.000000000000000e+00
3925 2191 -1.381807849495049e-02
3925 3305 -1.686448644549183e-02
3925 3925 3.124098074157414e+00
3926 350 -1.000000000000000e+00
3926 1383 -1.082907436047202e-02
3926 1995 -1.000000000000000e+00
3926 2361 -9.085088524949934e-03
3926 3926 3.019914162885422e+00
3927 649 -3.183964916563162e-02
3927 2278 -1.739719812273967e-02
3927 2594 -1.000000000000000e+00
3927 3628 -1.000000000000000e+00
3927 3927 2.049236847288371e+00
3928 1796 -1.000000000000000e+00
3928 3014 -1.006591044271569e+00
3928 3928 2.020122930810460e+00
3929 27 -1.018306636603098e+00
3929 242 -1.000000000000000e+00
3929 1323 -6.717937313784955e-03
3929 1564 -1.468830799900478e-02
3929 1814 -1.208734229378850e-02
3929 1951 -1.983903809273389e-02
3929 3929 2.101587268494250e+00
3930 17 -1.000000000000000e+00
3930 793 -1.000000000000000e+00
3930 3821 -8.897891149129191e-03
3930 3837 -1.179637276224540e-02
3930 3930 2.020694263911375e+00
3931 10 -1.000000000000000e+00
3931 106 -1.000000000000000e+00
3931 3931 3.016097773216762e+00
3932 173 -1.594538279334608e-02
3932 979 -1.000000000000000e+00
3932 1921 -1.012913197343057e+00
3932 2431 -1.000000000000000e+00
3932 3932 3.057862511989268e+00
3933 240 -1.000000000000000e+00
3933 325 -1.001925751006195e+00
3933 1727 -7.742236988909054e-03
3933 2006 -1.000000000000000e+00
3933 3933 4.050807615970268e+00
3934 1 -1.000000000000000e+00
3934 163 -1.000000000000000e+00
3934 3541 -1.378958008618140e-02
3934 3934 4.023740237287187e+00
3935 1008 -1.000000000000000e+00
3935 1628 -1.000000000000000e+00
3935 1989 -4.619563052899690e-03
3935 2920 -1.202490596618966e-03
3935 3935 2.005822053649519e+00
3936 128 -2.036932076270150e-02
3936 980 -1.000000000000000e+00
3936 2049 -1.000000000000000e+00
3936 3936 2.046253451440243e+00
3937 161 -1.000000000000000e+00
3937 1066 -1.000000000000000e+00
3937 3937 2.062116147638589e+00
3938 1205 -1.000000000000000e+00
3938 1467 -1.005352509413666e+00
3938 3014 -1.149368842439250e-02
3938 3328 -1.586673449751990e-02
3938 3641 -1.634190539614206e-02
3938 3928 -1.353188653889095e-02
3938 3938 2.062586724270612e+00
3939 5 -1.000000000000000e+00
3939 135 -8.461049098966300e-03
3939 154 -1.022775770772432e+00
3939 473 -4.831407686042309e-03
3939 479 -1.201176171954434e-02
3939 597 -1.521412491629754e-02
3939 1078 -8.765660729455482e-04
3939 1082 -1.868826262667383e-02
3939 2453 -1.314928116063309e-02
3939 2705 -7.335275135198860e-03
3939 3780 -5.684108018507601e-03
3939 3802 -6.473053110762348e-03
3939 3939 2.115500660318003e+00
3940 232 -1.000000000000000e+00
3940 1392 -1.004294862558553e+00
3940 3940 2.004294862558552e+00
3941 782 -1.000000000000000e+00
3941 1008 -1.173461025143265e-02
3941 1992 -2.355815221636377e-02
3941 3229 -1.000000000000000e+00
3941 3941 2.035292762467797e+00
3942 76 -1.000000000000000e+00
3942 371 -1.020834216428913e+00
3942 2392 -9.941950379663653e-03
3942 3437 -7.256692854615764e-03
3942 3942 2.038032859663193e+00
3943 82 -1.975217922686599e-02
3943 91 -2.570293344521809e-02
3943 115 -1.000000000000000e+00
3943 1663 -1.000000000000000e+00
3943 2978 -3.044539546512768e-02
3943 3943 2.075900508137212e+00
3944 165 -1.000000000000000e+00
3944 1525 -6.749308613435666e-03
3944 1737 -1.070969679241933e-02
3944 3308 -1.000000000000000e+00
3944 3944 3.017459005405855e+00
3945 1 -1.000000000000000e+00
3945 1247 -2.455534870328483e-03
3945 1458 -1.000000000000000e+00
3945 2607 -1.000000000000000e+00
3945 2698 -9.522018562563236e-03
3945 3945 3.011977553432892e+00
3946 141 -1.000000000000000e+00
3946 1940 -2.770123634421968e-02
3946 2145 -1.000000000000000e+00
3946 2852 -2.651644713763550e-02
3946 3946 3.054217683481855e+00
3947 2357 -1.001640452317616e+00
3947 2772 -3.769617381419176e-03
3947 3495 -1.057086708465977e-02
3947 3853 -1.000000000000000e+00
3947 3947 2.015980936783694e+00
3948 121 -2.739538443579395e-02
3948 598 -1.000000000000000e+00
3948 886 -1.000000000000000e+00
3948 1003 -2.118069171152516e-02
3948 3583 -1.000000000000000e+00
3948 3948 3.048576076147319e+00
3949 18 -1.000000000000000e+00
3949 2200 -1.000000000000000e+00
3949 3376 -2.998650562131561e-02
3949 3949 2.044362466928304e+00
3950 3 -1.000000000000000e+00
3950 542 -1.019439803684941e+00
3950 2084 -2.034724220187357e-02
3950 3038 -3.625057278603295e-03
3950 3950 2.046323982281062e+00
3951 92 -1.000000000000000e+00
3951 2605 -1.020881614549127e-02
3951 2633 -1.000000000000000e+00
3951 3951 2.018877775686032e+00
3952 5 -1.000000000000000e+00
3952 50 -1.000000000000000e+00
3952 139 -3.282586950656392e-02
3952 403 -2.019841959946930e-02
3952 1516 -2.825371057025342e-02
3952 3952 2.081277999676287e+00
3953 582 -1.000000000000000e+00
3953 637 -1.004172252591649e+00
3953 1205 -8.104626578317738e-03
3953 1843 -1.111221165070959e-02
3953 3045 -7.272069655103188e-03
3953 3371 -1.960077449993535e-02
3953 3953 2.050261934975715e+00
3954 1 -1.000000000000000e+00
3954 212 -2.844460101379256e-02
3954 2005 -1.000000000000000e+00
3954 3954 2.042304735955268e+00
3955 44 -1.000000000000000e+00
3955 179 -1.000000000000000e+00
3955 2604 -1.403786835826386e-02
3955 3094 -3.640462530288607e-03
3955 3955 2.017678330888553e+00
3956 834 -1.000000000000000e+00
3956 1598 -2.028143594035816e-02
3956 1669 -1.331552073132506e-02
3956 3326 -1.902033951213551e-02
3956 3718 -1.000000000000000e+00
3956 3956 2.052617296183819e+00
3957 190 -1.000000000000000e+00
3957 795 -3.503147129399949e-02
3957 2535 -1.000000000000000e+00
3957 3957 2.052474862509992e+00
3958 250 -1.000000000000000e+00
3958 2445 -1.915362576049414e-02
3958 2875 -1.000000000000000e+00
3958 3958 3.019875271800897e+00
3959 537 -1.001318386183861e+00
3959 662 -1.000000000000000e+00
3959 3959 2.001318386183861e+00
3960 61 -1.000000000000000e+00
3960 687 -1.721301445538394e-02
3960 708 -1.000000000000000e+00
3960 1480 -6.490340783063075e-03
3960 3349 -1.777214673187483e-02
3960 3960 2.062170504174772e+00
3961 207 -1.000000000000000e+00
3961 286 -2.007691312741663e-02
3961 431 -1.340158590764534e-02
3961 448 -1.000000000000000e+00
3961 3961 2.033478499035062e+00
3962 126 -1.000000000000000e+00
3962 785 -2.700235326697373e-02
3962 1261 -1.000000000000000e+00
3962 3962 2.039616701499733e+00
3963 3253 -1.000000000000000e+00
3963 3364 -1.012263479456819e+00
3963 3463 -1.000000000000000e+00
3963 3923 -1.659000338344401e-02
3963 3963 3.028853482840264e+00
3964 401 -1.000000000000000e+00
3964 1157 -7.466865039235464e-03
3964 1301 -4.089664012722379e-04
3964 1871 -1.000000000000000e+00
3964 3102 -2.384229262289078e-03
3964 3964 2.010260060702797e+00
3965 85 -1.014614893789763e+00
3965 2506 -1.000000000000000e+00
3965 3032 -2.227594885620409e-03
3965 3478 -2.218376904725392e-03
3965 3965 2.019060865580109e+00
3966 2423 -1.000000000000000e+00
3966 3050 -2.038287665456887e-02
3966 3179 -2.850891795359726e-02
3966 3424 -1.000000000000000e+00
3966 3966 2.048891794608166e+00
3967 264 -1.000000000000000e+00
3967 1139 -2.766530126851275e-02
3967 2953 -2.726516953155024e-02
3967 3352 -1.000000000000000e+00
3967 3967 2.054930470800063e+00
3968 41 -1.522980272067963e-02
3968 438 -1.000000000000000e+00
3968 2120 -1.000000000000000e+00
3968 3351 -1.564877401099114e-02
3968 3555 -1.293062117743331e-02
3968 3741 -1.487155090267156e-02
3968 3968 2.073031406373430e+00
3969 70 -1.000000000000000e+00
3969 470 -1.000000000000000e+00
3969 1605 -1.459725137412070e-02
3969 1797 -1.593499306983865e-02
3969 2367 -3.120493007515883e-02
3969 3969 3.078841636321596e+00
3970 1857 -1.002000985216600e+00
3970 2382 -1.004182298341285e+00
3970 2965 -1.011085482335844e-04
3970 3970 2.026263848776669e+00
3971 199 -1.000000000000000e+00
3971 2524 -1.015882859748591e+00
3971 3971 2.015882859748591e+00
3972 27 -1.000000000000000e+00
3972 2085 -2.756486609590847e-02
3972 2722 -1.781462995537942e-02
3972 3125 -1.000000000000000e+00
3972 3972 2.045379496051288e+00
3973 49 -1.000000000000000e+00
3973 1748 -1.000000000000000e+00
3973 2100 -2.435478261352091e-02
3973 3422 -1.000000000000000e+00
3973 3973 3.032176618269737e+00
3974 1384 -1.005042596793125e+00
3974 2884 -1.444509402691415e-02
3974 3326 -1.000000000000000e+00
3974 3974 2.019487690820040e+00
3975 3025 -1.000576056924778e+00
3975 3426 -1.002873580173443e+00
3975 3975 2.003449637098221e+00
3976 1649 -1.000000000000000e+00
3976 2781 -1.000000000000000e+00
3976 3976 4.003236832324923e+00
3977 197 -1.000000000000000e+00
3977 497 -1.000000000000000e+00
3977 3977 3.014621362529162e+00
3978 849 -1.000406627717904e+00
3978 1413 -4.614068637199690e-03
3978 1961 -1.000000000000000e+00
3978 3665 -7.852934326020619e-04
3978 3978 2.006483437634259e+00
3979 565 -1.000000000000000e+00
3979 681 -4.693626234364270e-03
3979 790 -1.677736658490289e-03
3979 1094 -1.114184487291494e-02
3979 1181 -3.323321805900762e-03
3979 2238 -1.000000000000000e+00
3979 2984 -1.925959598587468e-02
3979 3432 -1.004473054839731e-02
3979 3496 -8.428406920242479e-03
3979 3979 2.064167723260330e+00
3980 251 -1.000000000000000e+00
3980 1375 -1.547730654410744e-02
3980 3362 -1.000000000000000e+00
3980 3573 -1.979355049321500e-02
3980 3980 2.035270857037323e+00
3981 207 -1.415055588151767e-02
3981 431 -1.551392885568781e-02
3981 2005 -1.000000000000000e+00
3981 3169 -1.930241100043056e-02
3981 3251 -1.000000000000000e+00
3981 3981 2.048966895737636e+00
3982 112 -1.000000000000000e+00
3982 121 -1.000000000000000e+00
3982 2664 -1.526987032843298e-02
3982 2886 -2.010784333786879e-02
3982 3857 -2.874422230023748e-03
3982 3982 2.038252135896326e+00
3983 189 -1.000000000000000e+00
3983 491 -2.196152075376194e-02
3983 505 -1.131653877759404e-02
3983 728 -1.000000000000000e+00
3983 1946 -2.042788236758777e-02
3983 3536 -1.005662216230599e-02
3983 3983 3.081427632403137e+00
3984 28 -1.000000000000000e+00
3984 984 -1.019489508661654e+00
3984 1631 -2.794106898938185e-02
3984 3163 -1.611129532893516e-02
3984 3244 -1.272970298709750e-02
3984 3984 2.076271575967068e+00
3985 261 -1.000000000000000e+00
3985 497 -1.000000000000000e+00
3985 3985 3.022570569579934e+00
3986 581 -1.026353069869408e+00
3986 1124 -1.000000000000000e+00
3986 1293 -1.804872354932292e-02
3986 3986 2.044401793418731e+00
3987 1264 -1.000000000000000e+00
3987 1585 -3.083699353725590e-02
3987 2609 -1.808805599430852e-02
3987 3105 -1.000000000000000e+00
3987 3987 2.048925049531564e+00
3988 528 -1.006820149840167e+00
3988 553 -1.000000000000000e+00
3988 2434 -6.264617794357776e-03
3988 3988 2.030531902443645e+00
3989 553 -1.000000000000000e+00
3989 691 -2.045883689141116e-02
3989 2269 -1.000000000000000e+00
3989 3988 -1.388601400492711e-02
3989 3989 2.034344850896338e+00
3990 678 -1.001028307485808e+00
3990 1799 -1.000000000000000e+00
3990 2483 -6.569939066116809e-03
3990 3990 2.027287194237785e+00
3991 983 -1.941023108902260e-02
3991 1000 -1.000000000000000e+00
3991 1528 -1.014806161457860e+00
3991 3794 -1.000000000000000e+00
3991 3991 3.034216392546883e+00
3992 169 -1.000000000000000e+00
3992 2386 -1.000000000000000e+00
3992 3851 -2.668457099382954e-02
3992 3992 2.035083787434559e+00
3993 191 -1.000000000000000e+00
3993 348 -2.708606585760075e-02
3993 395 -1.000000000000000e+00
3993 3254 -1.878600312425209e-02
3993 3993 2.045872068981853e+00
3994 12 -1.000000000000000e+00
3994 2037 -3.409711310167774e-02
3994 3473 -1.000000000000000e+00
3994 3818 -2.054306956250663e-02
3994 3994 2.054640182664184e+00
3995 182 -1.000000000000000e+00
3995 605 -1.160572513163468e-02
3995 2511 -1.000000000000000e+00
3995 3090 -7.055162191181202e-03
3995 3267 -2.094434472969287e-02
3995 3348 -2.426578135834983e-02
3995 3773 -1.653834498221304e-02
3995 3995 2.080409358393072e+00
3996 40 -1.000000000000000e+00
3996 1326 -1.244672568854551e-02
3996 1543 -1.000000000000000e+00
3996 1867 -3.526290185122889e-02
3996 2830 -1.348864077815250e-02
3996 2908 -1.620594558770734e-02
3996 2997 -1.951382519950631e-02
3996 3657 -1.642481058590971e-02
3996 3996 3.131549354147094e+00
3997 51 -1.000000000000000e+00
3997 121 -1.000000000000000e+00
3997 713 -1.938504054538012e-02
3997 3997 2.026073318580256e+00
3998 1997 -1.001853821547151e+00
3998 3605 -1.000000000000000e+00
3998 3998 3.024096893867488e+00
3999 1 -1.000000000000000e+00
3999 333 -1.000000000000000e+00
3999 913 -3.335205742295237e-02
3999 2116 -2.421551916071068e-02
3999 3999 3.057567576583663e+00
4000 32 -1.000000000000000e+00
4000 737 -1.000000000000000e+00
4000 919 -1.022183898420184e-02
4000 3595 -1.013799483501691e-02
4000 4000 2.044378913010780e+00
4001 1 -1.000000000000000e+00
4001 747 -1.160153823923465e-02
4001 1027 -1.989731416535610e-02
4001 1178 -1.000000000000000e+00
4001 1591 -9.112114336739977e-03
4001 3364 -1.000000000000000e+00
4001 4001 3.052151092855637e+00
4002 2672 -1.000000000000000e+00
4002 2897 -1.010047396371847e+00
4002 4002 2.010047396371847e+00
4003 2434 -1.000000000000000e+00
4003 3544 -4.694134267730089e-03
4003 3635 -1.000000000000000e+00
4003 4003 5.015188048563200e+00
4004 799 -1.000000000000000e+00
4004 1707 -1.006844358208955e+00
4004 4004 2.006844358208955e+00
4005 1534 -1.000000000000000e+00
4005 2843 -1.000000000000000e+00
4005 4005 3.011088074081775e+00
4006 28 -1.000000000000000e+00
4006 2999 -1.000000000000000e+00
4006 3244 -1.000000000000000e+00
4006 4006 3.036122572095895e+00
4007 373 -2.154233480810358e-02
4007 1952 -1.000000000000000e+00
4007 2838 -1.000000000000000e+00
4007 3236 -1.704774374852798e-02
4007 4007 2.038590078556632e+00
4008 41 -1.000000000000000e+00
4008 522 -1.000000000000000e+00
4008 3915 -6.427748565575395e-03
4008 4008 4.034904755822633e+00
4009 17 -1.000000000000000e+00
4009 952 -1.539183210906231e-02
4009 2623 -1.000000000000000e+00
4009 3122 -1.265425758496357e-02
4009 4009 2.028046089694026e+00
4010 249 -1.365228309666435e-02
4010 1112 -1.000000000000000e+00
4010 1158 -4.411244092335142e-03
4010 2145 -1.000000000000000e+00
4010 2388 -1.000000000000000e+00
4010 4010 3.018063527188999e+00
4011 1491 -1.662937150836614e-02
4011 1690 -1.001843594579092e+00
4011 1847 -1.010753400540244e+00
4011 2518 -3.624717543491894e-03
4011 2615 -7.361639827199409e-03
4011 2734 -2.087845905961883e-02
4011 4011 3.061091183058013e+00
4012 356 -1.000187373064519e+00
4012 422 -2.218324411682336e-02
4012 602 -1.157009003853916e-03
4012 889 -1.522544666607495e-02
4012 982 -1.000000000000000e+00
4012 3402 -1.315147104892452e-02
4012 4012 2.051904543900196e+00
4013 717 -1.000000000000000e+00
4013 1448 -1.679676853434506e-02
4013 2503 -1.000000000000000e+00
4013 3354 -6.098006184050744e-03
4013 4013 3.022894774718396e+00
4014 2 -1.000000000000000e+00
4014 54 -2.779744197484778e-02
4014 2249 -1.000000000000000e+00
4014 2296 -2.121853520057071e-02
4014 4014 2.070658833343283e+00
4015 232 -1.000000000000000e+00
4015 861 -1.000000000000000e+00
4015 1288 -8.685561849120609e-03
4015 4015 2.018674065128887e+00
4016 894 -1.768300428202106e-02
4016 2050 -1.000000000000000e+00
4016 2595 -1.932035254949086e-02
4016 2940 -1.000000000000000e+00
4016 3898 -2.671148259187285e-02
4016 4016 2.063714839423385e+00
4017 70 -2.848976012665808e-02
4017 594 -6.263003932854157e-03
4017 1797 -1.000000000000000e+00
4017 2509 -1.000000000000000e+00
4017 4017 2.034752764059512e+00
4018 363 -1.000000000000000e+00
4018 2571 -1.010549097595251e+00
4018 4018 2.010549097595251e+00
4019 191 -1.000000000000000e+00
4019 2568 -1.012979987588148e+00
4019 3388 -7.995593042322762e-04
4019 4019 2.013779546892380e+00
4020 1236 -1.000000000000000e+00
4020 1427 -1.000000000000000e+00
4020 4020 3.000000000000000e+00
4021 21 -1.000000000000000e+00
4021 489 -1.000000000000000e+00
4021 1070 -1.000000000000000e+00
4021 2629 -8.902369863563877e-03
4021 3629 -1.000000000000000e+00
4021 4021 6.009646269417262e+00
4022 734 -1.000000000000000e+00
4022 814 -1.016586489005302e+00
4022 1908 -6.531204845205015e-04
4022 4022 2.038451606962225e+00
4023 10 -1.000000000000000e+00
4023 122 -1.000000000000000e+00
4023 418 -1.059227272952806e-02
4023 1386 -1.202609014478796e-02
4023 1515 -1.613512835894209e-02
4023 1517 -1.541486477723707e-02
4023 2675 -1.786863836161537e-02
4023 4023 2.101597044171714e+00
4024 2174 -1.000000000000000e+00
4024 3544 -5.620460868585034e-03
4024 4003 -1.002935119580010e+00
4024 4024 2.015424012089310e+00
4025 252 -3.972035966970160e-02
4025 394 -1.000000000000000e+00
4025 935 -1.000000000000000e+00
4025 1477 -1.000000000000000e+00
4025 4025 3.053326117209528e+00
4026 1135 -1.000000000000000e+00
4026 2220 -2.136342679709693e-02
4026 2418 -1.237781285326212e-02
4026 3536 -1.000000000000000e+00
4026 4026 2.033741239650359e+00
4027 1494 -2.308875698714074e-02
4027 2213 -1.000000000000000e+00
4027 2407 -9.356997819660087e-03
4027 3120 -1.000000000000000e+00
4027 4027 3.032445754806801e+00
4028 523 -1.000000000000000e+00
4028 814 -4.198052846400306e-03
4028 1908 -1.007247580614898e+00
4028 2081 -1.000000000000000e+00
4028 4022 -2.121199747240229e-02
4028 4028 3.032657630933701e+00
4029 311 -1.000000000000000e+00
4029 1007 -1.000000000000000e+00
4029 1525 -1.029166350819594e-02
4029 2295 -2.325313654599944e-02
4029 4029 2.033544800054195e+00
4030 2274 -2.277914614316040e-02
4030 2568 -1.000000000000000e+00
4030 2703 -1.000000000000000e+00
4030 3776 -1.707572820021314e-02
4030 4030 5.054322951687848e+00
4031 106 -1.000000000000000e+00
4031 676 -1.660377322359643e-02
4031 759 -1.000000000000000e+00
4031 1710 -7.530675294771578e-03
4031 2690 -2.347173494414465e-02
4031 2865 -1.000000000000000e+00
4031 3416 -1.448518603712895e-02
4031 4031 3.066876910659655e+00
4032 68 -1.000000000000000e+00
4032 76 -1.000000000000000e+00
4032 796 -4.988352895127307e-03
4032 2407 -3.505198474069969e-03
4032 3199 -2.102889854060709e-02
4032 4032 3.029522449909805e+00
4033 464 -1.000000000000000e+00
4033 3046 -8.094899075496202e-03
4033 3265 -1.000000000000000e+00
4033 4033 3.008175084483248e+00
4034 27 -1.000000000000000e+00
4034 1323 -1.053992348279016e-02
4034 1834 -1.548716108589307e-02
4034 2122 -2.229212599527976e-02
4034 2809 -1.000000000000000e+00
4034 3027 -5.071786210165167e-03
4034 4034 3.053390996774128e+00
4035 73 -1.000000000000000e+00
4035 1857 -7.345146334111865e-03
4035 2382 -1.000000000000000e+00
4035 3970 -1.144659029831841e-02
4035 4035 2.031601629475433e+00
4036 9 -1.000000000000000e+00
4036 1282 -1.000000000000000e+00
4036 4036 2.012637900122522e+00
4037 11 -1.000000000000000e+00
4037 2040 -1.000000000000000e+00
4037 3058 -4.047593796473441e-03
4037 4037 2.027981117407142e+00
4038 573 -1.000000000000000e+00
4038 2461 -1.867495970607508e-02
4038 2747 -1.009070531836187e+00
4038 4038 2.027745491542262e+00
4039 112 -1.000000000000000e+00
4039 179 -1.000000000000000e+00
4039 1660 -2.317159447897732e-03
4039 2886 -4.602080266833150e-03
4039 4039 2.006919239714731e+00
4040 150 -1.000000000000000e+00
4040 204 -1.000000000000000e+00
4040 2756 -2.175867446760828e-02
4040 4040 2.035328027363192e+00
4041 1042 -1.376063139657664e-02
4041 1112 -5.682551988127009e-04
4041 1170 -1.000000000000000e+00
4041 1494 -1.000000000000000e+00
4041 1692 -1.000000000000000e+00
4041 2941 -2.735430444253300e-02
4041 4041 4.041683191037922e+00
4042 18 -1.000000000000000e+00
4042 296 -1.000000000000000e+00
4042 3740 -5.219722595727549e-03
4042 4042 2.015573378475271e+00
4043 552 -1.000209300953699e+00
4043 1032 -1.000000000000000e+00
4043 2724 -2.102142745854192e-02
4043 4043 2.021230728412241e+00
4044 5 -1.000000000000000e+00
4044 1423 -2.362518116118920e-02
4044 2106 -2.595077969369499e-02
4044 2418 -4.710310653904882e-03
4044 2527 -2.860151172148456e-02
4044 3175 -2.084306353238839e-02
4044 3300 -1.000000000000000e+00
4044 3344 -2.519563197145031e-02
4044 3352 -2.112565510138256e-02
4044 4044 2.234387143618433e+00
4045 254 -2.499175376307581e-02
4045 317 -2.727098052310230e-02
4045 1139 -2.070642639836724e-02
4045 1246 -2.751613883589118e-02
4045 2189 -1.000000000000000e+00
4045 3648 -1.000000000000000e+00
4045 4045 2.100485299520436e+00
4046 79 -1.000000000000000e+00
4046 1657 -1.000000000000000e+00
4046 3206 -9.269449674904654e-03
4046 4046 2.012493073113566e+00
4047 430 -1.000000000000000e+00
4047 945 -1.000000000000000e+00
4047 2816 -2.079144446940410e-02
4047 3035 -1.000000000000000e+00
4047 4047 4.030112602599089e+00
4048 217 -1.000000000000000e+00
4048 894 -2.476256040357520e-02
4048 2416 -2.417476219808166e-02
4048 2633 -1.000000000000000e+00
4048 3898 -1.774513219915372e-02
4048 4048 2.096490485249587e+00
4049 88 -1.000000000000000e+00
4049 2118 -1.000000000000000e+00
4049 3120 -1.000000000000000e+00
4049 3689 -1.000000000000000e+00
4049 4049 5.025155935806047e+00
4050 32 -1.000000000000000e+00
4050 1503 -1.000000000000000e+00
4050 3799 -4.042436229763726e-03
4050 4050 3.028180569972823e+00
4051 9 -1.000000000000000e+00
4051 1989 -1.000000000000000e+00
4051 2077 -1.052973094265129e-02
4051 2508 -1.115132178239154e-03
4051 4051 2.011644863120890e+00
4052 11 -1.000000000000000e+00
4052 243 -1.000000000000000e+00
4052 1514 -7.891218895517582e-03
4052 2782 -1.000000000000000e+00
4052 4052 3.024537933594778e+00
4053 5 -1.000000000000000e+00
4053 236 -1.000000000000000e+00
4053 777 -5.449213886407638e-03
4053 1596 -1.259996276510614e-02
4053 1682 -3.002717155306380e-02
4053 1742 -5.853135946482317e-03
4053 3710 -1.005735828047860e+00
4053 4053 3.064835762578009e+00
4054 156 -1.503277176692358e-02
4054 966 -1.000000000000000e+00
4054 1973 -9.410369888678495e-03
4054 2852 -2.874547083147203e-02
4054 2957 -1.000000000000000e+00
4054 4054 2.068458005518925e+00
4055 199 -1.035825031958632e-02
4055 1824 -1.000000000000000e+00
4055 2430 -1.000000000000000e+00
4055 2714 -1.665395376048720e-02
4055 2774 -1.000000000000000e+00
4055 4055 4.027012204080074e+00
4056 482 -1.002053726059927e+00
4056 2377 -1.000000000000000e+00
4056 4056 2.022005282579169e+00
4057 44 -1.000000000000000e+00
4057 855 -3.610308102227975e-03
4057 1439 -1.000000000000000e+00
4057 4057 2.010137758324744e+00
4058 17 -1.000000000000000e+00
4058 41 -1.000000000000000e+00
4058 614 -1.262682906800612e-02
4058 2842 -7.328208181506709e-03
4058 3351 -1.868891317450665e-02
4058 3714 -1.839454132133223e-02
4058 4058 2.069218772706816e+00
4059 632 -8.206011412815859e-03
4059 826 -1.000000000000000e+00
4059 1666 -5.153083166544258e-03
4059 2729 -1.469988428753555e-02
4059 3579 -1.764064699011964e-04
4059 3682 -1.005897508472463e+00
4059 4059 2.039614717750709e+00
4060 32 -1.000000000000000e+00
4060 3159 -1.616920005397782e-02
4060 3193 -1.000000000000000e+00
4060 3638 -5.186788368646485e-03
4060 4060 3.037759143397190e+00
4061 2 -1.000000000000000e+00
4061 482 -1.180284303656428e-02
4061 1338 -1.000000000000000e+00
4061 4061 2.026893446740006e+00
4062 404 -1.014749651527791e+00
4062 935 -1.000000000000000e+00
4062 3477 -1.127922497928541e-02
4062 4062 3.030299260077197e+00
4063 570 -1.000000000000000e+00
4063 3024 -1.000000000000000e+00
4063 4063 3.003064292051997e+00
4064 276 -1.000000000000000e+00
4064 1692 -1.000000000000000e+00
4064 2823 -1.000000000000000e+00
4064 4064 4.036759317633904e+00
4065 362 -1.000000000000000e+00
4065 818 -1.000000000000000e+00
4065 2484 -2.191301669098632e-02
4065 3077 -1.185783636171946e-03
4065 4065 3.023098800327158e+00
4066 603 -1.013535550498407e+00
4066 906 -1.016649282781391e+00
4066 2691 -1.021926372321932e-02
4066 4066 2.040404097003017e+00
4067 42 -1.000000000000000e+00
4067 214 -1.700682295903890e-03
4067 579 -1.358338783202134e-02
4067 1538 -1.000000000000000e+00
4067 4067 2.015284070127925e+00
4068 680 -1.138719320687237e-02
4068 884 -1.000000000000000e+00
4068 2399 -1.010906630736957e+00
4068 4068 3.022293823943829e+00
4069 150 -1.000000000000000e+00
4069 225 -1.000000000000000e+00
4069 484 -2.295751493499471e-03
4069 738 -2.265344827904458e-02
4069 1313 -2.693490951842144e-02
4069 2967 -1.488990623725181e-02
4069 3024 -1.000000000000000e+00
4069 3650 -4.527649859579503e-03
4069 4040 -1.356935289558314e-02
4069 4069 4.091783300145162e+00
4070 33 -1.246596004977935e-02
4070 596 -1.000000000000000e+00
4070 1118 -2.733146368302053e-02
4070 1499 -1.000000000000000e+00
4070 4070 2.040923955160655e+00
4071 159 -1.000000000000000e+00
4071 3803 -1.001935656308392e+00
4071 4071 2.001935656308392e+00
4072 704 -4.026484242784138e-04
4072 898 -2.761710525958886e-03
4072 1433 -1.264986493685053e-02
4072 1866 -1.011229889308254e+00
4072 2202 -1.000000000000000e+00
4072 4072 2.036806278869755e+00
4073 423 -1.000000000000000e+00
4073 1589 -1.000000000000000e+00
4073 3514 -2.136502693094961e-05
4073 3912 -1.320002197372677e-02
4073 4073 2.013221387000658e+00
4074 561 -1.000000000000000e+00
4074 1532 -1.000000000000000e+00
4074 1912 -2.220071441697059e-02
4074 3758 -1.554052511324069e-02
4074 4074 2.037741239530211e+00
4075 1557 -8.748732309570391e-03
4075 1877 -1.000000000000000e+00
4075 2604 -2.300947109421234e-03
4075 2648 -1.000000000000000e+00
4075 4075 2.011049679418992e+00
4076 17 -1.000000000000000e+00
4076 2591 -1.000000000000000e+00
4076 2881 -5.154966510662813e-03
4076 4076 3.019914211598748e+00
4077 1471 -1.000000000000000e+00
4077 1997 -3.683572031468193e-04
4077 3998 -1.022243072320337e+00
4077 4077 2.022611429523484e+00
4078 508 -1.000000000000000e+00
4078 1107 -1.000000000000000e+00
4078 4078 3.016926827320026e+00
4079 340 -1.000000000000000e+00
4079 430 -9.603109314910251e-04
4079 1378 -1.009859268518265e+00
4079 1456 -1.000000000000000e+00
4079 4079 3.010819579449756e+00
4080 7 -1.000000000000000e+00
4080 691 -1.000000000000000e+00
4080 1933 -1.000000000000000e+00
4080 4080 3.000000000000000e+00
4081 155 -1.000000000000000e+00
4081 373 -1.954358934368845e-02
4081 816 -1.000000000000000e+00
4081 2418 -1.227735486316291e-03
4081 2893 -1.000000000000000e+00
4081 4081 4.020771324830005e+00
4082 1 -1.000000000000000e+00
4082 174 -1.000000000000000e+00
4082 827 -2.830161901558161e-02
4082 3007 -1.982892910905729e-02
4082 4082 2.048130548124639e+00
4083 210 -1.000000000000000e+00
4083 1137 -1.925563155442606e-02
4083 3044 -1.000000000000000e+00
4083 3534 -3.006947777359134e-02
4083 4083 4.049325109328017e+00
4084 112 -1.000000000000000e+00
4084 1660 -2.352469471280834e-02
4084 1909 -1.000000000000000e+00
4084 4084 2.051886343050779e+00
4085 154 -1.000000000000000e+00
4085 330 -1.000000000000000e+00
4085 4085 3.000000000000000e+00
4086 23 -1.000000000000000e+00
4086 2309 -1.000484118141892e+00
4086 3807 -2.672785664451503e-03
4086 4086 2.003156903806344e+00
4087 903 -1.000000000000000e+00
4087 3050 -2.410856158781215e-02
4087 3633 -1.000000000000000e+00
4087 3711 -3.447275434407623e-02
4087 4087 2.058581315931888e+00
4088 96 -1.000000000000000e+00
4088 1211 -1.000000000000000e+00
4088 2462 -1.936273173743068e-02
4088 2569 -7.896634079476588e-03
4088 4088 2.035716396281400e+00
4089 243 -1.000000000000000e+00
4089 2418 -1.088487391764760e-02
4089 2456 -2.864449297567895e-02
4089 2577 -1.893414651006741e-02
4089 3236 -1.000000000000000e+00
4089 4014 -2.164285616786441e-02
4089 4089 2.080106369571258e+00
4090 2 -1.000000000000000e+00
4090 454 -2.640573647661758e-02
4090 3257 -1.000000000000000e+00
4090 4090 2.038696036383876e+00
4091 472 -3.831271668146719e-03
4091 2507 -1.000000000000000e+00
4091 3905 -1.000000000000000e+00
4091 4091 3.011663498131682e+00
4092 4 -1.000000000000000e+00
4092 1050 -6.094980095488649e-03
4092 1981 -1.000000000000000e+00
4092 2316 -7.601898070152493e-03
4092 4092 3.013696878165641e+00
4093 2370 -1.000000000000000e+00
4093 3976 -1.003236832324923e+00
4093 4093 2.003236832324923e+00
4094 464 -1.000000000000000e+00
4094 1898 -1.000000000000000e+00
4094 2591 -1.772169044661569e-02
4094 3922 -2.262220861728751e-02
4094 4094 2.040343899063903e+00
4095 86 -1.000000000000000e+00
4095 943 -1.000000000000000e+00
4095 3630 -1.413090799735715e-02
4095 3898 -2.549084061461074e-02
4095 4095 2.039621748611968e+00
4096 600 -1.138730913865052e-02
4096 791 -1.000000000000000e+00
4096 1513 -1.000000000000000e+00
4096 2216 -1.000000000000000e+00
4096 3491 -1.019251092392261e-02
4096 4096 3.021579820062573e+00
4097 18 -1.000000000000000e+00
4097 2006 -1.005167195835228e+00
4097 2612 -1.347990820843395e-02
4097 3667 -8.376067101488138e-03
4097 4097 2.046424484042487e+00
4098 155 -1.000000000000000e+00
4098 1708 -1.919666651055935e-02
4098 2136 -1.000000000000000e+00
4098 3236 -4.196634893022261e-02
4098 3534 -1.000000000000000e+00
4098 4098 3.061163015440782e+00
4099 329 -1.001902773542359e+00
4099 440 -2.777984510933659e-03
4099 3881 -1.000000000000000e+00
4099 4099 2.004680758053293e+00
4100 1552 -1.686739667839191e-02
4100 2289 -1.000000000000000e+00
4100 3793 -1.000000000000000e+00
4100 4100 2.038488729801164e+00
4101 121 -1.000000000000000e+00
4101 1265 -1.000000000000000e+00
4101 3057 -2.026095410298458e-02
4101 3689 -1.384050580567821e-02
4101 4101 3.034101459908663e+00
4102 1325 -1.000000000000000e+00
4102 2023 -1.006102434612707e+00
4102 4102 3.006102434612707e+00
4103 679 -1.000000000000000e+00
4103 850 -1.000000000000000e+00
4103 3432 -1.408882794591566e-02
4103 3575 -1.229164478881813e-02
4103 4103 3.026380472734734e+00
4104 240 -1.000000000000000e+00
4104 290 -2.675599883469211e-02
4104 1824 -1.016488921196743e+00
4104 4104 2.043244920031436e+00
4105 44 -1.000000000000000e+00
4105 158 -1.000000000000000e+00
4105 949 -1.679222163112234e-02
4105 3240 -1.353958150238815e-02
4105 4105 2.030331803133511e+00
4106 291 -1.000000000000000e+00
4106 359 -1.000421100614210e+00
4106 365 -5.242190127006659e-03
4106 552 -1.000000000000000e+00
4106 4106 3.005663290741217e+00
4107 86 -1.019895327656149e+00
4107 3466 -1.491649252656685e-02
4107 3858 -1.021982281092255e+00
4107 4107 2.056794101274970e+00
4108 28 -1.000000000000000e+00
4108 458 -1.012908924198393e+00
4108 4108 2.031887256910741e+00
4109 242 -1.000000000000000e+00
4109 805 -1.000000000000000e+00
4109 2344 -1.876275321115940e-03
4109 4109 2.004365093768572e+00
4110 32 -1.000000000000000e+00
4110 927 -1.000000000000000e+00
4110 1778 -8.775698842113859e-04
4110 4110 3.011911392324324e+00
4111 148 -1.000000000000000e+00
4111 369 -1.012595409687597e-02
4111 683 -1.000000000000000e+00
4111 2932 -1.589561471080204e-02
4111 3758 -1.486751713811600e-02
4111 4111 2.040889085945794e+00
4112 104 -1.000000000000000e+00
4112 1545 -1.000000000000000e+00
4112 3792 -1.940955261526782e-02
4112 3899 -1.414042144016594e-02
4112 4112 3.061446273921917e+00
4113 395 -9.929537972550102e-03
4113 955 -1.000000000000000e+00
4113 1788 -1.000000000000000e+00
4113 2081 -1.134900629594724e-02
4113 2440 -1.418901520390380e-02
4113 4113 2.048985592151688e+00
4114 36 -1.000000000000000e+00
4114 247 -1.000000000000000e+00
4114 1041 -4.719652190031588e-03
4114 1177 -1.001657529642318e+00
4114 3759 -8.886614285738082e-03
4114 4114 3.015263796118088e+00
4115 229 -1.000000000000000e+00
4115 294 -1.005844157909368e+00
4115 1329 -1.547759768623767e-02
4115 2271 -2.220615924838484e-03
4115 3474 -1.235733311316906e-03
4115 4115 2.041256831186060e+00
4116 62 -1.011608500085511e+00
4116 240 -1.000000000000000e+00
4116 1593 -1.355953312689797e-02
4116 2497 -2.293193298654079e-02
4116 4116 2.069793351838612e+00
4117 320 -1.000000000000000e+00
4117 379 -1.028796465964871e+00
4117 2533 -5.475049340846148e-03
4117 4117 2.034271515305717e+00
4118 68 -1.009516976222594e+00
4118 202 -1.000000000000000e+00
4118 3620 -5.807481975702219e-03
4118 3765 -1.869045034858277e-02
4118 4118 2.034014908546879e+00
4119 53 -1.533731697369964e-02
4119 597 -1.000000000000000e+00
4119 755 -7.993722701131569e-03
4119 1015 -2.694830675839272e-03
4119 1276 -1.012217306797735e+00
4119 2146 -1.000000000000000e+00
4119 2196 -2.290473566809060e-03
4119 3538 -8.847341549038676e-03
4119 3906 -3.930349283598201e-03
4119 4119 3.065246146209756e+00
4120 521 -1.460570235541494e-02
4120 1138 -1.000000000000000e+00
4120 3323 -1.000000000000000e+00
4120 3720 -1.000000000000000e+00
4120 4120 4.024471117685958e+00
4121 553 -1.000000000000000e+00
4121 1030 -1.000000000000000e+00
4121 1123 -1.532722525389497e-02
4121 1573 -2.031029091219404e-02
4121 4121 3.058131458747722e+00
4122 1 -1.000000000000000e+00
4122 388 -6.153882163697286e-03
4122 428 -1.000000000000000e+00
4122 3268 -3.183621732928753e-02
4122 3806 -1.000000000000000e+00
4122 4122 4.037990099492985e+00
4123 95 -1.000000000000000e+00
4123 2537 -2.554106795447493e-02
4123 3155 -1.000000000000000e+00
4123 4123 2.045081274154533e+00
4124 270 -1.000000000000000e+00
4124 1309 -1.000000000000000e+00
4124 3233 -4.025021278533267e-03
4124 3601 -1.218884019205554e-02
4124 4124 2.020219494257911e+00
4125 1981 -2.560870869218708e-02
4125 2432 -1.000000000000000e+00
4125 3491 -1.004166746583080e+00
4125 4125 2.029775455275267e+00
4126 76 -1.000000000000000e+00
4126 373 -3.146782167819123e-02
4126 791 -3.128910347994216e-02
4126 1699 -1.000000000000000e+00
4126 4126 3.089863295950509e+00
4127 34 -1.000000000000000e+00
4127 1404 -1.296913610158184e-02
4127 2091 -1.748834060169146e-02
4127 2458 -1.024800931352548e+00
4127 4127 2.055258408055821e+00
4128 12 -1.000000000000000e+00
4128 2984 -1.000000000000000e+00
4128 3432 -1.445182510225754e-02
4128 3496 -1.934216625653356e-02
4128 4128 2.033793991358791e+00
4129 73 -1.000000000000000e+00
4129 195 -1.000000000000000e+00
4129 1117 -2.203444012879898e-02
4129 1172 -1.545419995255888e-02
4129 3341 -1.375746804541161e-02
4129 4129 3.051246108126770e+00
4130 377 -1.000000000000000e+00
4130 2997 -1.000000000000000e+00
4130 3738 -1.852920071744401e-02
4130 3996 -1.820650445604390e-02
4130 4130 2.036735705173488e+00
4131 337 -1.000000000000000e+00
4131 3518 -1.000000000000000e+00
4131 4131 2.034343292041998e+00
4132 173 -1.226491782556405e-02
4132 1594 -1.000000000000000e+00
4132 2997 -1.000000000000000e+00
4132 3004 -1.000000000000000e+00
4132 4132 3.029316026674376e+00
4133 551 -1.000894137502188e+00
4133 1438 -1.000000000000000e+00
4133 1957 -3.289507570244439e-03
4133 1972 -2.067291545149184e-03
4133 2942 -6.976818937012206e-04
4133 3040 -6.060713489341209e-03
4133 3183 -9.576842009849590e-03
4133 3732 -1.092297739449611e-02
4133 4133 2.033509151404970e+00
4134 69 -1.722770282398285e-02
4134 674 -1.000000000000000e+00
4134 1136 -1.000000000000000e+00
4134 3125 -1.736807037869438e-02
4134 4134 2.034595773202677e+00
4135 551 -1.382153211251265e-02
4135 1957 -1.000000000000000e+00
4135 2746 -1.000000000000000e+00
4135 3183 -2.332389385343935e-02
4135 4135 2.037145425965952e+00
4136 18 -1.000000000000000e+00
4136 1898 -1.000882127121508e+00
4136 1904 -1.000000000000000e+00
4136 2591 -1.731276296978874e-02
4136 3922 -1.000000000000000e+00
4136 4136 4.018194890091297e+00
4137 1721 -1.025101600161206e+00
4137 1849 -1.000000000000000e+00
4137 4137 2.044466422823351e+00
4138 279 -1.309912184698831e-02
4138 601 -1.000000000000000e+00
4138 1248 -1.133159237455701e-02
4138 2482 -1.000000000000000e+00
4138 3051 -1.000000000000000e+00
4138 4138 3.024430714221545e+00
4139 12 -1.000000000000000e+00
4139 625 -1.000000000000000e+00
4139 2722 -1.746716659003575e-02
4139 3869 -1.599267298967473e-02
4139 4139 2.033459839579710e+00
4140 493 -1.000000000000000e+00
4140 2220 -2.396491264096871e-02
4140 2296 -1.882627853402449e-02
4140 3467 -1.000000000000000e+00
4140 4140 2.042791191174993e+00
4141 26 -1.000000000000000e+00
4141 331 -1.000000000000000e+00
4141 1943 -7.825270206598149e-03
4141 3462 -1.584127133987249e-02
4141 4141 2.023666541546471e+00
4142 65 -1.000000000000000e+00
4142 780 -1.000000000000000e+00
4142 1909 -1.483281744678957e-02
4142 4142 2.027232731964581e+00
4143 927 -1.208480554515909e-02
4143 1124 -1.000000000000000e+00
4143 1420 -1.000000000000000e+00
4143 1778 -6.904736438479938e-03
4143 4143 2.018989541983639e+00
4144 522 -1.000000000000000e+00
4144 800 -5.356143852552359e-04
4144 927 -4.564054125567581e-03
4144 4110 -1.000000000000000e+00
4144 4144 2.005099668510823e+00
4145 1 -1.000000000000000e+00
4145 3337 -1.734054792982473e-02
4145 3733 -1.129471494441825e-02
4145 3854 -1.000000000000000e+00
4145 4145 2.028635262874243e+00
4146 3018 -1.000000000000000e+00
4146 3386 -2.522199468484774e-03
4146 3705 -1.006990142507667e+00
4146 4146 2.009512341976152e+00
4147 540 -1.000000000000000e+00
4147 844 -8.555220036960893e-03
4147 1492 -1.564882386163376e-02
4147 1545 -1.015747164414838e+00
4147 2635 -1.675468185936399e-02
4147 2981 -1.392898623625103e-02
4147 3512 -1.678339023832103e-02
4147 3892 -1.858236563686212e-02
4147 4147 2.106000632284231e+00
4148 159 -1.000000000000000e+00
4148 1347 -1.642904593068934e-05
4148 2580 -7.403988218912441e-03
4148 2998 -1.084282079827372e-03
4148 3753 -1.000000000000000e+00
4148 4148 2.019291736798829e+00
4149 164 -1.000000000000000e+00
4149 659 -1.000000000000000e+00
4149 1369 -1.784319770020182e-02
4149 3033 -1.925261026091137e-02
4149 4149 2.037095807961113e+00
4150 427 -1.000000000000000e+00
4150 961 -2.073721134059022e-02
4150 1467 -1.000000000000000e+00
4150 2031 -1.857796644121897e-02
4150 4150 3.039315177781809e+00
4151 573 -1.000000000000000e+00
4151 704 -2.050677681745818e-02
4151 898 -1.000000000000000e+00
4151 1433 -9.855963463719086e-04
4151 4072 -9.762165674413487e-03
4151 4151 2.031254538838243e+00
4152 1352 -1.000000000000000e+00
4152 2263 -1.009632038580621e+00
4152 4152 2.009632038580620e+00
4153 497 -1.000000000000000e+00
4153 920 -1.000000000000000e+00
4153 3018 -2.240787854639791e-02
4153 3898 -1.311971789045467e-02
4153 4153 3.035527596436852e+00
4154 1235 -1.000000000000000e+00
4154 3608 -1.017621012875231e+00
4154 4068 -1.000000000000000e+00
4154 4154 3.038279528015455e+00
4155 18 -1.000000000000000e+00
4155 188 -1.000000000000000e+00
4155 1676 -1.105848397928853e-02
4155 4155 2.025754847904161e+00
4156 203 -1.000000000000000e+00
4156 1256 -6.627524528301842e-03
4156 2404 -1.012350929879644e+00
4156 4156 2.018978454407947e+00
4157 1084 -1.000000000000000e+00
4157 1269 -1.129248245859084e-02
4157 3186 -1.000000000000000e+00
4157 4157 2.018174824769852e+00
4158 1643 -1.002558772510519e+00
4158 1667 -5.244178705995131e-03
4158 3444 -1.000000000000000e+00
4158 4158 3.036273606322836e+00
4159 178 -1.000000000000000e+00
4159 843 -7.540375354574990e-03
4159 1826 -1.000000000000000e+00
4159 4159 3.038332978058459e+00
4160 32 -2.743267042240181e-02
4160 353 -1.000000000000000e+00
4160 1551 -1.000000000000000e+00
4160 1553 -1.000000000000000e+00
4160 1684 -2.720989330252104e-02
4160 1979 -2.136366605412897e-02
4160 4160 3.107923794449062e+00
4161 183 -1.000000000000000e+00
4161 518 -1.000000000000000e+00
4161 4161 3.001522627495224e+00
4162 2 -1.000000000000000e+00
4162 411 -2.120458695090719e-02
4162 1686 -2.069354422630279e-02
4162 2557 -1.777841316433627e-02
4162 2754 -1.000000000000000e+00
4162 4162 2.059676544341546e+00
4163 679 -1.000000000000000e+00
4163 1182 -4.282298934032544e-03
4163 2020 -1.000000000000000e+00
4163 2332 -1.000000000000000e+00
4163 2967 -1.705957064112158e-02
4163 3375 -1.000000000000000e+00
4163 4163 4.036103188876411e+00
4164 2555 -1.000000000000000e+00
4164 3985 -1.022570569579934e+00
4164 4164 2.022570569579934e+00
4165 677 -2.833474555461410e-03
4165 695 -2.313082606575688e-03
4165 2120 -1.000000000000000e+00
4165 2313 -2.857798503329808e-04
4165 3650 -1.000000000000000e+00
4165 3754 -1.000000000000000e+00
4165 4165 3.005432337012370e+00
4166 269 -3.180238231196984e-03
4166 301 -1.000000000000000e+00
4166 1052 -1.000000000000000e+00
4166 1083 -1.000000000000000e+00
4166 3804 -6.568587173512904e-03
4166 4166 4.009748825404710e+00
4167 319 -3.676366287931772e-02
4167 1409 -1.000000000000000e+00
4167 2513 -1.000000000000000e+00
4167 3377 -2.940763651987976e-02
4167 4167 2.066171299399198e+00
4168 567 -1.000000000000000e+00
4168 1860 -1.000000000000000e+00
4168 2132 -1.008391829301925e+00
4168 4062 -4.270383570120911e-03
4168 4168 3.023683198168013e+00
4169 92 -1.871007652292862e-02
4169 3049 -1.000000000000000e+00
4169 3118 -1.000000000000000e+00
4169 3969 -1.000000000000000e+00
4169 4169 5.030765148020643e+00
4170 274 -1.000000000000000e+00
4170 390 -1.000000000000000e+00
4170 2237 -1.054308818062624e-03
4170 4170 3.010874196023505e+00
4171 164 -1.003738247467890e+00
4171 659 -1.477207654630170e-02
4171 833 -1.000000000000000e+00
4171 946 -1.589693463989498e-02
4171 1852 -2.928793701337636e-02
4171 2895 -1.000000000000000e+00
4171 3033 -1.178440893525429e-02
4171 4171 4.089517398358461e+00
4172 816 -7.476931135469164e-03
4172 2332 -1.010241725973909e+00
4172 3737 -1.001478479122411e+00
4172 4172 2.025938837175930e+00
4173 251 -1.000000000000000e+00
4173 1348 -3.286545374989036e-02
4173 1365 -1.019167160678866e+00
4173 1867 -1.627893180578768e-02
4173 3069 -2.437783234664369e-02
4173 4173 2.115894351068289e+00
4174 651 -1.000000000000000e+00
4174 712 -1.000000000000000e+00
4174 1640 -1.624346385735147e-02
4174 2339 -1.022006651634419e+00
4174 3141 -2.647594353950078e-03
4174 4174 3.040897709845721e+00
4175 180 -1.000000000000000e+00
4175 759 -1.818285373086183e-02
4175 1356 -1.993778899677091e-03
4175 1439 -1.000000000000000e+00
4175 1878 -1.181867206522693e-02
4175 1919 -9.530711994774245e-03
4175 2587 -2.823748109908393e-03
4175 4057 -6.527450222515625e-03
4175 4175 2.050877215022964e+00
4176 1045 -9.584842530595184e-03
4176 1323 -1.008447589836516e+00
4176 1814 -1.995006082358457e-02
4176 1951 -1.005864873652041e+00
4176 3022 -1.000000000000000e+00
4176 3929 -1.992315281435442e-02
4176 4176 3.063770519657091e+00
4177 77 -9.933241243057489e-04
4177 218 -1.000000000000000e+00
4177 960 -1.013511597474386e+00
4177 2673 -2.040367199669928e-02
4177 4177 2.034908593595391e+00
4178 257 -1.000000000000000e+00
4178 2596 -1.000000000000000e+00
4178 3392 -1.283454556819381e-02
4178 4178 3.016785079017472e+00
4179 354 -3.880011231001784e-02
4179 975 -1.000000000000000e+00
4179 3614 -1.000000000000000e+00
4179 4179 2.063532631160934e+00
4180 83 -1.000000000000000e+00
4180 504 -1.001755282560476e+00
4180 4180 2.022200376063890e+00
4181 5 -1.000000000000000e+00
4181 1683 -1.000000000000000e+00
4181 2418 -8.018550122807522e-03
4181 4181 2.024224195392776e+00
4182 311 -1.000000000000000e+00
4182 929 -1.695547839849490e-02
4182 1603 -2.106444273766374e-03
4182 2297 -1.968848169391523e-03
4182 2819 -1.000000000000000e+00
4182 4182 2.021030770841653e+00
4183 1214 -1.000000000000000e+00
4183 3057 -1.000000000000000e+00
4183 4183 3.000000000000000e+00
4184 1334 -1.000000000000000e+00
4184 2413 -1.493233231907800e-02
4184 3486 -2.350565139881512e-02
4184 3676 -1.000000000000000e+00
4184 4184 2.038437983717893e+00
4185 10 -1.000000000000000e+00
4185 88 -1.000000000000000e+00
4185 723 -2.158859406752546e-02
4185 940 -2.907142791679597e-02
4185 4185 2.050660021984322e+00
4186 11 -1.000000000000000e+00
4186 333 -1.000000000000000e+00
4186 642 -1.122090933463836e-02
4186 2029 -1.650275406126030e-02
4186 4186 2.027723663395899e+00
4187 848 -4.983799369979280e-03
4187 1193 -1.000000000000000e+00
4187 1898 -1.000000000000000e+00
4187 2955 -8.197803320820729e-03
4187 4187 2.013181602690800e+00
4188 718 -1.000000000000000e+00
4188 849 -1.000000000000000e+00
4188 1413 -7.409907829596486e-03
4188 3190 -1.000000000000000e+00
4188 3978 -6.774478465530647e-04
4188 4188 3.008087355676150e+00
4189 13 -1.000000000000000e+00
4189 854 -1.011990839565152e+00
4189 2135 -1.000000000000000e+00
4189 4189 3.018724164550600e+00
4190 149 -1.080761888684343e-02
4190 2400 -1.684673066316390e-02
4190 2716 -1.007451401614556e+00
4190 4159 -1.000000000000000e+00
4190 4190 2.035105751164564e+00
4191 5 -1.000000000000000e+00
4191 1016 -1.000000000000000e+00
4191 1238 -1.917269978422125e-02
4191 2178 -1.484711749457065e-02
4191 2419 -2.237714021994475e-02
4191 4179 -2.473251885091594e-02
4191 4191 2.159420368979039e+00
4192 1207 -1.000000000000000e+00
4192 1388 -1.000000000000000e+00
4192 1906 -1.000000000000000e+00
4192 2287 -1.041954678044464e-02
4192 2377 -9.089504516373496e-03
4192 4192 4.019509051296819e+00
4193 2777 -1.007933212370906e+00
4193 3624 -1.009196736873179e+00
4193 4193 4.017129949244085e+00
4194 350 -9.308719187742263e-03
4194 572 -1.000000000000000e+00
4194 1995 -3.073569738165619e-03
4194 2846 -7.962788473315632e-03
4194 2874 -8.268709310023048e-03
4194 3926 -1.000000000000000e+00
4194 4194 3.050259710480074e+00
4195 174 -1.000000000000000e+00
4195 682 -1.000000000000000e+00
4195 2374 -1.501429601035698e-03
4195 2566 -4.280855679910022e-03
4195 2602 -1.055664307214145e-02
4195 4195 3.019941923045300e+00
4196 7 -1.000000000000000e+00
4196 359 -3.899284002001878e-04
4196 2526 -1.000000000000000e+00
4196 3230 -9.831475135595947e-03
4196 3865 -1.317149950624534e-02
4196 4196 2.034951931794205e+00
4197 81 -1.007923000360080e+00
4197 887 -8.388326463336870e-04
4197 2611 -1.000000000000000e+00
4197 3559 -1.589756555229759e-03
4197 4197 2.010351589561644e+00
4198 53 -1.000000000000000e+00
4198 289 -1.005458650592948e+00
4198 2372 -1.066788408066442e-02
4198 3908 -9.582326561902721e-03
4198 4198 2.025708861235515e+00
4199 760 -1.000000000000000e+00
4199 2930 -1.000000000000000e+00
4199 2960 -2.463601490990039e-02
4199 4199 2.053961167634225e+00
4200 453 -1.000000000000000e+00
4200 1088 -1.024998377601227e+00
4200 2676 -1.000000000000000e+00
4200 4200 3.024998377601227e+00
4201 1601 -1.000000000000000e+00
4201 1822 -1.001122390898778e+00
4201 4201 3.009427684880364e+00
4202 238 -1.000000000000000e+00
4202 2034 -1.920801129094864e-02
4202 2279 -1.000000000000000e+00
4202 2727 -1.000000000000000e+00
4202 3104 -2.539156507083623e-02
4202 4202 5.044599576361785e+00
4203 187 -1.016228596943783e+00
4203 433 -2.416999564736298e-03
4203 687 -1.000000000000000e+00
4203 4203 3.018645596508520e+00
4204 101 -1.354435467913076e-03
4204 481 -9.354818301146884e-03
4204 718 -1.000000000000000e+00
4204 764 -1.594241408448265e-02
4204 1767 -5.160481831748215e-03
4204 3106 -1.000000000000000e+00
4204 4204 2.034389453873075e+00
4205 1 -1.000000000000000e+00
4205 2374 -5.516011643159759e-03
4205 4195 -1.000000000000000e+00
4205 4205 2.008375392028372e+00
4206 1595 -1.000000000000000e+00
4206 1731 -1.568003863859059e-02
4206 1745 -1.167821669952800e-02
4206 4020 -1.000000000000000e+00
4206 4206 3.027358255338119e+00
4207 1739 -1.423661360414345e-02
4207 2213 -1.000000000000000e+00
4207 2369 -1.600421893423221e-02
4207 4193 -1.000000000000000e+00
4207 4207 2.050581274359180e+00
4208 197 -1.000000000000000e+00
4208 202 -2.047337445347099e-02
4208 2960 -1.000000000000000e+00
4208 4208 3.040518280238197e+00
4209 1214 -1.000000000000000e+00
4209 1909 -2.089488377132170e-02
4209 2362 -1.300376761575898e-02
4209 2632 -1.746643492233266e-02
4209 3116 -5.990212510586350e-03
4209 3259 -1.000000000000000e+00
4209 4209 2.087091232101296e+00
4210 682 -1.017500695111432e+00
4210 1163 -1.000000000000000e+00
4210 1971 -6.239114395881705e-03
4210 2602 -2.161175817699154e-02
4210 4210 2.045351567684306e+00
4211 186 -8.275446198759442e-03
4211 209 -1.000000000000000e+00
4211 780 -1.000000000000000e+00
4211 1430 -1.373553841053114e-02
4211 1506 -1.496739955045020e-02
4211 1581 -7.815664781461538e-03
4211 1859 -2.146883921321868e-02
4211 2149 -2.043717966821378e-02
4211 3047 -1.257186192842106e-02
4211 4211 2.099271929751056e+00
4212 65 -1.988649127841426e-02
4212 102 -1.000000000000000e+00
4212 631 -1.237672096988212e-02
4212 979 -1.235696464326421e-02
4212 1126 -5.670227511817522e-03
4212 2334 -1.012512940632793e+00
4212 4212 3.068016583754030e+00
4213 327 -1.000000000000000e+00
4213 1085 -2.149828915014447e-02
4213 1176 -1.000000000000000e+00
4213 1195 -2.710567821120120e-02
4213 2418 -8.679369914704064e-03
4213 2553 -2.346802031037032e-02
4213 2577 -1.826146716151591e-02
4213 2828 -1.000000000000000e+00
4213 3648 -1.553342056535502e-02
4213 4213 3.132442583602673e+00
4214 3 -1.000000000000000e+00
4214 206 -1.027417105198890e-02
4214 231 -7.257965277200369e-03
4214 365 -3.773905806352841e-03
4214 1755 -1.601247273606926e-02
4214 2224 -2.392072029510443e-02
4214 2526 -1.003839561468097e+00
4214 3009 -1.005887333404993e-03
4214 4214 2.084080635122244e+00
4215 720 -1.000000000000000e+00
4215 1769 -1.000000000000000e+00
4215 2129 -1.211922590391210e-02
4215 4215 3.026027641435535e+00
4216 1481 -9.625226340289623e-03
4216 1602 -6.354665889373896e-03
4216 2189 -1.000000000000000e+00
4216 3407 -1.000000000000000e+00
4216 4216 2.017598894636344e+00
4217 123 -9.883532760228266e-03
4217 639 -1.000000000000000e+00
4217 951 -1.240856232715364e-02
4217 1932 -1.703627878162315e-03
4217 1996 -1.188108049964157e-02
4217 2355 -1.000000000000000e+00
4217 2857 -6.302216633798724e-04
4217 3215 -2.147959310993748e-03
4217 3289 -1.417172234925376e-03
4217 3627 -1.000000000000000e+00
4217 3696 -5.406090989917929e-03
4217 4217 3.045478247664403e+00
4218 25 -1.000000000000000e+00
4218 1344 -1.000000000000000e+00
4218 1393 -2.359347788716036e-02
4218 2950 -1.007365379573689e-02
4218 4218 2.033667131682897e+00
4219 26 -1.000000000000000e+00
4219 87 -1.000000000000000e+00
4219 380 -2.584001043249931e-02
4219 1434 -1.451895179012810e-02
4219 1616 -6.545258644960382e-03
4219 4219 3.046904220867588e+00
4220 50 -1.000000000000000e+00
4220 1179 -1.000000000000000e+00
4220 3445 -1.119567543929895e-03
4220 3596 -5.927697133868323e-03
4220 4220 2.007047264677798e+00
4221 1 -1.000000000000000e+00
4221 345 -1.018328126151545e+00
4221 3692 -7.284939923900947e-03
4221 4221 2.025613066075446e+00
4222 436 -1.000000000000000e+00
4222 730 -1.568117342129472e-02
4222 2099 -1.486770620410775e-02
4222 2750 -1.000000000000000e+00
4222 4222 2.030548879625402e+00
4223 36 -1.000000000000000e+00
4223 39 -1.181232387717718e-02
4223 513 -1.296454792686977e-02
4223 544 -1.000000000000000e+00
4223 3335 -1.620280434181401e-02
4223 4223 2.040979676145861e+00
4224 28 -1.000000000000000e+00
4224 727 -1.000000000000000e+00
4224 1341 -1.730382218738293e-02
4224 1631 -2.974356186929253e-02
4224 4224 3.047047384056675e+00
4225 128 -1.000000000000000e+00
4225 1535 -1.000000000000000e+00
4225 1978 -1.437555023966443e-02
4225 2575 -4.648015725129648e-03
4225 4225 2.019023565964794e+00
4226 1435 -1.000000000000000e+00
4226 3050 -1.514982612001486e-02
4226 3398 -1.000000000000000e+00
4226 3424 -1.051174244838603e-02
4226 4226 2.025661568568401e+00
4227 1124 -1.004304847868221e+00
4227 1289 -2.179618564561950e-03
4227 3788 -1.003738696500862e+00
4227 4227 2.010223162933645e+00
4228 798 -1.000000000000000e+00
4228 1526 -1.000000000000000e+00
4228 4228 3.011556420227149e+00
4229 53 -1.000000000000000e+00
4229 550 -1.017037025684401e+00
4229 3493 -2.280749904260451e-02
4229 4229 2.039844524727006e+00
4230 348 -1.000000000000000e+00
4230 2629 -1.386938746391134e-02
4230 3629 -1.601905365676202e-02
4230 4021 -1.000743899553698e+00
4230 4230 2.035821954833680e+00
4231 2241 -1.036686197287444e-02
4231 2476 -1.001141752299218e+00
4231 2492 -1.000000000000000e+00
4231 2603 -9.155227300614441e-03
4231 4231 3.032493559988016e+00
4232 3799 -1.010766057771685e+00
4232 4050 -1.024138133743059e+00
4232 4232 2.034904191514744e+00
4233 23 -1.000000000000000e+00
4233 222 -1.000000000000000e+00
4233 1182 -5.859925342359579e-03
4233 2219 -1.826166813973262e-02
4233 2463 -1.889555302338271e-02
4233 2936 -3.164734325244638e-02
4233 4064 -1.212735863782815e-02
4233 4163 -1.476131930125704e-02
4233 4233 3.121867367167184e+00
4234 1 -1.000000000000000e+00
4234 1264 -1.000000000000000e+00
4234 1689 -3.118749067356580e-02
4234 2609 -2.511377713939284e-02
4234 4234 2.056301267812959e+00
4235 2154 -1.009850500411474e+00
4235 2408 -1.492332425001591e-02
4235 2461 -1.000000000000000e+00
4235 4235 2.024773824661490e+00
4236 11 -1.000000000000000e+00
4236 798 -1.000000000000000e+00
4236 904 -2.832471547651443e-02
4236 4236 2.052675725582419e+00
4237 2359 -1.007497789561096e+00
4237 2869 -1.000000000000000e+00
4237 3618 -1.187612775660980e-02
4237 4237 2.019373917317706e+00
4238 182 -1.000000000000000e+00
4238 796 -9.687896857735065e-03
4238 2369 -1.486235695202650e-02
4238 2407 -1.017786770370226e-02
4238 4032 -1.000000000000000e+00
4238 4207 -2.034044182080411e-02
4238 4238 2.055068563334268e+00
4239 204 -1.000000000000000e+00
4239 1273 -1.055069524752181e-02
4239 2007 -1.000000000000000e+00
4239 3638 -6.711757743620688e-04
4239 4239 2.011221871021884e+00
4240 722 -1.458582238955867e-02
4240 980 -1.017776310235808e+00
4240 1234 -2.902981150650063e-03
4240 2273 -1.000000000000000e+00
4240 2278 -4.199677794949264e-03
4240 2594 -2.054947586576816e-02
4240 2907 -9.571217945929682e-03
4240 3448 -7.579770123423561e-03
4240 4240 2.113072739151315e+00
4241 18 -1.000000000000000e+00
4241 549 -1.000000000000000e+00
4241 1676 -1.751424926393578e-02
4241 2878 -2.398052228037326e-02
4241 4097 -1.343218188062114e-02
4241 4241 2.054926953424930e+00
4242 154 -1.000000000000000e+00
4242 2413 -1.600978261545528e-02
4242 2966 -1.000000000000000e+00
4242 4242 2.024934463573278e+00
4243 23 -1.014794529969019e+00
4243 520 -6.631475002932040e-03
4243 2115 -1.000000000000000e+00
4243 3411 -1.481402747235098e-02
4243 4243 3.036240032444302e+00
4244 126 -1.000000000000000e+00
4244 982 -1.000000000000000e+00
4244 3898 -1.519217226261832e-02
4244 3902 -1.000000000000000e+00
4244 4244 3.040476306795021e+00
4245 295 -1.514705658180081e-02
4245 1162 -1.000000000000000e+00
4245 1822 -1.317306744581823e-02
4245 4201 -1.000000000000000e+00
4245 4245 2.050672120935340e+00
4246 129 -1.026797273637345e+00
4246 146 -1.000000000000000e+00
4246 2714 -9.841261202331633e-03
4246 3366 -1.963379056364241e-02
4246 4246 2.056272325403319e+00
4247 148 -1.000000000000000e+00
4247 826 -1.000000000000000e+00
4247 1167 -2.531025401699198e-02
4247 3418 -4.665338294862429e-03
4247 4247 3.056556167131798e+00
4248 645 -1.000000000000000e+00
4248 1550 -3.138162550825406e-03
4248 2621 -1.000000000000000e+00
4248 3633 -1.006352172106405e+00
4248 4248 4.021019098005954e+00
4249 1112 -1.000000000000000e+00
4249 1566 -1.513409586180008e-02
4249 2539 -1.144588512553212e-02
4249 3779 -1.000000000000000e+00
4249 4249 2.026579980987332e+00
4250 1340 -1.000000000000000e+00
4250 2930 -1.000000000000000e+00
4250 2933 -1.615214078151951e-02
4250 4250 3.044053387841790e+00
4251 108 -1.000000000000000e+00
4251 141 -1.000000000000000e+00
4251 2236 -1.000000000000000e+00
4251 4251 3.000000000000000e+00
4252 2961 -1.000000000000000e+00
4252 3439 -1.020980607197159e+00
4252 4252 2.032644061932364e+00
4253 2 -1.000000000000000e+00
4253 614 -1.000000000000000e+00
4253 1614 -1.432208170705302e-02
4253 4253 3.031629079966555e+00
4254 325 -1.013840537217267e+00
4254 651 -5.078926328243808e-03
4254 1009 -9.490890101287125e-03
4254 1083 -7.462605994730875e-03
4254 2377 -1.000000000000000e+00
4254 3915 -1.679694000118039e-02
4254 3933 -2.858314801556652e-03
4254 4008 -2.778574414226397e-02
4254 4254 2.098376872878569e+00
4255 171 -1.000000000000000e+00
4255 472 -1.002116863470863e+00
4255 3330 -7.628719621228942e-04
4255 3901 -1.930956756345314e-02
4255 4212 -1.000000000000000e+00
4255 4255 3.040890584179885e+00
4256 627 -1.000000000000000e+00
4256 1590 -1.000000000000000e+00
4256 2331 -1.698775283961804e-02
4256 4256 2.032899109972496e+00
4257 108 -1.000000000000000e+00
4257 116 -1.000000000000000e+00
4257 2678 -7.205692806819614e-03
4257 3410 -1.001030312641059e+00
4257 4257 3.015412430599469e+00
4258 235 -4.257303686389840e-03
4258 2250 -6.442262779750166e-03
4258 2262 -1.010617138324503e+00
4258 2593 -3.351810399512566e-03
4258 2645 -1.007288029839035e+00
4258 4258 2.031956545029190e+00
4259 670 -3.672372758985806e-03
4259 1565 -1.000000000000000e+00
4259 2226 -1.000000000000000e+00
4259 2240 -2.138117300382373e-02
4259 4259 2.025053545762809e+00
4260 249 -7.916224342257671e-03
4260 338 -1.019100897167865e+00
4260 1018 -2.426012492161055e-02
4260 2378 -3.423314351320979e-03
4260 2972 -1.000000000000000e+00
4260 4036 -5.711296906541482e-03
4260 4260 3.071525965892008e+00
4261 975 -1.000000000000000e+00
4261 2883 -1.000000000000000e+00
4261 3898 -2.364890127030458e-02
4261 4261 2.053230653306412e+00
4262 108 -1.000000000000000e+00
4262 202 -9.864100472657795e-03
4262 354 -1.000000000000000e+00
4262 1124 -1.000000000000000e+00
4262 4262 4.034988451938310e+00
4263 1414 -1.016937485999901e+00
4263 4247 -1.026580574819943e+00
4263 4263 2.043518060819844e+00
4264 2040 -1.103344414571666e-02
4264 3058 -1.000000000000000e+00
4264 3426 -1.000000000000000e+00
4264 4037 -2.393352361066817e-02
4264 4264 2.034966967756385e+00
4265 1561 -1.000000000000000e+00
4265 2790 -1.000000000000000e+00
4265 4265 2.000000000000000e+00
4266 241 -1.000000000000000e+00
4266 482 -4.992397985259771e-03
4266 1338 -1.000000000000000e+00
4266 4266 3.037133979099012e+00
4267 22 -1.000000000000000e+00
4267 610 -2.144465853286491e-02
4267 1137 -6.653100121311028e-03
4267 1336 -1.699478829963548e-02
4267 1787 -1.000000000000000e+00
4267 1856 -2.044816854331300e-02
4267 1901 -2.509816116184513e-02
4267 2418 -8.934053226521903e-03
4267 2529 -2.219443161048105e-02
4267 2541 -2.474417966447821e-02
4267 3043 -2.127212636261265e-02
4267 3126 -3.153671527818887e-02
4267 3239 -2.153673941242443e-02
4267 4090 -1.229029990725837e-02
4267 4213 -1.789633828938144e-02
4267 4267 2.308404654112776e+00
4268 27 -1.000000000000000e+00
4268 1246 -2.845664406943488e-02
4268 1355 -2.883377674400121e-02
4268 1879 -2.421113098793095e-02
4268 2207 -2.071666626173562e-02
4268 2418 -2.531371914215359e-02
4268 3785 -2.650214862570408e-02
4268 4126 -1.027106370792375e+00
4268 4268 2.213795033973325e+00
4269 778 -2.461433710522322e-03
4269 936 -1.016968510670105e+00
4269 1546 -1.000000000000000e+00
4269 1670 -1.983108518753343e-02
4269 4269 2.039261029568161e+00
4270 152 -1.000000000000000e+00
4270 1084 -1.362935348798906e-03
4270 2072 -1.277846433524041e-02
4270 3421 -1.000000000000000e+00
4270 4270 2.014141399684039e+00
4271 628 -1.003268213770264e+00
4271 957 -1.000000000000000e+00
4271 3271 -2.205511196812343e-02
4271 4271 2.025323325738388e+00
4272 33 -1.571886321727241e-02
4272 127 -1.000000000000000e+00
4272 154 -1.000000000000000e+00
4272 596 -5.391547733296305e-03
4272 1118 -1.521289454133777e-03
4272 1504 -6.252952426544536e-03
4272 2314 -1.595137337313420e-02
4272 2653 -1.015626621784386e+00
4272 4070 -1.126531427855380e-03
4272 4272 3.061589179416623e+00
4273 106 -1.000000000000000e+00
4273 1184 -4.446693212856267e-03
4273 2855 -1.000000000000000e+00
4273 3924 -1.848483664350450e-02
4273 4273 3.022931529856361e+00
4274 1 -1.000000000000000e+00
4274 95 -1.000000000000000e+00
4274 1307 -2.055972841271149e-02
4274 4274 2.033267501870130e+00
4275 79 -2.949339285772329e-02
4275 273 -1.000000000000000e+00
4275 1141 -1.000000000000000e+00
4275 1620 -2.389532982905777e-02
4275 3447 -1.000000000000000e+00
4275 4275 3.073706102010325e+00
4276 182 -1.000000000000000e+00
4276 587 -1.611659492595512e-02
4276 849 -1.000000000000000e+00
4276 1413 -1.000000000000000e+00
4276 1762 -2.136463378545667e-03
4276 4276 3.018253058304501e+00
4277 238 -1.000000000000000e+00
4277 2498 -1.000000000000000e+00
4277 4277 2.029627512851772e+00
4278 974 -1.003131712733692e+00
4278 1824 -1.000000000000000e+00
4278 2611 -4.126369231934125e-03
4278 2963 -1.781734160993204e-02
4278 4278 3.041470317661338e+00
4279 82 -1.000000000000000e+00
4279 83 -1.000000000000000e+00
4279 402 -3.754972423959604e-03
4279 1403 -1.502554464035763e-02
4279 4279 2.018780517064317e+00
4280 1657 -1.000000000000000e+00
4280 1865 -1.299526645297445e-02
4280 2206 -1.000000000000000e+00
4280 2771 -1.202531952235263e-02
4280 4280 2.044882237430626e+00
4281 1029 -1.000000000000000e+00
4281 1048 -2.543271086590380e-02
4281 1699 -1.000000000000000e+00
4281 3827 -2.122658041350057e-02
4281 4281 2.046659291279404e+00
4282 646 -1.006463851518066e+00
4282 1069 -1.002352300101588e+00
4282 1106 -5.389572139810300e-03
4282 3132 -1.402821887219028e-02
4282 4282 2.037629621443288e+00
4283 388 -1.000000000000000e+00
4283 1840 -1.000000000000000e+00
4283 3722 -4.702279885856783e-04
4283 3806 -2.208734402630897e-02
4283 4122 -1.000000000000000e+00
4283 4283 3.022557572014895e+00
4284 2 -1.000000000000000e+00
4284 594 -1.303986695710104e-02
4284 639 -1.000000000000000e+00
4284 3591 -2.060904429053626e-02
4284 3606 -2.059094904175539e-02
4284 3969 -1.710446180247849e-02
4284 4284 3.088152632491328e+00
4285 1857 -1.000000000000000e+00
4285 3535 -1.000000000000000e+00
4285 4285 3.001805246580848e+00
4286 151 -1.000000000000000e+00
4286 877 -1.271034078353376e-02
4286 1351 -7.623946884377175e-03
4286 1611 -1.000000000000000e+00
4286 1821 -2.169529538195993e-03
4286 3273 -1.000000000000000e+00
4286 3435 -2.750947959066492e-03
4286 4286 3.025254765165173e+00
4287 271 -1.000000000000000e+00
4287 682 -1.000000000000000e+00
4287 2418 -5.411708874549313e-03
4287 3318 -2.083562550251761e-02
4287 4287 2.026247334377067e+00
4288 135 -1.000000000000000e+00
4288 488 -1.004882323883147e+00
4288 1214 -1.000000000000000e+00
4288 3640 -1.450968897249779e-02
4288 4288 3.019392012855645e+00
4289 377 -1.000000000000000e+00
4289 977 -4.345526198256827e-03
4289 2778 -1.534524678190799e-02
4289 3845 -1.000000000000000e+00
4289 4289 2.019690772980165e+00
4290 209 -2.596954193670753e-03
4290 357 -1.000000000000000e+00
4290 1430 -1.162354269870518e-02
4290 2075 -1.000000000000000e+00
4290 4290 2.014220496892376e+00
4291 89 -7.623073315324699e-04
4291 545 -1.000000000000000e+00
4291 1299 -1.233527153996445e-03
4291 1817 -1.000000000000000e+00
4291 4291 2.001995834485529e+00
4292 1 -1.000000000000000e+00
4292 793 -1.000000000000000e+00
4292 2768 -2.077218406935306e-02
4292 3355 -2.709574987469720e-02
4292 4292 2.047867933944050e+00
4293 1 -1.000000000000000e+00
4293 1685 -1.022958693423690e+00
4293 2713 -1.926267879473174e-02
4293 4293 2.042221372218421e+00
4294 403 -1.490271717210210e-02
4294 1516 -1.000000000000000e+00
4294 1619 -2.717959930843489e-02
4294 1641 -1.000000000000000e+00
4294 4294 2.042082316480537e+00
4295 242 -1.000000000000000e+00
4295 2163 -5.749883322275328e-03
4295 2882 -1.002370937737014e+00
4295 4295 2.008120821059289e+00
4296 144 -1.698020993821636e-02
4296 746 -1.010208188909290e+00
4296 786 -8.923178257083287e-03
4296 968 -1.000000000000000e+00
4296 1277 -1.223648855153609e-02
4296 2986 -8.437698589035127e-03
4296 4296 2.088210091023084e+00
4297 21 -1.000000000000000e+00
4297 615 -1.000000000000000e+00
4297 3087 -5.868992926988778e-03
4297 3629 -2.867269427152745e-03
4297 3851 -1.870582200352912e-02
4297 3992 -8.399216440729468e-03
4297 4297 2.039565089405706e+00
4298 66 -1.000000000000000e+00
4298 245 -1.000000000000000e+00
4298 772 -2.083621235688058e-02
4298 3138 -2.026557263493407e-02
4298 4298 3.067767080800791e+00
4299 240 -1.000000000000000e+00
4299 364 -1.010247746583200e+00
4299 1017 -2.083785033841352e-02
4299 3442 -1.721869226587298e-02
4299 4299 2.048304289187486e+00
4300 562 -1.000000000000000e+00
4300 625 -1.000000000000000e+00
4300 3630 -1.830642357345391e-02
4300 3639 -1.682548525212869e-02
4300 4300 2.035131908825583e+00
4301 117 -1.000000000000000e+00
4301 532 -3.143794773963898e-02
4301 814 -1.000000000000000e+00
4301 2933 -3.602022004678346e-02
4301 4261 -2.958175203610714e-02
4301 4301 2.121143670295106e+00
4302 226 -1.000000000000000e+00
4302 912 -3.719253293067291e-03
4302 1454 -3.904682009555119e-03
4302 1509 -9.107216468976005e-03
4302 1780 -1.000000000000000e+00
4302 3914 -6.113288904520261e-03
4302 4302 2.047122046580669e+00
4303 289 -1.002388546965827e+00
4303 1808 -1.123016163543824e-02
4303 2311 -1.000000000000000e+00
4303 3908 -2.852706058857111e-02
4303 4303 2.042145769189836e+00
4304 7 -1.000000000000000e+00
4304 26 -1.000000000000000e+00
4304 716 -1.578792495099312e-02
4304 1365 -1.883624972385548e-02
4304 1444 -1.225657548655915e-02
4304 1597 -1.252676050947389e-02
4304 3642 -1.301419298797425e-02
4304 4304 2.072421703658856e+00
4305 68 -1.000000000000000e+00
4305 551 -1.000000000000000e+00
4305 1443 -1.000000000000000e+00
4305 2617 -2.279154741349043e-02
4305 3387 -1.961557950561200e-02
4305 4305 4.042407126919103e+00
4306 28 -3.935975769446684e-03
4306 835 -1.000000000000000e+00
4306 984 -1.136189126995189e-02
4306 1876 -1.019459465046633e-02
4306 2311 -1.743748998408360e-02
4306 2448 -3.999596403209392e-03
4306 3244 -9.783665571980559e-03
4306 3891 -1.000000000000000e+00
4306 4006 -1.025174357310056e-02
4306 4306 2.066964957222239e+00
4307 318 -1.478363659163831e-02
4307 1519 -1.000000000000000e+00
4307 2613 -1.384334105541398e-02
4307 3604 -1.000000000000000e+00
4307 4307 3.050203098399396e+00
4308 234 -1.000000000000000e+00
4308 1100 -2.143971723530936e-02
4308 1484 -1.000000000000000e+00
4308 4308 2.033674173989390e+00
4309 2909 -1.011842440614879e+00
4309 3112 -1.018188024975508e+00
4309 4309 2.030030465590388e+00
4310 56 -1.000000000000000e+00
4310 83 -1.000000000000000e+00
4310 209 -9.549444093177742e-03
4310 4310 3.020116753452756e+00
4311 1497 -1.000000000000000e+00
4311 1769 -6.750155303550062e-03
4311 2129 -5.425954743589393e-03
4311 4215 -1.013908415531623e+00
4311 4311 2.026084525578763e+00
4312 73 -1.000000000000000e+00
4312 1117 -1.139040576329557e-02
4312 3341 -1.000000000000000e+00
4312 4312 2.014127497213279e+00
4313 1015 -1.000000000000000e+00
4313 2418 -2.851277562412681e-03
4313 2577 -1.000000000000000e+00
4313 3344 -2.726747198967898e-02
4313 4313 2.030118749552092e+00
4314 38 -1.000000000000000e+00
4314 274 -2.124481537496265e-03
4314 906 -1.000000000000000e+00
4314 3700 -9.126613734203329e-03
4314 3819 -1.000000000000000e+00
4314 4314 3.011251095271700e+00
4315 340 -1.000000000000000e+00
4315 1158 -9.174584291598715e-03
4315 2378 -1.209071910431607e-02
4315 3545 -1.171771167403998e-02
4315 4036 -6.926603215980352e-03
4315 4260 -1.000000000000000e+00
4315 4315 2.039909618285935e+00
4316 67 -1.000000000000000e+00
4316 3409 -3.438935064045714e-02
4316 4064 -1.000000000000000e+00
4316 4233 -2.031419947017736e-02
4316 4316 2.054703550110634e+00
4317 335 -1.000000000000000e+00
4317 942 -2.513756777956037e-02
4317 1253 -1.112945019968913e-02
4317 2364 -1.000000000000000e+00
4317 4317 2.049315979001756e+00
4318 175 -1.602894191846261e-02
4318 676 -1.000000000000000e+00
4318 2690 -1.000000000000000e+00
4318 2745 -7.313966080466132e-03
4318 3931 -5.808480256545888e-03
4318 4318 2.053770579838921e+00
4319 430 -1.000000000000000e+00
4319 950 -1.000000000000000e+00
4319 2175 -2.143895109307741e-02
4319 4319 3.057772046275532e+00
4320 416 -1.003587623358097e+00
4320 530 -5.990333123644889e-03
4320 931 -1.000000000000000e+00
4320 1221 -1.497131052167671e-02
4320 4320 2.054815515994508e+00
4321 2558 -1.000000000000000e+00
4321 3272 -1.000000000000000e+00
4321 4321 2.000000000000000e+00
4322 171 -1.000000000000000e+00
4322 3438 -1.003085479406204e+00
4322 3639 -1.000000000000000e+00
4322 4322 3.003085479406204e+00
4323 82 -1.000000000000000e+00
4323 1440 -1.901575930714538e-02
4323 2383 -1.000000000000000e+00
4323 4323 2.031203062802642e+00
4324 1549 -1.010756186348991e+00
4324 1772 -3.140625746783744e-03
4324 3508 -1.000000000000000e+00
4324 4324 2.013896812095775e+00
4325 83 -1.000000000000000e+00
4325 2564 -2.125280866868164e-02
4325 3359 -1.149502415569393e-02
4325 3899 -1.000000000000000e+00
4325 4112 -1.490046156984333e-02
4325 4325 2.047648294394219e+00
4326 50 -1.000000000000000e+00
4326 1471 -1.000000000000000e+00
4326 4326 3.000000000000000e+00
4327 107 -1.000000000000000e+00
4327 278 -4.120677506750218e-03
4327 645 -1.000000000000000e+00
4327 2205 -1.000000000000000e+00
4327 2274 -1.478309942069275e-02
4327 4030 -1.014468077344475e+00
4327 4327 5.042396002814904e+00
4328 1 -1.000000000000000e+00
4328 864 -1.000000000000000e+00
4328 2960 -1.937110793795808e-02
4328 3018 -1.657237396754055e-02
4328 3639 -1.000000000000000e+00
4328 4328 3.060130453537512e+00
4329 702 -2.076734546764018e-02
4329 1068 -2.211534990206228e-02
4329 2144 -2.366260033998245e-02
4329 2308 -1.397065299247234e-02
4329 3591 -1.000000000000000e+00
4329 3610 -2.024304843860400e-02
4329 4284 -1.000000000000000e+00
4329 4329 2.120967413044241e+00
4330 173 -1.000000000000000e+00
4330 979 -1.000000000000000e+00
4330 1539 -2.256122279696207e-02
4330 1921 -7.451143463363263e-03
4330 4330 3.030012366260325e+00
4331 158 -1.000000000000000e+00
4331 1046 -1.000000000000000e+00
4331 3219 -1.014000068893431e+00
4331 4331 3.033792696319027e+00
4332 253 -1.000000000000000e+00
4332 902 -1.686550542121164e-02
4332 2038 -1.838800898572563e-02
4332 3284 -1.000000000000000e+00
4332 4332 2.035253514406937e+00
4333 83 -1.000000000000000e+00
4333 661 -1.000000000000000e+00
4333 817 -2.918961753157571e-02
4333 1130 -1.250959763142923e-02
4333 3001 -1.306644187174093e-02
4333 3084 -9.888662034799840e-03
4333 4052 -1.664671469926073e-02
4333 4333 2.101456001121583e+00
4334 1633 -1.005882278413222e+00
4334 2728 -1.447393211940722e-02
4334 2982 -1.000000000000000e+00
4334 4334 2.020356210532629e+00
4335 570 -1.461682303360754e-02
4335 1395 -1.000000000000000e+00
4335 1643 -1.000000000000000e+00
4335 1667 -1.629133752988835e-02
4335 4158 -4.193813391004384e-03
4335 4335 2.035101973954500e+00
4336 1008 -1.000000000000000e+00
4336 2297 -5.580976861919180e-03
4336 3314 -1.003168019685849e+00
4336 4336 2.008748996547769e+00
4337 883 -1.000000000000000e+00
4337 1331 -1.000000000000000e+00
4337 1910 -1.000000000000000e+00
4337 2162 -2.124503806346762e-02
4337 2437 -2.054357391530759e-02
4337 4337 4.041788611978776e+00
4338 2284 -1.000000000000000e+00
4338 3330 -1.470483595362522e-04
4338 4091 -1.000000000000000e+00
4338 4255 -4.031996509208527e-03
4338 4338 2.004179044868745e+00
4339 102 -3.355190792464196e-03
4339 556 -1.961517442945278e-02
4339 1302 -2.652643242815019e-03
4339 2095 -6.738868282120886e-03
4339 2135 -1.000000000000000e+00
4339 3191 -4.506451230219631e-03
4339 3281 -1.001163720053467e+00
4339 4339 2.038032048030540e+00
4340 1628 -1.000000000000000e+00
4340 3900 -1.012636952635680e+00
4340 4340 2.012636952635680e+00
4341 46 -1.000000000000000e+00
4341 1209 -1.495808498023128e-02
4341 3125 -1.000000000000000e+00
4341 3337 -2.268917161438729e-02
4341 4341 4.037647256594618e+00
4342 2287 -1.010367245666988e+00
4342 4192 -1.000000000000000e+00
4342 4342 2.019443695938256e+00
4343 28 -1.000000000000000e+00
4343 400 -1.009898468843480e+00
4343 417 -9.787882491369079e-03
4343 2344 -2.071868676688744e-03
4343 3091 -1.553287541741606e-03
4343 4109 -2.488818447456397e-03
4343 4343 2.025800326000736e+00
4344 128 -2.469457940253248e-02
4344 674 -1.000000000000000e+00
4344 980 -1.874748099710558e-02
4344 1003 -1.000000000000000e+00
4344 4344 2.043442060399638e+00
4345 921 -2.079676116458161e-02
4345 2056 -1.000000000000000e+00
4345 4011 -1.000000000000000e+00
4345 4345 2.028666148669555e+00
4346 1145 -1.000000000000000e+00
4346 1206 -5.151205040090250e-03
4346 1893 -1.000000000000000e+00
4346 2516 -3.216608842558461e-03
4346 2881 -2.749291480144083e-03
4346 4076 -1.007820560221346e+00
4346 4346 3.032350697723638e+00
4347 30 -1.000000000000000e+00
4347 334 -1.570570208191113e-02
4347 1005 -4.800763709023166e-03
4347 1105 -1.000000000000000e+00
4347 2619 -1.641487202703242e-03
4347 2975 -8.162158640649821e-03
4347 3548 -1.209683193945214e-02
4347 3565 -9.645247062530836e-03
4347 3676 -7.453455770376920e-03
4347 4347 3.074568309285735e+00
4348 435 -1.000000000000000e+00
4348 818 -1.000000000000000e+00
4348 4348 2.000000000000000e+00
4349 454 -3.545621533409408e-02
4349 561 -1.000000000000000e+00
4349 4083 -1.000000000000000e+00
4349 4191 -2.295980578351110e-02
4349 4349 2.058416021117605e+00
4350 26 -1.000000000000000e+00
4350 1163 -1.000000000000000e+00
4350 1472 -1.421034961149353e-02
4350 1616 -1.505878656361239e-02
4350 3396 -1.666651775043178e-02
4350 4350 2.045935653925538e+00
4351 1581 -1.000000000000000e+00
4351 2149 -2.150253798721014e-02
4351 3137 -1.000000000000000e+00
4351 3602 -2.622618802116595e-02
4351 4351 2.047728726008376e+00
4352 26 -1.000000000000000e+00
4352 437 -1.000000000000000e+00
4352 529 -1.000000000000000e+00
4352 2592 -9.991333634898006e-03
4352 2657 -6.488599905276530e-03
4352 4352 3.029081486014423e+00
4353 1 -1.000000000000000e+00
4353 629 -1.000000000000000e+00
4353 3548 -1.323672870608671e-02
4353 4353 2.040207398648807e+00
4354 73 -1.000000000000000e+00
4354 108 -1.000000000000000e+00
4354 4354 2.033898366187739e+00
4355 594 -1.007956785262282e+00
4355 2144 -1.662920661091339e-02
4355 3820 -1.000000000000000e+00
4355 4355 2.024585991873196e+00
4356 2407 -1.000000000000000e+00
4356 2418 -1.466620171650245e-02
4356 3105 -1.826081708702143e-02
4356 4081 -1.000000000000000e+00
4356 4356 2.032927018803524e+00
4357 191 -1.010794918804433e+00
4357 1792 -1.705020984242122e-02
4357 2482 -1.000000000000000e+00
4357 2986 -1.840060707799010e-02
4357 3208 -1.357743245540917e-02
4357 4357 2.059823168180253e+00
4358 2146 -1.000000000000000e+00
4358 2817 -1.000000000000000e+00
4358 3639 -2.368745653985844e-02
4358 4358 2.056007446967235e+00
4359 147 -1.000000000000000e+00
4359 241 -1.952984839243742e-02
4359 261 -1.000000000000000e+00
4359 713 -1.999950813975817e-02
4359 4359 3.039529356532196e+00
4360 978 -1.000000000000000e+00
4360 3528 -1.000000000000000e+00
4360 3843 -1.000000000000000e+00
4360 4360 3.000000000000000e+00
4361 1184 -1.000000000000000e+00
4361 3145 -1.000682600622412e+00
4361 4361 2.000682600622412e+00
4362 1063 -1.636453685052025e-03
4362 2579 -1.000000000000000e+00
4362 3085 -1.011478908660566e+00
4362 4362 2.013115362345617e+00
4363 416 -1.014048153838681e+00
4363 530 -2.975294514029732e-03
4363 3768 -1.000000000000000e+00
4363 4363 2.017023448352711e+00
4364 1 -1.000000000000000e+00
4364 297 -1.000000000000000e+00
4364 862 -1.911571704269696e-02
4364 1380 -3.112012017261050e-02
4364 1441 -2.013922989998033e-02
4364 3377 -1.781633080356775e-02
4364 3404 -2.450790935068565e-02
4364 3530 -3.138793850913280e-02
4364 3687 -2.096919021110595e-02
4364 3721 -2.060499807946124e-02
4364 4364 3.244544139597628e+00
4365 1451 -1.000000000000000e+00
4365 2485 -1.000000000000000e+00
4365 4365 3.002143944094025e+00
4366 311 -1.000000000000000e+00
4366 652 -1.213511610932724e-02
4366 1347 -1.000000000000000e+00
4366 3753 -7.719970581318576e-03
4366 4148 -1.078703745415883e-02
4366 4366 2.030642124144804e+00
4367 1104 -1.000000000000000e+00
4367 1781 -1.194960524411079e-02
4367 3154 -1.002494230426034e+00
4367 4367 2.014443835670144e+00
4368 1093 -1.000000000000000e+00
4368 2562 -1.004511663142422e+00
4368 3494 -1.541861051293677e-02
4368 3669 -1.406212266417901e-03
4368 3686 -1.001089970096796e+00
4368 4368 4.022426456018572e+00
4369 98 -1.000000000000000e+00
4369 1275 -1.540560131793454e-02
4369 1543 -1.000000000000000e+00
4369 4160 -3.191756467000991e-02
4369 4369 2.065718525992298e+00
4370 3629 -1.364847543696979e-02
4370 3851 -1.000000000000000e+00
4370 4021 -1.000000000000000e+00
4370 4230 -5.189614159309001e-03
4370 4370 2.018838089596279e+00
4371 1103 -1.000000000000000e+00
4371 3330 -3.735205398135914e-03
4371 3901 -1.000000000000000e+00
4371 4091 -7.832226463535588e-03
4371 4255 -6.396117463234896e-03
4371 4371 3.017963549324906e+00
4372 48 -2.091258112342713e-02
4372 79 -2.618517139963164e-02
4372 392 -2.301855088459559e-02
4372 459 -1.000000000000000e+00
4372 2158 -3.174646420621294e-02
4372 2746 -2.354931093784284e-02
4372 3196 -1.712821857141717e-02
4372 3721 -2.973898143118229e-02
4372 3954 -1.386013494147505e-02
4372 4153 -1.000000000000000e+00
4372 4262 -2.512435146565273e-02
4372 4372 2.267844104733129e+00
4373 229 -1.000000000000000e+00
4373 934 -4.605612034092820e-03
4373 1243 -1.287069678751139e-02
4373 1332 -1.690939269036575e-02
4373 1592 -2.963475276061004e-03
4373 2160 -1.019462294530187e+00
4373 2627 -3.509745776827953e-03
4373 3227 -7.162309875939669e-03
4373 3269 -5.181349108700906e-04
4373 3422 -8.685404791010020e-03
4373 4373 3.093057274959491e+00
4374 833 -1.036186305444270e-02
4374 3097 -1.016129423900324e+00
4374 3319 -8.287170550225833e-04
4374 4055 -1.000000000000000e+00
4374 4374 2.039028282639310e+00
4375 2145 -1.000000000000000e+00
4375 2892 -1.003820217264207e+00
4375 4375 2.003820217264208e+00
4376 86 -1.000000000000000e+00
4376 557 -1.000000000000000e+00
4376 1926 -1.000000000000000e+00
4376 3466 -8.355585004113110e-03
4376 3858 -1.105775740888626e-02
4376 4376 3.019413342412999e+00
4377 95 -2.236318886745007e-02
4377 198 -1.675257027478874e-02
4377 233 -1.000000000000000e+00
4377 372 -1.000000000000000e+00
4377 820 -1.382933083396429e-02
4377 1970 -6.613206094750498e-03
4377 4377 2.059558296070954e+00
4378 128 -2.339040819417439e-02
4378 722 -1.000000000000000e+00
4378 3004 -1.000000000000000e+00
4378 4240 -2.095076037559912e-02
4378 4378 2.044341168569773e+00
4379 40 -1.000000000000000e+00
4379 2860 -1.014900302276024e+00
4379 4379 2.014900302276024e+00
4380 2798 -1.010076606644208e+00
4380 3120 -1.000000000000000e+00
4380 4380 3.010076606644208e+00
4381 36 -1.000000000000000e+00
4381 592 -1.000000000000000e+00
4381 1269 -4.402488425950798e-03
4381 4381 3.016897704555692e+00
4382 7 -1.000000000000000e+00
4382 975 -3.202664717093870e-02
4382 1241 -3.771054298705134e-02
4382 2930 -1.000000000000000e+00
4382 3630 -1.489668391988428e-02
4382 4382 2.084633874077874e+00
4383 476 -2.276661899758767e-02
4383 619 -2.442461167389692e-02
4383 788 -2.149744444562112e-02
4383 2322 -2.743338993930033e-02
4383 2340 -2.591754575009770e-02
4383 2880 -1.000000000000000e+00
4383 3377 -1.000000000000000e+00
4383 4383 2.122039610806504e+00
4384 7 -1.021538472299168e+00
4384 1444 -1.773702915634747e-02
4384 2003 -1.000000000000000e+00
4384 2997 -2.005159357476544e-02
4384 4384 3.091663072307977e+00
4385 47 -1.000000000000000e+00
4385 49 -1.000000000000000e+00
4385 132 -2.510314461389601e-02
4385 1447 -2.182052520205935e-02
4385 2635 -1.522997009717265e-02
4385 4385 2.062153639913128e+00
4386 698 -1.000000000000000e+00
4386 2559 -1.000000000000000e+00
4386 3352 -1.000000000000000e+00
4386 4044 -1.887706581811084e-02
4386 4191 -2.921131782170324e-02
4386 4386 3.048088383639814e+00
4387 539 -1.000000000000000e+00
4387 2500 -1.011694845119889e+00
4387 4387 2.011694845119889e+00
4388 940 -1.000000000000000e+00
4388 1020 -2.002006492517503e-02
4388 2261 -1.606733498193803e-02
4388 2403 -1.000000000000000e+00
4388 2768 -1.000000000000000e+00
4388 4388 3.036087399907113e+00
4389 93 -1.000000000000000e+00
4389 1393 -1.000000000000000e+00
4389 2412 -4.694904320844915e-03
4389 4389 3.005221016362237e+00
4390 146 -1.000000000000000e+00
4390 868 -1.820237554652590e-02
4390 2674 -1.000000000000000e+00
4390 2738 -1.000000000000000e+00
4390 3301 -1.460209093346130e-02
4390 4390 3.032804466479987e+00
4391 114 -1.279364485029429e-02
4391 3463 -1.020809516654989e+00
4391 3778 -1.000000000000000e+00
4391 4391 2.033603161505283e+00
4392 620 -1.699145209036816e-02
4392 1717 -4.581436549355707e-03
4392 2041 -1.000000000000000e+00
4392 2437 -9.505671935672012e-03
4392 3626 -5.070644335625828e-03
4392 4219 -1.000000000000000e+00
4392 4392 3.036149204911022e+00
4393 57 -1.009291036908933e+00
4393 170 -1.115637168164592e-03
4393 1940 -1.000000000000000e+00
4393 3834 -6.313567432590163e-03
4393 3885 -3.195415571414287e-02
4393 4393 2.051479379822294e+00
4394 67 -1.000000000000000e+00
4394 75 -1.199679550469495e-02
4394 1189 -8.001937877088342e-03
4394 1293 -1.115277524751540e-02
4394 3292 -1.196300318069852e-02
4394 3850 -1.000000000000000e+00
4394 4394 2.054516783273666e+00
4395 104 -1.000000000000000e+00
4395 202 -1.672998186012351e-02
4395 963 -3.415298904473200e-02
4395 2595 -1.000000000000000e+00
4395 4395 4.050882970904856e+00
4396 150 -1.000000000000000e+00
4396 933 -1.183403072392582e-02
4396 1251 -1.000000000000000e+00
4396 1726 -1.473970444881458e-03
4396 2402 -1.109232555349269e-02
4396 2549 -9.741694485702636e-03
4396 2823 -2.611788142486130e-02
4396 4396 2.092209117037361e+00
4397 803 -1.000000000000000e+00
4397 4003 -1.007558794715460e+00
4397 4397 3.015531513200146e+00
4398 822 -1.010289285693046e+00
4398 1689 -1.000000000000000e+00
4398 4398 2.010289285693046e+00
4399 137 -1.000000000000000e+00
4399 1866 -1.000000000000000e+00
4399 2522 -1.000000000000000e+00
4399 4399 3.000000000000000e+00
4400 1123 -8.114759774892989e-03
4400 2291 -1.000000000000000e+00
4400 2784 -1.000000000000000e+00
4400 4121 -1.022493942581634e+00
4400 4400 3.030608702356527e+00
4401 5 -1.000000000000000e+00
4401 1952 -2.173951935009284e-02
4401 2456 -1.000000000000000e+00
4401 3476 -1.991083005276748e-02
4401 4401 2.041650349402860e+00
4402 316 -1.000000000000000e+00
4402 1749 -5.562990214135845e-03
4402 3271 -1.586009430660882e-02
4402 3574 -1.000000000000000e+00
4402 4402 2.021423084520745e+00
4403 561 -1.000000000000000e+00
4403 850 -2.435370645964901e-02
4403 1421 -2.260012875957102e-02
4403 1655 -1.000000000000000e+00
4403 3050 -1.766801653980977e-02
4403 3428 -1.000000000000000e+00
4403 4403 3.064621851759030e+00
4404 376 -1.009573723312865e+00
4404 655 -1.000000000000000e+00
4404 4392 -1.000000000000000e+00
4404 4404 3.025466365394640e+00
4405 305 -1.449516188085728e-02
4405 940 -1.000000000000000e+00
4405 959 -9.958356827767027e-03
4405 1756 -1.000000000000000e+00
4405 2575 -1.017588447265388e-02
4405 4405 3.034629403181278e+00
4406 1 -1.000000000000000e+00
4406 162 -1.000000000000000e+00
4406 3472 -2.409693758846594e-02
4406 4364 -2.598128445312741e-02
4406 4406 2.050078222041593e+00
4407 772 -1.000000000000000e+00
4407 773 -1.173232796865026e-02
4407 1092 -1.000000000000000e+00
4407 2438 -1.000000000000000e+00
4407 2457 -2.207747962294319e-02
4407 3074 -1.000000000000000e+00
4407 4407 4.033809807591593e+00
4408 151 -1.000000000000000e+00
4408 171 -1.005792010025334e+00
4408 1310 -1.400202942465413e-02
4408 3161 -7.592048992792946e-03
4408 4408 2.027386088442781e+00
4409 242 -1.000000000000000e+00
4409 474 -2.547056098663197e-02
4409 1663 -1.000000000000000e+00
4409 1724 -1.988610345502694e-02
4409 4409 2.045356664441659e+00
4410 276 -1.020298488431943e+00
4410 1160 -1.000000000000000e+00
4410 1278 -2.131086336882700e-02
4410 3433 -2.060066869660712e-02
4410 4410 2.062210020497377e+00
4411 629 -1.000000000000000e+00
4411 1140 -1.267154386588081e-02
4411 2521 -2.056682347856166e-02
4411 2699 -1.710845767696858e-02
4411 3852 -1.000000000000000e+00
4411 4411 2.050346825021411e+00
4412 1459 -1.000000000000000e+00
4412 1465 -1.000000000000000e+00
4412 3501 -1.000000000000000e+00
4412 4412 3.000000000000000e+00
4413 65 -1.000000000000000e+00
4413 173 -1.101973248704124e-02
4413 699 -1.360571930767763e-02
4413 979 -4.669595671617499e-03
4413 1108 -1.000000000000000e+00
4413 1921 -6.474161676425386e-03
4413 4132 -1.705110884881145e-02
4413 4413 2.072012438607321e+00
4414 302 -1.557196721866918e-03
4414 1721 -1.005754964670708e+00
4414 2475 -1.000000000000000e+00
4414 4137 -1.936482266214547e-02
4414 4414 2.028309099203413e+00
4415 584 -1.000000000000000e+00
4415 2459 -1.000000000000000e+00
4415 4415 3.000000000000000e+00
4416 1211 -1.000000000000000e+00
4416 1642 -1.153334208740992e-02
4416 2569 -1.000000000000000e+00
4416 2788 -2.368292402640935e-02
4416 4416 2.035216266113819e+00
4417 1689 -1.000000000000000e+00
4417 3298 -1.015850650351688e+00
4417 4417 2.015850650351688e+00
4418 512 -1.029857099305826e-02
4418 584 -1.000000000000000e+00
4418 1156 -1.261587379371407e-02
4418 1876 -2.131972251179069e-02
4418 4006 -2.587082852279428e-02
4418 4224 -1.000000000000000e+00
4418 4418 2.070104995821357e+00
4419 45 -1.994726379036012e-02
4419 58 -2.171563808666480e-02
4419 963 -1.991499352068320e-02
4419 1301 -1.000000000000000e+00
4419 1582 -2.005337320218345e-02
4419 2340 -1.688691786372512e-02
4419 2677 -1.859084907788828e-02
4419 3353 -2.051242428496677e-02
4419 3419 -1.636474943641868e-02
4419 3511 -1.634657354821945e-02
4419 3715 -1.000000000000000e+00
4419 4419 2.186191602965946e+00
4420 7 -1.000000000000000e+00
4420 2603 -7.252838951060441e-03
4420 4231 -1.011829718415309e+00
4420 4420 2.019082557366369e+00
4421 83 -1.000000000000000e+00
4421 1981 -1.000000000000000e+00
4421 2479 -2.037455053301285e-02
4421 3491 -1.009375233490600e+00
4421 4421 3.029749784023613e+00
4422 51 -1.000000000000000e+00
4422 410 -1.461148145589741e-02
4422 664 -1.535610485758133e-02
4422 865 -2.105461494669154e-02
4422 1747 -1.000000000000000e+00
4422 2841 -1.028290596057731e-02
4422 4422 2.071683454817502e+00
4423 514 -4.134498781540642e-03
4423 2016 -3.890841477006465e-03
4423 2197 -1.002099135198567e+00
4423 3154 -1.000000000000000e+00
4423 3822 -4.075890567834310e-03
4423 4423 2.021776320228576e+00
4424 493 -1.000000000000000e+00
4424 721 -1.293038494501707e-02
4424 1123 -1.000000000000000e+00
4424 3099 -2.430607345776887e-02
4424 4424 3.037236458402786e+00
4425 1029 -1.000000000000000e+00
4425 1646 -1.000000000000000e+00
4425 4425 2.014826052191995e+00
4426 443 -1.000000000000000e+00
4426 2605 -8.367507622304758e-03
4426 2987 -8.528950319578954e-03
4426 3699 -5.678295019060245e-03
4426 3791 -1.000000000000000e+00
4426 4426 2.030403418079319e+00
4427 708 -1.000000000000000e+00
4427 1046 -1.000000000000000e+00
4427 1994 -1.087010281714638e-02
4427 2242 -1.536684122263650e-02
4427 2575 -9.337429866756697e-03
4427 4427 2.035574373906540e+00
4428 147 -1.666298056987273e-02
4428 1235 -1.000000000000000e+00
4428 2462 -1.000000000000000e+00
4428 4088 -8.457030464493221e-03
4428 4428 2.025120011034366e+00
4429 3363 -1.000000000000000e+00
4429 3569 -1.013644284792014e+00
4429 4429 2.013644284792014e+00
4430 318 -1.000000000000000e+00
4430 416 -1.475761553242195e-03
4430 530 -1.000000000000000e+00
4430 4320 -3.026624899108953e-02
4430 4430 2.031742010544332e+00
4431 1670 -1.000000000000000e+00
4431 3381 -1.026752688944092e+00
4431 4431 2.026752688944092e+00
4432 63 -1.000000000000000e+00
4432 1475 -1.000000000000000e+00
4432 2189 -1.000000000000000e+00
4432 3632 -1.141263734267829e-02
4432 3931 -1.000000000000000e+00
4432 4031 -4.785541160013822e-03
4432 4432 4.027611533489223e+00
4433 1318 -1.011575321860350e+00
4433 2103 -1.000000000000000e+00
4433 2328 -9.814554098007792e-03
4433 4433 2.021389875958358e+00
4434 1157 -1.000000000000000e+00
4434 1469 -8.866473101771914e-03
4434 2026 -3.815920086285110e-03
4434 3327 -1.000000000000000e+00
4434 4434 3.012682393188057e+00
4435 18 -1.000000000000000e+00
4435 1514 -1.854903701175267e-02
4435 1956 -1.000000000000000e+00
4435 3001 -2.001393963470147e-02
4435 4435 2.038562976646454e+00
4436 13 -1.013849933559149e+00
4436 426 -9.799492328369172e-03
4436 854 -2.171462258118942e-02
4436 954 -8.288088694713213e-03
4436 1168 -1.190796653715192e-03
4436 1257 -1.000000000000000e+00
4436 1281 -1.362219008992514e-02
4436 1575 -5.772689837234723e-03
4436 1810 -1.719909329972423e-02
4436 2876 -1.940310771980664e-02
4436 2911 -5.381802572804319e-03
4436 4189 -6.733324985448906e-03
4436 4436 2.122955142322080e+00
4437 229 -1.000000000000000e+00
4437 2014 -1.000000000000000e+00
4437 4437 3.026082002034554e+00
4438 2546 -1.000103967062473e+00
4438 3800 -1.000000000000000e+00
4438 4438 2.000103967062473e+00
4439 681 -2.936793541011249e-02
4439 1674 -1.887356600128537e-02
4439 2238 -1.000000000000000e+00
4439 3575 -1.000000000000000e+00
4439 4439 2.048241501411398e+00
4440 104 -4.067000825772191e-03
4440 174 -1.000000000000000e+00
4440 1530 -1.860121076198434e-02
4440 2376 -1.340796034763384e-02
4440 2564 -1.000000000000000e+00
4440 3359 -6.044186999606212e-04
4440 4112 -1.299583829664035e-02
4440 4440 2.049676428931992e+00
4441 133 -1.000000000000000e+00
4441 1657 -1.000000000000000e+00
4441 3206 -2.088381788212946e-03
4441 4280 -4.468229780801851e-03
4441 4441 3.006556611569015e+00
4442 503 -5.581378091600349e-03
4442 521 -1.000000000000000e+00
4442 1120 -1.000000000000000e+00
4442 2538 -1.022816737940508e+00
4442 4442 3.028398116032109e+00
4443 241 -1.000000000000000e+00
4443 2119 -1.000000000000000e+00
4443 3019 -1.084622458844329e-02
4443 4443 2.033317103057362e+00
4444 1444 -1.000000000000000e+00
4444 2278 -1.000000000000000e+00
4444 2964 -1.437117450672319e-02
4444 4240 -1.495672326962758e-02
4444 4444 2.029327897776351e+00
4445 189 -1.000000000000000e+00
4445 348 -1.000000000000000e+00
4445 1090 -1.967258551385722e-02
4445 3254 -4.337144778084575e-03
4445 4445 2.024009730291942e+00
4446 46 -1.000000000000000e+00
4446 83 -1.000000000000000e+00
4446 817 -1.758765160401961e-02
4446 1531 -4.835799234952825e-03
4446 4446 2.022423450838972e+00
4447 690 -1.000000000000000e+00
4447 2481 -1.230243426581111e-02
4447 2574 -1.000000000000000e+00
4447 4447 2.014585544294893e+00
4448 260 -2.420950324193127e-02
4448 388 -1.000000000000000e+00
4448 523 -1.000000000000000e+00
4448 2623 -4.141592798589003e-03
4448 4448 2.028351096040520e+00
4449 423 -1.000000000000000e+00
4449 1350 -1.000000000000000e+00
4449 3733 -2.061145643603710e-02
4449 3854 -3.310874947325610e-02
4449 4449 2.053720205909293e+00
4450 742 -1.000000000000000e+00
4450 988 -1.006745022977155e+00
4450 1368 -1.000000000000000e+00
4450 2017 -1.038297527868660e-02
4450 4450 3.020792440598391e+00
4451 7 -1.000000000000000e+00
4451 1936 -1.000000000000000e+00
4451 4451 3.000000000000000e+00
4452 121 -1.000000000000000e+00
4452 737 -2.156375893368796e-02
4452 919 -1.015826811151610e+00
4452 4452 2.037390570085298e+00
4453 62 -1.000000000000000e+00
4453 2611 -1.000000000000000e+00
4453 4278 -1.006808102193394e+00
4453 4453 3.014450578774258e+00
4454 2065 -1.000000000000000e+00
4454 2740 -1.458165947350189e-02
4454 2748 -2.351376091285621e-02
4454 3387 -1.400683058485319e-02
4454 3444 -8.679021277084038e-03
4454 3973 -7.821835656215963e-03
4454 4305 -1.000000000000000e+00
4454 4454 2.068603107904512e+00
4455 120 -1.000000000000000e+00
4455 993 -2.747372695567679e-02
4455 1182 -1.767081226931091e-02
4455 4069 -1.000000000000000e+00
4455 4455 2.045144539224988e+00
4456 1004 -1.007605335714201e+00
4456 1950 -1.000000000000000e+00
4456 1953 -9.142648991784958e-03
4456 4456 2.016747984705987e+00
4457 15 -1.000000000000000e+00
4457 1715 -1.440135085137118e-02
4457 1815 -1.000000000000000e+00
4457 2700 -1.000000000000000e+00
4457 4457 3.021906670229975e+00
4458 1316 -1.000000000000000e+00
4458 1474 -1.000000000000000e+00
4458 1935 -1.000000000000000e+00
4458 2191 -2.268604225935467e-02
4458 2267 -1.806897141604799e-02
4458 4458 3.040755013675402e+00
4459 2 -1.000000000000000e+00
4459 187 -3.878287929891767e-03
4459 433 -5.799543600055970e-03
4459 1788 -1.013813971238394e+00
4459 4459 2.028773546830664e+00
4460 340 -1.000000000000000e+00
4460 1184 -1.017992140248425e+00
4460 2855 -1.116562032472661e-02
4460 3231 -1.003883571099536e+00
4460 4460 3.033041331672687e+00
4461 657 -2.022013331816490e-02
4461 1437 -1.009234179964611e+00
4461 1756 -1.000000000000000e+00
4461 3560 -1.448826012127429e-02
4461 4461 2.043942573404050e+00
4462 1 -1.000000000000000e+00
4462 126 -1.000000000000000e+00
4462 4462 3.010858838857107e+00
4463 320 -1.000000000000000e+00
4463 684 -1.000000000000000e+00
4463 1328 -8.955658784013830e-03
4463 2511 -2.634309002519322e-02
4463 4463 2.035298748809207e+00
4464 100 -1.000000000000000e+00
4464 773 -1.586943201586299e-02
4464 1092 -1.250651613756701e-02
4464 1427 -1.000000000000000e+00
4464 3138 -1.675264126718061e-02
4464 4464 2.045128589420611e+00
4465 229 -1.000000000000000e+00
4465 2522 -1.428024569990582e-02
4465 3072 -1.005254054519041e+00
4465 3749 -1.953435333699317e-02
4465 4465 2.039068653555940e+00
4466 117 -2.420045125820473e-02
4466 455 -1.000000000000000e+00
4466 2595 -1.000000000000000e+00
4466 3630 -1.550478879492672e-02
4466 4466 2.039705240053131e+00
4467 41 -1.000000000000000e+00
4467 1353 -1.000000000000000e+00
4467 2271 -1.364731645435982e-02
4467 3474 -1.000000000000000e+00
4467 4115 -7.210877052763268e-03
4467 4467 3.020858193507123e+00
4468 14 -1.000000000000000e+00
4468 313 -1.000000000000000e+00
4468 1428 -3.111101147947247e-03
4468 2396 -1.084436970278717e-03
4468 4468 2.004195538118226e+00
4469 393 -1.000000000000000e+00
4469 1318 -2.629348798737959e-02
4469 2328 -5.398581509806232e-03
4469 2976 -1.000000000000000e+00
4469 4469 2.031692069497186e+00
4470 330 -1.000000000000000e+00
4470 819 -2.278771398741567e-03
4470 1128 -9.985774590354792e-03
4470 2057 -1.000000000000000e+00
4470 3015 -1.000000000000000e+00
4470 4470 3.012264545989096e+00
4471 175 -1.000000000000000e+00
4471 1337 -1.965215570952688e-02
4471 2527 -1.000000000000000e+00
4471 3476 -2.507837789168378e-02
4471 3634 -1.000000000000000e+00
4471 4471 3.044730533601211e+00
4472 57 -1.000000000000000e+00
4472 450 -1.007780708799445e+00
4472 2723 -1.564459800944839e-02
4472 2845 -1.986413058443252e-02
4472 3026 -8.306763234608730e-03
4472 3439 -1.535238768569323e-02
4472 3456 -1.763531147252089e-02
4472 4472 2.084583899786149e+00
4473 136 -1.016369550850037e+00
4473 281 -1.174084701174248e-02
4473 449 -2.314094559803017e-02
4473 1472 -1.000000000000000e+00
4473 4473 2.051251343459809e+00
4474 761 -1.026810666109687e-02
4474 1781 -1.000000000000000e+00
4474 2536 -1.000000000000000e+00
4474 4474 2.014291331298130e+00
4475 1002 -1.000000000000000e+00
4475 2739 -3.897715643602985e-03
4475 2835 -2.800639419658324e-03
4475 2975 -1.000000000000000e+00
4475 4475 2.006698355063261e+00
4476 276 -1.011921400749664e+00
4476 3433 -9.991948062294837e-04
4476 4384 -1.000000000000000e+00
4476 4476 2.012920595555893e+00
4477 18 -1.000000000000000e+00
4477 882 -1.000000000000000e+00
4477 2674 -1.752408148931084e-02
4477 3185 -1.518287645506502e-02
4477 3222 -1.077568402402142e-02
4477 4477 2.063669270392002e+00
4478 62 -1.000000000000000e+00
4478 519 -1.000000000000000e+00
4478 3070 -5.247597357167831e-03
4478 4478 2.008034267203701e+00
4479 1464 -1.000000000000000e+00
4479 1745 -2.233702483947700e-03
4479 2467 -1.012100950429602e+00
4479 3904 -8.435803950914186e-03
4479 4479 2.022770456864464e+00
4480 120 -1.000000000000000e+00
4480 1782 -1.000000000000000e+00
4480 1931 -1.000000000000000e+00
4480 4480 3.000000000000000e+00
4481 931 -1.016411072096349e+00
4481 933 -7.777047218536929e-03
4481 1007 -1.000000000000000e+00
4481 2584 -2.094561492373374e-02
4481 3155 -8.171769494282976e-03
4481 3200 -8.974084797429819e-03
4481 4123 -1.405681738109879e-02
4481 4396 -1.621579577685218e-02
4481 4481 2.139677246807267e+00
4482 792 -1.621110802985628e-02
4482 1315 -1.000000000000000e+00
4482 1491 -1.000000000000000e+00
4482 1690 -1.012276531107225e+00
4482 2518 -1.288244470654580e-02
4482 2615 -9.745494555602873e-03
4482 4345 -7.869387504973051e-03
4482 4482 3.066936211281246e+00
4483 130 -1.000000000000000e+00
4483 202 -1.430809510159775e-02
4483 2345 -1.000000000000000e+00
4483 4483 2.039126603397734e+00
4484 280 -1.000000000000000e+00
4484 1226 -1.394051669355608e-02
4484 2247 -1.000000000000000e+00
4484 3003 -6.088086425096562e-04
4484 4484 2.014549325336066e+00
4485 278 -1.000000000000000e+00
4485 3919 -9.474775748888966e-03
4485 4030 -1.000000000000000e+00
4485 4327 -4.452474343170700e-03
4485 4485 2.013927250092060e+00
4486 834 -1.000000000000000e+00
4486 3385 -1.014981992163168e+00
4486 4486 2.014981992163169e+00
4487 1252 -1.000000000000000e+00
4487 1633 -7.202773677458257e-03
4487 2728 -1.008992763135446e+00
4487 2982 -4.502224840526135e-03
4487 4487 2.020697761653430e+00
4488 152 -1.000000000000000e+00
4488 469 -2.675207491308128e-03
4488 1316 -1.014174910666706e+00
4488 2514 -1.385423416950855e-02
4488 3719 -1.135186568555277e-02
4488 4488 2.077324086038818e+00
4489 549 -1.043521854789300e-02
4489 1676 -1.166399222803399e-02
4489 2006 -1.834110330057918e-02
4489 2140 -1.000000000000000e+00
4489 3740 -3.277096935984863e-03
4489 4150 -1.000000000000000e+00
4489 4489 3.043717411012491e+00
4490 516 -1.713653288597231e-02
4490 546 -1.011316447534850e+00
4490 748 -1.299699637268719e-02
4490 1528 -2.240801726166262e-02
4490 2042 -1.927465763877943e-02
4490 2101 -1.574836915656222e-02
4490 2588 -1.010244901159217e+00
4490 3190 -3.927862913556278e-03
4490 4490 2.113053784923287e+00
4491 1039 -1.000000000000000e+00
4491 3450 -1.000000000000000e+00
4491 4489 -1.000000000000000e+00
4491 4491 3.000000000000000e+00
4492 164 -1.000000000000000e+00
4492 1388 -1.054505425328226e-04
4492 2377 -1.000000000000000e+00
4492 2679 -1.000000000000000e+00
4492 4492 3.014734249271393e+00
4493 86 -1.022932101018055e+00
4493 429 -1.000000000000000e+00
4493 1926 -1.939982726047603e-02
4493 4493 2.042331928278531e+00
4494 193 -1.000000000000000e+00
4494 951 -1.000000000000000e+00
4494 1675 -2.264081643043370e-02
4494 2257 -2.843224718275320e-02
4494 3431 -2.585964667483437e-02
4494 4494 2.076932710288021e+00
4495 25 -1.000947873867482e+00
4495 73 -1.553776689839782e-02
4495 1117 -1.008206632418082e+00
4495 4354 -1.912831950996782e-02
4495 4495 2.043820592693929e+00
4496 1211 -1.000000000000000e+00
4496 2285 -1.000000000000000e+00
4496 3285 -3.357056195303841e-03
4496 3849 -9.587382584640012e-03
4496 4496 2.022758853028875e+00
4497 1 -1.000000000000000e+00
4497 316 -1.790939509648472e-02
4497 811 -1.000000000000000e+00
4497 2064 -1.445768463010156e-02
4497 4497 2.032367079726586e+00
4498 676 -1.000000000000000e+00
4498 910 -1.000000000000000e+00
4498 1710 -1.524282418501419e-02
4498 2761 -1.037539944994324e-02
4498 3632 -2.529223569746280e-02
4498 4498 2.050910459332420e+00
4499 1012 -2.268178603443025e-02
4499 1295 -1.000000000000000e+00
4499 2047 -1.000000000000000e+00
4499 3307 -2.879952317609198e-03
4499 4499 2.025561738352039e+00
4500 17 -2.259466442393425e-02
4500 120 -2.693627852981842e-02
4500 222 -1.015981615693301e+00
4500 1014 -3.002938781775803e-02
4500 1068 -1.000000000000000e+00
4500 4064 -2.463195899607567e-02
4500 4500 2.152902426987354e+00
4501 334 -1.002998501903501e+00
4501 629 -1.448862889887988e-02
4501 2619 -1.006606628852769e+00
4501 4347 -6.330124044812042e-03
4501 4353 -6.172194239839791e-03
4501 4501 2.043705430050385e+00
4502 904 -1.583031333403549e-02
4502 3424 -2.566626488018714e-03
4502 3701 -1.000000000000000e+00
4502 3921 -1.000000000000000e+00
4502 4502 2.018396939822054e+00
4503 1096 -1.000000000000000e+00
4503 2013 -1.000000000000000e+00
4503 3071 -2.086554319127089e-02
4503 3098 -6.863757473153908e-03
4503 4503 2.027729300664425e+00
4504 859 -5.895219913048990e-03
4504 1265 -1.000000000000000e+00
4504 1649 -1.840280693776884e-02
4504 2686 -1.000000000000000e+00
4504 3801 -4.475355239614606e-03
4504 4504 2.028773382090432e+00
4505 28 -1.000000000000000e+00
4505 314 -2.170193180880526e-02
4505 406 -1.000000000000000e+00
4505 731 -2.377361518610628e-02
4505 3156 -6.644387542568072e-03
4505 4505 2.052119934537480e+00
4506 632 -1.000000000000000e+00
4506 850 -1.641771442528684e-02
4506 3050 -1.706869417758692e-02
4506 3398 -1.000000000000000e+00
4506 4506 2.033486408602874e+00
4507 49 -1.000000000000000e+00
4507 2822 -1.021988149117854e+00
4507 4507 2.021988149117854e+00
4508 24 -1.987207696808842e-02
4508 242 -1.000000000000000e+00
4508 328 -1.136782157962369e-02
4508 1125 -1.739598997964180e-02
4508 1646 -1.946568412458395e-02
4508 3226 -1.000000000000000e+00
4508 4425 -6.763413663642459e-03
4508 4508 2.074864986315580e+00
4509 172 -1.000000000000000e+00
4509 899 -2.229670176675890e-02
4509 1841 -1.000000000000000e+00
4509 2841 -1.398006323463562e-02
4509 4509 3.060700014661169e+00
4510 26 -1.000000000000000e+00
4510 1156 -1.776684792983754e-02
4510 1631 -2.256656897776274e-02
4510 1876 -1.000000000000000e+00
4510 4510 2.040333416907600e+00
4511 443 -5.845694432862069e-03
4511 731 -1.000000000000000e+00
4511 2268 -9.253774692896991e-03
4511 2605 -5.142432350418540e-03
4511 2633 -1.007498479059488e+00
4511 2987 -1.554470383828962e-02
4511 3699 -8.989416558229291e-03
4511 3951 -8.668959540540333e-03
4511 4426 -7.828665118375464e-03
4511 4511 2.068772125591100e+00
4512 1 -1.000000000000000e+00
4512 127 -1.000000000000000e+00
4512 531 -3.755080200135947e-02
4512 532 -2.875303689824904e-02
4512 2147 -1.000000000000000e+00
4512 2985 -1.848292704136088e-02
4512 3007 -2.418036091135546e-02
4512 3108 -2.192335179856108e-02
4512 3630 -1.807460975040802e-02
4512 3880 -2.531589670546169e-02
4512 4275 -2.031737932354414e-02
4512 4512 3.214533048326960e+00
4513 410 -1.000000000000000e+00
4513 582 -1.000000000000000e+00
4513 2417 -1.000000000000000e+00
4513 2902 -1.221081349500337e-02
4513 2913 -1.931731201805397e-02
4513 4509 -1.024423249659775e+00
4513 4513 4.055951375172832e+00
4514 994 -1.017224238077287e-02
4514 1303 -1.000000000000000e+00
4514 3361 -7.422950215821420e-03
4514 3400 -1.204970706946549e-02
4514 3516 -1.023334011917417e+00
4514 4514 2.058074343438242e+00
4515 358 -2.566393766599714e-02
4515 452 -1.709861167584977e-02
4515 1089 -1.000000000000000e+00
4515 1225 -1.000000000000000e+00
4515 1634 -1.727059128237582e-02
4515 3243 -1.263761955112369e-02
4515 3455 -1.949329966528989e-02
4515 4515 2.092164059840636e+00
4516 245 -1.101713782710322e-02
4516 393 -1.667057481550775e-02
4516 732 -1.000000000000000e+00
4516 880 -1.000000000000000e+00
4516 1021 -1.000000000000000e+00
4516 4516 4.027687712642611e+00
4517 287 -1.000000000000000e+00
4517 1396 -1.000000000000000e+00
4517 2143 -1.215039757623556e-02
4517 3023 -1.265093268960055e-02
4517 4517 2.024801330265836e+00
4518 118 -1.020174615284315e+00
4518 1340 -1.166184160985699e-02
4518 1506 -1.620998800977888e-02
4518 4310 -1.000000000000000e+00
4518 4518 2.048046444903951e+00
4519 2514 -1.040574695012870e-02
4519 3567 -1.000000000000000e+00
4519 3719 -1.000000000000000e+00
4519 4488 -1.643217335010211e-02
4519 4519 2.033055168231138e+00
4520 9 -1.000000000000000e+00
4520 973 -1.001882035954628e+00
4520 4520 2.018632299837630e+00
4521 402 -1.000000000000000e+00
4521 1712 -1.115615563766763e-02
4521 1841 -1.000000000000000e+00
4521 2914 -1.245409696882755e-02
4521 4521 2.023610252606495e+00
4522 435 -3.029292039543700e-03
4522 1563 -1.000000000000000e+00
4522 2183 -1.022494748082620e+00
4522 2948 -3.897379866971075e-03
4522 3551 -1.402212953808559e-02
4522 4522 2.043443549527221e+00
4523 9 -1.018339060417130e+00
4523 1946 -1.732673207347292e-02
4523 2331 -1.549400031386762e-02
4523 2361 -1.000000000000000e+00
4523 4523 2.051159792804471e+00
4524 1069 -1.020815405716619e+00
4524 3132 -1.000000000000000e+00
4524 4282 -9.395678811633289e-03
4524 4524 2.030211084528252e+00
4525 1590 -1.000000000000000e+00
4525 1695 -1.012901126766557e+00
4525 2721 -7.230877265517035e-04
4525 4525 2.013624214493108e+00
4526 376 -1.970075035639325e-02
4526 378 -1.000000000000000e+00
4526 620 -1.180559498174880e-02
4526 1717 -1.271827763608969e-02
4526 1768 -1.000000000000000e+00
4526 4526 2.044224622974232e+00
4527 7 -1.000000000000000e+00
4527 31 -1.460670625270572e-02
4527 2921 -1.925114951917688e-02
4527 3078 -1.687377051660999e-02
4527 3380 -8.222733982998897e-03
4527 3429 -1.014040125527250e+00
4527 3573 -1.769913178401148e-02
4527 4527 2.121578929168141e+00
4528 1222 -1.481201184724759e-02
4528 1480 -1.000000000000000e+00
4528 1625 -1.126825609512240e-02
4528 1639 -3.274309020292823e-02
4528 3349 -1.000000000000000e+00
4528 4528 2.058823358145298e+00
4529 238 -1.000000000000000e+00
4529 1198 -1.000000000000000e+00
4529 2787 -7.460652697601987e-04
4529 3835 -8.512950954525403e-03
4529 4529 2.009259016224286e+00
4530 1976 -1.000000000000000e+00
4530 2147 -1.039382858552728e+00
4530 4530 2.058870153432828e+00
4531 1538 -1.000000000000000e+00
4531 1791 -1.000000000000000e+00
4531 4531 2.025423137450222e+00
4532 739 -2.553502701114677e-02
4532 1163 -1.000000000000000e+00
4532 1583 -1.975196035635913e-02
4532 1659 -1.000000000000000e+00
4532 2572 -1.760176832698285e-02
4532 3152 -1.532638557415100e-02
4532 4532 2.078215141268640e+00
4533 284 -1.000000000000000e+00
4533 384 -1.000000000000000e+00
4533 1231 -1.389495573287371e-02
4533 1669 -1.727750230807409e-02
4533 4533 2.031172458040948e+00
4534 87 -1.006046296714141e+00
4534 501 -1.000000000000000e+00
4534 1125 -1.772366579322346e-03
4534 4534 2.007818663293464e+00
4535 659 -1.000000000000000e+00
4535 672 -4.278814582676649e-05
4535 841 -1.000000000000000e+00
4535 1147 -1.250096561537122e-02
4535 1376 -1.019993252726040e+00
4535 3150 -4.727914308343533e-03
4535 3197 -1.083688402710651e-02
4535 4535 3.094552249447894e+00
4536 546 -1.000000000000000e+00
4536 661 -5.507037654558447e-03
4536 1053 -1.286671906742957e-02
4536 3259 -1.000000000000000e+00
4536 4536 2.018373756721988e+00
4537 1906 -1.604491777480916e-02
4537 2702 -2.643881757738813e-02
4537 3022 -2.321065612878287e-02
4537 3144 -1.000000000000000e+00
4537 3202 -1.679468586598292e-02
4537 3470 -1.000000000000000e+00
4537 4537 2.082489077346963e+00
4538 158 -1.000000000000000e+00
4538 809 -1.280894338478252e-03
4538 907 -1.009517803101264e+00
4538 2265 -5.173981523851473e-03
4538 4538 2.015972678963593e+00
4539 6 -2.614745546519669e-02
4539 35 -1.063651268530724e-02
4539 122 -1.000000000000000e+00
4539 447 -1.702555259088618e-02
4539 783 -1.000000000000000e+00
4539 1578 -2.034856086777109e-02
4539 2036 -1.943384712175582e-02
4539 2337 -7.653218314239091e-03
4539 3195 -9.935729334692767e-03
4539 3308 -1.987622001387122e-02
4539 3482 -1.028572482438346e-02
4539 4539 2.152548287965360e+00
4540 429 -1.000000000000000e+00
4540 1666 -9.475596668490951e-03
4540 2729 -1.010555459762984e+00
4540 3682 -8.278849520135766e-03
4540 4059 -5.481823941449156e-03
4540 4540 2.033791729893060e+00
4541 1712 -7.734523697155673e-03
4541 1926 -1.000000000000000e+00
4541 3860 -1.000000000000000e+00
4541 4541 3.029857204841132e+00
4542 63 -1.000000000000000e+00
4542 375 -1.014129980241955e+00
4542 4542 2.043867980845491e+00
4543 30 -8.613951591778577e-03
4543 46 -1.000000000000000e+00
4543 986 -1.376094019213860e-02
4543 2080 -1.000000000000000e+00
4543 2354 -2.280191270339126e-02
4543 2708 -2.528304616349831e-02
4543 3634 -1.080201074804976e-03
4543 4543 3.071540051725612e+00
4544 373 -2.021617949110039e-02
4544 1683 -1.000000000000000e+00
4544 2418 -1.379864617479390e-02
4544 3123 -1.000000000000000e+00
4544 3922 -1.000000000000000e+00
4544 4544 3.034014825665894e+00
4545 63 -1.286074908619262e-02
4545 288 -2.987438850674414e-02
4545 457 -5.854316578081950e-03
4545 2107 -1.000000000000000e+00
4545 2718 -1.021544061460580e+00
4545 3643 -6.588930630427403e-03
4545 3934 -1.000000000000000e+00
4545 4545 4.099713295324791e+00
4546 414 -1.000000000000000e+00
4546 1548 -6.279384422383829e-03
4546 2618 -5.812146411082074e-03
4546 3002 -1.000000000000000e+00
4546 3041 -2.185282177410351e-02
4546 4546 2.033944352607569e+00
4547 182 -1.000000000000000e+00
4547 339 -1.013637716711240e+00
4547 1292 -1.161926196311071e-03
4547 3129 -1.169140441591795e-02
4547 3324 -1.008475658741621e+00
4547 4547 3.034966706065091e+00
4548 1065 -1.000000000000000e+00
4548 1394 -1.000000000000000e+00
4548 2581 -2.396977481689438e-03
4548 4548 2.023421063717532e+00
4549 73 -1.425554130798414e-02
4549 150 -1.000000000000000e+00
4549 1117 -2.138941486476163e-02
4549 4129 -1.000000000000000e+00
4549 4549 2.035644956172746e+00
4550 1440 -2.049829673760262e-02
4550 1456 -1.298124793214477e-02
4550 2781 -1.012137450151355e+00
4550 2974 -8.889547818595812e-03
4550 3837 -1.000000000000000e+00
4550 4550 3.054506542639698e+00
4551 522 -1.000000000000000e+00
4551 1083 -1.000000000000000e+00
4551 3933 -4.657804847147937e-03
4551 4254 -5.254582179374504e-03
4551 4551 2.009912387026522e+00
4552 818 -1.011288310437046e+00
4552 2016 -1.000879006874938e+00
4552 4423 -7.575954203627669e-03
4552 4552 2.019743271515612e+00
4553 1164 -1.000000000000000e+00
4553 1258 -4.388967546033795e-02
4553 1385 -7.075466792389657e-03
4553 3549 -1.000000000000000e+00
4553 4553 2.050965142252728e+00
4554 395 -1.003518182697281e+00
4554 955 -1.000000000000000e+00
4554 3254 -1.557520771763789e-03
4554 4554 2.005075703469045e+00
4555 133 -1.000000000000000e+00
4555 240 -2.592104169710897e-02
4555 364 -1.000000000000000e+00
4555 4555 2.051765227432958e+00
4556 1050 -1.000000000000000e+00
4556 2316 -3.164329560526566e-03
4556 4092 -1.000000000000000e+00
4556 4556 2.025927495132389e+00
4557 2186 -2.960281742046649e-03
4557 2304 -1.017547130521039e+00
4557 2956 -1.000000000000000e+00
4557 4557 2.020507412263086e+00
4558 228 -1.000000000000000e+00
4558 1685 -6.185247693474128e-03
4558 2320 -1.000000000000000e+00
4558 2713 -2.851069724364897e-03
4558 2888 -1.524315832976429e-02
4558 4558 2.036272578980958e+00
4559 1698 -1.000000000000000e+00
4559 2163 -1.009791032690222e+00
4559 2882 -1.680635669400289e-02
4559 4559 2.035651981162859e+00
4560 182 -1.000000000000000e+00
4560 225 -2.353073351969135e-02
4560 745 -1.024820428792836e+00
4560 1080 -1.871692493296083e-02
4560 2406 -2.405795893515080e-02
4560 2567 -1.550407205325015e-02
4560 4560 2.106630118233889e+00
4561 672 -7.347993219318657e-03
4561 1354 -1.000000000000000e+00
4561 1376 -1.791567491404520e-03
4561 3572 -1.000000000000000e+00
4561 3727 -3.208560663757551e-03
4561 4535 -4.707915986501894e-03
4561 4561 3.019472546901675e+00
4562 1675 -2.232961686756850e-02
4562 2407 -3.922624176101147e-03
4562 2587 -1.000000000000000e+00
4562 4027 -1.000000000000000e+00
4562 4562 2.026252241043670e+00
4563 364 -1.018900902506411e+00
4563 1017 -1.017835399835224e+00
4563 1658 -9.428369500721781e-03
4563 2283 -1.010649530991843e-02
4563 2951 -1.899462000634796e-02
4563 4563 2.075265787158623e+00
4564 438 -1.000000000000000e+00
4564 872 -1.000000000000000e+00
4564 3105 -1.580854159576801e-02
4564 4267 -2.532225077481046e-02
4564 4564 3.041130792370578e+00
4565 504 -3.290777328925223e-04
4565 1220 -1.000000000000000e+00
4565 1550 -1.004765918646953e+00
4565 4180 -2.044509350341440e-02
4565 4248 -1.152876334872412e-02
4565 4565 2.037068853231984e+00
4566 5 -1.000000000000000e+00
4566 522 -1.000000000000000e+00
4566 1727 -1.328594181327094e-02
4566 4008 -6.912631147936108e-04
4566 4566 2.013977204928064e+00
4567 296 -1.000000000000000e+00
4567 1143 -1.000000000000000e+00
4567 1558 -1.000000000000000e+00
4567 2434 -1.014140854906142e+00
4567 3988 -3.561120804193092e-03
4567 4567 4.017701975710334e+00
4568 30 -1.000000000000000e+00
4568 1186 -1.677259741024651e-02
4568 1400 -1.131226369133760e-02
4568 1851 -2.075319289990626e-02
4568 1862 -1.849206843647207e-02
4568 2134 -1.000000000000000e+00
4568 3634 -1.000000000000000e+00
4568 3879 -2.694331202275154e-02
4568 4568 3.107544507625659e+00
4569 1342 -1.000000000000000e+00
4569 3829 -1.010442584201132e+00
4569 4569 2.029767342387405e+00
4570 16 -1.000000000000000e+00
4570 1478 -7.366591912219870e-03
4570 2867 -1.003071170316104e+00
4570 4570 2.010437762228324e+00
4571 170 -1.000000000000000e+00
4571 1439 -1.000000000000000e+00
4571 1829 -6.048440759137200e-03
4571 4571 2.017958691341400e+00
4572 2211 -1.399935103968873e-02
4572 2693 -1.101423090997149e-02
4572 2923 -1.004700073827884e+00
4572 3264 -5.185373105641200e-03
4572 3619 -1.000000000000000e+00
4572 4572 2.034899028883185e+00
4573 3752 -1.000000000000000e+00
4573 3977 -1.014621362529162e+00
4573 4573 2.014621362529162e+00
4574 283 -1.345285106718544e-02
4574 828 -1.014305264797989e-02
4574 924 -1.000000000000000e+00
4574 1170 -1.768383913649964e-02
4574 4041 -1.000000000000000e+00
4574 4307 -2.157612075234393e-02
4574 4574 2.062855863604009e+00
4575 1015 -1.015741636629512e+00
4575 1215 -1.000000000000000e+00
4575 4119 -7.139374623206531e-03
4575 4575 2.022881011252719e+00
4576 769 -1.000250621909278e+00
4576 2866 -1.006449212831193e+00
4576 4576 2.006699834740471e+00
4577 1160 -1.000000000000000e+00
4577 1477 -1.056145452702269e-02
4577 1671 -1.000000000000000e+00
4577 4049 -5.615101395358469e-03
4577 4577 3.016176555922381e+00
4578 99 -2.115153446569832e-02
4578 313 -2.937014115974408e-02
4578 721 -1.301644880633722e-02
4578 1381 -1.000000000000000e+00
4578 1482 -1.000000000000000e+00
4578 1679 -1.646091105350081e-02
4578 2253 -2.193129762795037e-02
4578 4100 -2.162133312277266e-02
4578 4578 2.123551666236004e+00
4579 2237 -1.000943666242142e+00
4579 4170 -1.009819887205442e+00
4579 4579 2.010763553447584e+00
4580 36 -1.000000000000000e+00
4580 1596 -1.754166650899584e-02
4580 1682 -8.234918354789990e-04
4580 1742 -1.000000000000000e+00
4580 4580 2.018365158344475e+00
4581 73 -1.000000000000000e+00
4581 562 -1.000000000000000e+00
4581 1172 -1.518377365202226e-03
4581 3341 -1.523993948480374e-02
4581 3459 -1.740238635829198e-02
4581 4312 -2.737091449983215e-03
4581 4354 -1.477004667777130e-02
4581 4581 2.051667841336053e+00
4582 171 -1.000000000000000e+00
4582 972 -1.000000000000000e+00
4582 4582 3.000000000000000e+00
4583 2019 -1.000000000000000e+00
4583 4044 -2.536495175907702e-02
4583 4083 -1.000000000000000e+00
4583 4191 -2.611976902417177e-02
4583 4583 2.051484720783249e+00
4584 189 -1.000000000000000e+00
4584 775 -1.000000000000000e+00
4584 1615 -6.213702886610870e-03
4584 1776 -1.440935872877551e-02
4584 4584 2.020623061615386e+00
4585 215 -1.000000000000000e+00
4585 612 -1.828228496653039e-02
4585 1203 -1.455082554880244e-02
4585 2331 -1.000000000000000e+00
4585 4585 2.032833110515333e+00
4586 1 -1.000000000000000e+00
4586 257 -6.097651050687865e-03
4586 429 -1.000000000000000e+00
4586 1039 -7.185916566310328e-03
4586 3392 -3.395052377497834e-03
4586 4178 -1.003950533449278e+00
4586 4586 3.020629153443774e+00
4587 41 -1.000000000000000e+00
4587 871 -1.000000000000000e+00
4587 2842 -1.021501715257028e-03
4587 4587 2.024693258191937e+00
4588 388 -1.598581975359147e-02
4588 893 -1.026963181182893e+00
4588 1262 -1.000000000000000e+00
4588 4588 2.066508732055126e+00
4589 17 -1.000000000000000e+00
4589 239 -1.000000000000000e+00
4589 991 -1.045380775959634e-02
4589 3070 -5.644483510860858e-03
4589 4589 2.016098291270457e+00
4590 605 -1.000000000000000e+00
4590 3933 -1.024877729212286e+00
4590 4254 -8.327053656936806e-03
4590 4590 2.033204782869223e+00
4591 40 -1.000000000000000e+00
4591 526 -2.314652738371081e-02
4591 673 -1.000000000000000e+00
4591 3160 -2.031347767767265e-02
4591 3722 -1.000000000000000e+00
4591 4591 3.043460005061383e+00
4592 50 -1.000000000000000e+00
4592 403 -1.227483727186208e-02
4592 2701 -1.000000000000000e+00
4592 3693 -2.468913335899593e-02
4592 4592 2.036963970630858e+00
4593 41 -1.000000000000000e+00
4593 1719 -1.374797546651989e-02
4593 2856 -2.335263557943709e-02
4593 2919 -1.892194944244585e-02
4593 3063 -5.064172046429026e-03
4593 3714 -1.000000000000000e+00
4593 3741 -2.062078700741966e-02
4593 4587 -2.367175647668016e-02
4593 4593 2.105379276018932e+00
4594 112 -1.000000000000000e+00
4594 310 -2.675795490132785e-02
4594 2664 -1.000000000000000e+00
4594 2886 -2.320366489104405e-02
4594 4084 -2.836164833797085e-02
4594 4594 2.078323268130343e+00
4595 401 -1.000000000000000e+00
4595 1734 -1.000585669726159e+00
4595 2654 -6.166001480867253e-03
4595 4595 2.006751671207026e+00
4596 468 -1.000000000000000e+00
4596 1486 -1.000000000000000e+00
4596 2320 -1.000000000000000e+00
4596 3712 -1.283710113940451e-02
4596 4558 -1.199310323335498e-02
4596 4596 3.024830204372759e+00
4597 16 -1.000000000000000e+00
4597 457 -1.000000000000000e+00
4597 4545 -2.299084906276454e-02
4597 4597 2.029391264408464e+00
4598 29 -1.000000000000000e+00
4598 2002 -1.000000000000000e+00
4598 2173 -1.325072375056991e-02
4598 3919 -1.648277847469227e-02
4598 4030 -1.000000000000000e+00
4598 4327 -4.571674199815502e-03
4598 4598 3.034305176425077e+00
4599 467 -1.003513855582324e+00
4599 710 -1.262173378264489e-02
4599 2349 -1.000000000000000e+00
4599 3642 -1.000000000000000e+00
4599 4599 3.016135589364969e+00
4600 314 -1.000000000000000e+00
4600 1404 -1.000000000000000e+00
4600 2676 -2.446746664275474e-02
4600 3628 -2.525399234494981e-02
4600 4600 2.049721458987705e+00
4601 710 -5.698414116725865e-03
4601 1969 -1.000000000000000e+00
4601 3270 -1.000296837920700e+00
4601 4601 2.005995252037426e+00
4602 132 -1.000000000000000e+00
4602 733 -1.000000000000000e+00
4602 1850 -2.168698448867623e-02
4602 2090 -1.822027773139302e-02
4602 3512 -1.151031539226170e-02
4602 3957 -1.744339121599235e-02
4602 4602 2.085662473041788e+00
4603 1337 -1.000000000000000e+00
4603 1708 -1.000000000000000e+00
4603 2629 -1.000000000000000e+00
4603 3087 -3.710770883267765e-03
4603 4297 -3.723788607306564e-03
4603 4603 3.007434559490574e+00
4604 2509 -1.000000000000000e+00
4604 3185 -1.000000000000000e+00
4604 4604 3.000000000000000e+00
4605 859 -9.531729951542244e-03
4605 1265 -1.017232256588631e+00
4605 1600 -1.813871848631918e-02
4605 1737 -1.000000000000000e+00
4605 4605 2.044902705026493e+00
4606 75 -1.134135589994655e-03
4606 208 -1.138404628080636e-02
4606 990 -1.000000000000000e+00
4606 1333 -1.692880914231919e-02
4606 2448 -1.000000000000000e+00
4606 4606 3.043442327571316e+00
4607 3544 -1.002073153249480e+00
4607 4003 -1.000000000000000e+00
4607 4024 -6.868431640715422e-03
4607 4607 2.008941584890195e+00
4608 597 -3.584726846353339e-04
4608 1078 -1.000000000000000e+00
4608 1082 -5.111626497511473e-03
4608 2062 -1.000000000000000e+00
4608 4608 2.012825942102445e+00
4609 679 -1.000000000000000e+00
4609 767 -1.000000000000000e+00
4609 3432 -2.084907533368269e-02
4609 3979 -5.598460234144791e-03
4609 4609 2.026447535567828e+00
4610 50 -1.000000000000000e+00
4610 1641 -2.544483095610175e-02
4610 1712 -1.293840839328218e-02
4610 4202 -1.000000000000000e+00
4610 4541 -2.212268114397673e-02
4610 4610 3.060505920493361e+00
4611 1448 -1.000000000000000e+00
4611 2053 -1.000000000000000e+00
4611 3354 -4.094865110916462e-03
4611 3745 -1.512164962253897e-02
4611 4013 -1.000000000000000e+00
4611 4611 3.019216514733456e+00
4612 101 -1.199293786018001e-02
4612 292 -1.000000000000000e+00
4612 3106 -1.000000000000000e+00
4612 4204 -2.577304187783956e-03
4612 4612 2.014570242047964e+00
4613 721 -1.462060107173534e-02
4613 772 -1.000000000000000e+00
4613 3905 -1.000000000000000e+00
4613 4613 2.023455582980656e+00
4614 28 -1.000000000000000e+00
4614 286 -1.694033223855254e-03
4614 306 -7.850598733917150e-03
4614 431 -9.921744620626881e-03
4614 3468 -1.000000000000000e+00
4614 4614 2.034676274184285e+00
4615 16 -1.000000000000000e+00
4615 261 -5.976196949466755e-03
4615 713 -4.902392699316712e-03
4615 842 -1.720643852680937e-02
4615 1803 -1.347460258269711e-02
4615 1880 -5.282070317017116e-03
4615 1948 -8.796738493841223e-03
4615 2350 -4.791269987997002e-03
4615 2394 -9.892246700090873e-03
4615 3019 -1.000000000000000e+00
4615 3831 -2.641862997290179e-03
4615 3997 -6.688278034875731e-03
4615 4443 -2.247087846891835e-02
4615 4474 -4.023224637033433e-03
4615 4615 4.130563517600502e+00
4616 81 -1.006772976588659e+00
4616 1529 -1.000000000000000e+00
4616 3559 -4.741570686933004e-03
4616 4616 2.011514547275592e+00
4617 741 -1.000000000000000e+00
4617 2816 -1.242580177973638e-02
4617 3035 -1.915249049429748e-02
4617 3492 -1.000000000000000e+00
4617 4617 2.067703454687923e+00
4618 62 -1.000000000000000e+00
4618 1593 -1.116419980673854e-02
4618 2960 -1.000000000000000e+00
4618 4618 2.015083499334443e+00
4619 745 -1.333024044435534e-02
4619 1839 -1.000000000000000e+00
4619 2657 -6.870464232193793e-03
4619 2802 -1.000000000000000e+00
4619 4619 2.020200704676549e+00
4620 204 -1.000000000000000e+00
4620 1138 -1.001338528606057e-02
4620 2007 -1.657646455744868e-02
4620 3638 -6.362579040205362e-03
4620 4060 -1.016403154974566e+00
4620 4620 2.049355583858281e+00
4621 117 -1.000000000000000e+00
4621 3639 -1.000000000000000e+00
4621 4048 -2.980803044877640e-02
4621 4328 -2.418697163201287e-02
4621 4621 2.053995002080789e+00
4622 49 -1.000000000000000e+00
4622 690 -1.002895450845587e+00
4622 2481 -1.735237251231434e-02
4622 2519 -2.198204460849847e-03
4622 4447 -2.283110029081829e-03
4622 4622 2.024729137847833e+00
4623 324 -1.153565038930092e-02
4623 3585 -1.000184323316946e+00
4623 3838 -1.005363951065862e+00
4623 4623 2.017083924772109e+00
4624 522 -7.042853936170355e-03
4624 651 -1.000000000000000e+00
4624 3915 -1.000000000000000e+00
4624 4254 -1.481278455728121e-03
4624 4624 2.008524132391898e+00
4625 5 -1.000000000000000e+00
4625 22 -3.423414220417060e-02
4625 808 -2.564069306021239e-02
4625 1269 -1.000000000000000e+00
4625 2401 -2.829850403858745e-02
4625 2418 -2.602127664819507e-02
4625 2463 -1.000000000000000e+00
4625 4625 3.114194615951166e+00
4626 1049 -1.009088435207457e+00
4626 2463 -1.000000000000000e+00
4626 4626 2.009088435207457e+00
4627 70 -1.952584426271424e-02
4627 1214 -1.000000000000000e+00
4627 2039 -1.000000000000000e+00
4627 3591 -7.483802233252527e-03
4627 4627 2.027009646495967e+00
4628 2423 -1.000000000000000e+00
4628 3506 -1.002540652186255e+00
4628 4628 2.002540652186255e+00
4629 393 -1.000000000000000e+00
4629 2859 -8.388364714079057e-03
4629 3587 -5.562338774938832e-03
4629 4516 -1.000000000000000e+00
4629 4629 2.013950703489018e+00
4630 334 -1.017047421575982e+00
4630 629 -1.000000000000000e+00
4630 3676 -1.129164919907516e-02
4630 4347 -1.000000000000000e+00
4630 4501 -7.109352110584006e-03
4630 4630 3.035448422885641e+00
4631 685 -2.949328382109195e-02
4631 884 -1.000000000000000e+00
4631 3639 -2.700181393718840e-02
4631 4208 -1.000000000000000e+00
4631 4631 2.087276403468174e+00
4632 333 -1.000000000000000e+00
4632 642 -1.541815630013379e-02
4632 2029 -2.909644148913077e-02
4632 3483 -1.000000000000000e+00
4632 4632 3.058282900677508e+00
4633 116 -1.000000000000000e+00
4633 985 -2.226709834163512e-03
4633 1270 -1.000000000000000e+00
4633 1804 -3.010583218076247e-03
4633 3647 -7.456184834915300e-03
4633 4633 2.012693477887155e+00
4634 132 -1.000000000000000e+00
4634 2078 -1.000000000000000e+00
4634 2133 -4.290721368302651e-03
4634 3512 -1.145284058387751e-02
4634 4634 2.015743561952180e+00
4635 244 -2.237421009016755e-02
4635 732 -1.566967599573299e-02
4635 1712 -2.117757826829517e-02
4635 2090 -1.000000000000000e+00
4635 2914 -1.000000000000000e+00
4635 3670 -2.948576601186959e-02
4635 4635 2.088707230366065e+00
4636 34 -1.000000000000000e+00
4636 672 -1.000000000000000e+00
4636 4535 -2.387577570986769e-02
4636 4636 2.051451577812192e+00
4637 6 -1.000000000000000e+00
4637 143 -1.000000000000000e+00
4637 4637 3.012529475936439e+00
4638 1473 -1.004142104898659e+00
4638 3794 -1.000000000000000e+00
4638 4638 2.004142104898659e+00
4639 1495 -1.000000000000000e+00
4639 2411 -1.292635999337762e-02
4639 2554 -1.000000000000000e+00
4639 4477 -1.073605845874473e-02
4639 4639 2.023662418452122e+00
4640 334 -1.000000000000000e+00
4640 373 -1.000000000000000e+00
4640 1005 -2.124586937402611e-02
4640 4347 -6.289235196514949e-03
4640 4640 2.027535104570541e+00
4641 508 -2.018213692240839e-02
4641 568 -1.000000000000000e+00
4641 1860 -4.111123991394916e-03
4641 2683 -2.011257197559611e-02
4641 3412 -1.000000000000000e+00
4641 4641 2.055933248245497e+00
4642 359 -1.024416828899265e+00
4642 1133 -2.514195568781327e-02
4642 2574 -1.000000000000000e+00
4642 4642 2.049558784587078e+00
4643 1312 -1.003096086097806e+00
4643 2174 -1.566819105402321e-02
4643 3688 -1.000000000000000e+00
4643 3777 -1.344149878660706e-02
4643 4643 2.032205775938436e+00
4644 2 -1.000000000000000e+00
4644 5 -1.000000000000000e+00
4644 2418 -1.389065745184154e-02
4644 4644 2.036723665980156e+00
4645 1012 -1.000000000000000e+00
4645 1058 -1.000000000000000e+00
4645 2031 -1.774851513955591e-02
4645 2814 -1.000000000000000e+00
4645 3307 -7.668728352875858e-03
4645 4645 3.025417243492432e+00
4646 16 -1.000000000000000e+00
4646 643 -1.000095883309346e+00
4646 2783 -6.926511674412581e-03
4646 4646 2.007022394983759e+00
4647 34 -1.000000000000000e+00
4647 906 -8.244975531746081e-03
4647 1123 -1.330353818658234e-03
4647 1759 -1.629055286370173e-02
4647 2691 -1.005875608340391e-02
4647 3346 -5.960899290538680e-03
4647 3556 -1.000000000000000e+00
4647 4647 2.041885537588048e+00
4648 34 -1.765331002392473e-02
4648 98 -2.029282140313457e-02
4648 149 -1.000000000000000e+00
4648 353 -3.241187124479298e-02
4648 863 -2.127303346885192e-02
4648 874 -1.659069754940042e-02
4648 2001 -1.548263168963472e-02
4648 2391 -3.274977429631157e-02
4648 2458 -1.000000000000000e+00
4648 2808 -1.319911046416881e-02
4648 3525 -1.065808371442179e-02
4648 4369 -1.839536000435317e-02
4648 4380 -1.000000000000000e+00
4648 4648 3.198706693858995e+00
4649 50 -1.000000000000000e+00
4649 444 -1.015055143720556e+00
4649 4649 2.030171639005731e+00
4650 111 -1.000000000000000e+00
4650 287 -1.000000000000000e+00
4650 573 -4.281233940450176e-03
4650 958 -1.000000000000000e+00
4650 1396 -9.702391662557697e-03
4650 4650 3.013983625603008e+00
4651 1064 -1.800490245360134e-02
4651 1409 -1.000000000000000e+00
4651 2883 -2.000136958338688e-02
4651 3265 -1.744148794042004e-02
4651 3472 -1.810584709687895e-02
4651 3911 -1.000000000000000e+00
4651 4208 -2.004490578472579e-02
4651 4244 -2.528413453240282e-02
4651 4358 -3.231999042737629e-02
4651 4483 -2.481850829613571e-02
4651 4651 2.194431214616683e+00
4652 807 -1.011563305655534e-02
4652 2477 -2.025680378410468e-02
4652 3321 -1.000000000000000e+00
4652 3772 -1.000000000000000e+00
4652 4652 3.030372436840660e+00
4653 678 -1.000000000000000e+00
4653 1401 -1.934274318742954e-02
4653 2483 -1.000000000000000e+00
4653 3990 -1.968894768586000e-02
4653 4653 2.039031690873290e+00
4654 17 -1.000000000000000e+00
4654 444 -7.578399591016683e-03
4654 3238 -1.008515799323421e+00
4654 4649 -1.511649528517488e-02
4654 4654 2.031210694199612e+00
4655 21 -1.000000000000000e+00
4655 720 -1.000000000000000e+00
4655 1316 -1.000000000000000e+00
4655 1761 -2.002060269194996e-02
4655 2410 -1.784872749447267e-02
4655 4655 3.037869330186423e+00
4656 1027 -1.000000000000000e+00
4656 1109 -1.000000000000000e+00
4656 3364 -1.076928524855921e-02
4656 3923 -1.871612253013997e-02
4656 4656 2.029485407778699e+00
4657 116 -1.000000000000000e+00
4657 318 -6.778427412286394e-03
4657 924 -1.000000000000000e+00
4657 2539 -2.281820922261684e-02
4657 3874 -2.073312995800472e-02
4657 4657 3.069743612685456e+00
4658 66 -1.000000000000000e+00
4658 919 -1.000000000000000e+00
4658 4000 -5.338839748195571e-03
4658 4658 2.018463159602579e+00
4659 222 -1.000000000000000e+00
4659 700 -1.172617257440599e-02
4659 1008 -3.203241447927152e-03
4659 1544 -1.000000000000000e+00
4659 3229 -8.131006685947030e-03
4659 3621 -1.000000000000000e+00
4659 4659 3.023060420708280e+00
4660 165 -1.000000000000000e+00
4660 792 -1.224922087190935e-02
4660 845 -1.000000000000000e+00
4660 4482 -7.951245377043557e-03
4660 4660 2.020200466248953e+00
4661 860 -1.000000000000000e+00
4661 1983 -1.000000000000000e+00
4661 2285 -2.932825231374925e-03
4661 3285 -8.378093317133968e-03
4661 3688 -3.649803225060830e-03
4661 3849 -4.634412475311414e-03
4661 4496 -9.814414248931128e-03
4661 4661 2.029409548497812e+00
4662 2459 -1.000000000000000e+00
4662 3572 -1.000000000000000e+00
4662 4662 3.000000000000000e+00
4663 335 -1.000000000000000e+00
4663 942 -1.925507720848844e-02
4663 1566 -1.000000000000000e+00
4663 4317 -1.304896102250638e-02
4663 4663 2.032304038230995e+00
4664 679 -1.000000000000000e+00
4664 950 -2.205199173575843e-02
4664 1558 -1.000000000000000e+00
4664 2175 -1.200662258770552e-02
4664 3720 -1.648094966248773e-02
4664 3828 -1.000000000000000e+00
4664 4664 3.063377410812369e+00
4665 57 -1.665110687902032e-02
4665 1216 -1.000000000000000e+00
4665 2749 -1.570353541962843e-02
4665 3885 -1.000000000000000e+00
4665 4665 2.032354642298649e+00
4666 73 -1.000000000000000e+00
4666 181 -1.000000000000000e+00
4666 1728 -1.288159742530194e-02
4666 2385 -1.216553381987554e-02
4666 4666 2.038544288230281e+00
4667 249 -1.000000000000000e+00
4667 376 -1.656948990608232e-02
4667 379 -1.000000000000000e+00
4667 1363 -1.000000000000000e+00
4667 1768 -5.350722910533822e-03
4667 3369 -1.788254800281209e-02
4667 4404 -1.589264208177535e-02
4667 4667 4.055695402901204e+00
4668 627 -1.688289920983114e-02
4668 1250 -1.321029700226748e-02
4668 1251 -1.016729604199645e+00
4668 1887 -1.376826891196565e-02
4668 2823 -3.443955170752655e-02
4668 3650 -1.000000000000000e+00
4668 3863 -1.034145715675114e-02
4668 4668 2.136141111965734e+00
4669 258 -1.022251983796340e+00
4669 3187 -2.156575726618623e-02
4669 3976 -1.000000000000000e+00
4669 4214 -1.799595115402623e-02
4669 4669 2.061813692216553e+00
4670 28 -1.000000000000000e+00
4670 163 -1.000000000000000e+00
4670 1146 -1.340438715933657e-02
4670 1743 -8.542286046578040e-03
4670 2191 -1.627167605828097e-02
4670 3925 -1.969771243169778e-02
4670 4670 2.057916061695893e+00
4671 240 -1.000000000000000e+00
4671 510 -1.076594853705926e-02
4671 1990 -1.001846902914288e+00
4671 3395 -1.107210578037962e-02
4671 4671 3.023684957231727e+00
4672 5 -1.000000000000000e+00
4672 1717 -2.133442209469925e-02
4672 2162 -1.562758104096797e-02
4672 4667 -1.000000000000000e+00
4672 4672 2.036962003135667e+00
4673 35 -1.000000000000000e+00
4673 113 -1.000000000000000e+00
4673 1499 -2.542807159867324e-02
4673 1897 -2.268070462578193e-02
4673 4673 2.048108776224455e+00
4674 67 -1.000000000000000e+00
4674 242 -1.783506992724809e-02
4674 564 -1.203326667071569e-02
4674 1125 -6.245311289010068e-03
4674 2737 -1.000000000000000e+00
4674 3146 -1.290126640370119e-02
4674 3303 -7.366465741048487e-03
4674 4425 -8.062638528352326e-03
4674 4674 2.064444018560076e+00
4675 60 -1.000000000000000e+00
4675 1019 -1.003910472154479e+00
4675 2996 -1.064102588767188e-03
4675 3540 -5.314371763240009e-03
4675 3713 -1.860576745639108e-02
4675 4675 2.030353817583185e+00
4676 145 -1.000000000000000e+00
4676 4063 -1.003064292051997e+00
4676 4676 2.003064292051997e+00
4677 1109 -9.367165351837126e-03
4677 1400 -7.748066439799001e-03
4677 1750 -1.025894848064050e-02
4677 2033 -1.000000000000000e+00
4677 3048 -1.061248932249518e-02
4677 4543 -1.000000000000000e+00
4677 4677 2.037986669594772e+00
4678 174 -1.000000000000000e+00
4678 716 -2.564664500168900e-02
4678 871 -1.000000000000000e+00
4678 3996 -1.000000000000000e+00
4678 4173 -2.320497248710040e-02
4678 4678 3.048851617488789e+00
4679 306 -1.000000000000000e+00
4679 497 -1.000000000000000e+00
4679 2005 -1.664569940258914e-02
4679 3169 -2.332866832519458e-02
4679 4679 2.039974367727784e+00
4680 1620 -2.512895944303575e-02
4680 2960 -1.000000000000000e+00
4680 3898 -1.608978191638119e-02
4680 3999 -1.000000000000000e+00
4680 4680 2.071336798292882e+00
4681 150 -1.000000000000000e+00
4681 216 -1.000000000000000e+00
4681 1902 -1.000000000000000e+00
4681 2299 -9.535872203730625e-03
4681 2430 -1.054218390608917e-02
4681 3121 -2.275013613745284e-02
4681 4681 3.042828192247272e+00
4682 158 -1.000000000000000e+00
4682 1570 -1.471100954473219e-02
4682 4212 -5.213238717858541e-03
4682 4330 -1.000000000000000e+00
4682 4682 2.019924248262591e+00
4683 1968 -1.000000000000000e+00
4683 2564 -1.000000000000000e+00
4683 4683 3.000395350534439e+00
4684 167 -1.000000000000000e+00
4684 223 -1.941021122404611e-02
4684 659 -1.000000000000000e+00
4684 3122 -2.100633013687334e-02
4684 3148 -2.101864403503514e-02
4684 4684 2.061435185395954e+00
4685 246 -1.000000000000000e+00
4685 1066 -1.000000000000000e+00
4685 2835 -1.151866418043054e-02
4685 3427 -1.901174924346660e-02
4685 3937 -2.721671818778092e-02
4685 4685 2.057747131611678e+00
4686 960 -1.000000000000000e+00
4686 3591 -2.220883712737309e-02
4686 3610 -2.626369729410626e-02
4686 3880 -1.000000000000000e+00
4686 4329 -2.020841590347946e-02
4686 4686 3.068680950324959e+00
4687 482 -1.007704535802535e+00
4687 1338 -8.791230797196304e-03
4687 2843 -1.000000000000000e+00
4687 3188 -1.725046068768732e-02
4687 4266 -3.214158111375188e-02
4687 4687 2.065887808401170e+00
4688 3576 -1.000000000000000e+00
4688 3675 -1.021615592507714e+00
4688 4296 -1.258601972890305e-02
4688 4688 3.034201612236617e+00
4689 20 -1.008932188470814e+00
4689 765 -1.060607224935866e-02
4689 1324 -1.000000000000000e+00
4689 2342 -3.667894904024253e-02
4689 4689 2.056217209760415e+00
4690 34 -1.898488828729896e-02
4690 406 -1.000000000000000e+00
4690 726 -1.553206224553128e-02
4690 1553 -2.070489763160679e-02
4690 1577 -1.000000000000000e+00
4690 1730 -1.493628045192074e-02
4690 3562 -1.967560425039856e-02
4690 4690 2.089833732866756e+00
4691 93 -1.000000000000000e+00
4691 2819 -1.000000000000000e+00
4691 4691 3.000000000000000e+00
4692 1007 -1.000000000000000e+00
4692 2642 -1.000000000000000e+00
4692 3097 -1.622283820261149e-02
4692 4374 -9.854759669388527e-03
4692 4692 2.026077597872000e+00
4693 1802 -1.000000000000000e+00
4693 4161 -1.001522627495224e+00
4693 4693 2.001522627495224e+00
4694 1816 -1.000000000000000e+00
4694 3840 -1.000413505339105e+00
4694 4694 2.023784845065336e+00
4695 182 -1.000000000000000e+00
4695 412 -1.000000000000000e+00
4695 1077 -1.048285356111372e-02
4695 2333 -1.771862626021200e-02
4695 2848 -9.936074634915521e-03
4695 3434 -4.908131972775804e-03
4695 4695 2.043045686429017e+00
4696 2763 -1.146977818421734e-02
4696 3200 -1.000000000000000e+00
4696 3417 -1.002478407667252e+00
4696 4696 2.013948185851469e+00
4697 311 -1.900623974658920e-02
4697 542 -1.000000000000000e+00
4697 824 -1.000000000000000e+00
4697 3401 -4.014851218088156e-02
4697 4697 3.059154751927471e+00
4698 115 -1.000000000000000e+00
4698 861 -1.000000000000000e+00
4698 950 -1.000000000000000e+00
4698 1173 -1.853748737395234e-02
4698 4664 -1.283784682641732e-02
4698 4698 4.031375334200369e+00
4699 614 -1.000000000000000e+00
4699 2316 -1.008181243159414e+00
4699 4556 -1.509879543141118e-02
4699 4699 2.023280038590825e+00
4700 232 -4.497964130361897e-03
4700 825 -2.200771839427521e-02
4700 861 -1.371489383098496e-02
4700 1060 -1.000000000000000e+00
4700 1288 -5.481705650046870e-03
4700 1330 -8.793216416322150e-03
4700 2110 -3.045579602585150e-03
4700 2661 -1.516905657253202e-02
4700 2854 -1.791872256130757e-02
4700 2983 -6.587262089565501e-03
4700 3302 -1.431852874286328e-02
4700 3365 -3.269209478334211e-03
4700 3958 -1.000721646040402e+00
4700 4015 -9.988503279766530e-03
4700 4700 2.125514006789348e+00
4701 715 -1.000000000000000e+00
4701 1422 -1.006520166239000e+00
4701 4701 2.006520166239000e+00
4702 1283 -1.009075203635223e+00
4702 2114 -5.995804397119340e-03
4702 2264 -7.109910233830547e-03
4702 2471 -8.940628644463663e-04
4702 4034 -1.000000000000000e+00
4702 4702 2.023074981130619e+00
4703 829 -1.000000000000000e+00
4703 3410 -1.017751568427125e+00
4703 4257 -7.176425151591007e-03
4703 4703 2.024927993578716e+00
4704 2490 -1.000000000000000e+00
4704 3423 -2.369528560096217e-02
4704 4047 -1.009321158129685e+00
4704 4617 -1.077874568989777e-02
4704 4704 2.043795189420544e+00
4705 1718 -1.000000000000000e+00
4705 1925 -1.000000000000000e+00
4705 2133 -9.822569319582948e-03
4705 3334 -2.155216233401290e-02
4705 4705 2.031374731653596e+00
4706 127 -1.000000000000000e+00
4706 213 -3.038067878712036e-02
4706 1955 -2.748387710783281e-02
4706 2059 -2.839975544619528e-02
4706 2418 -1.814089837270276e-02
4706 2541 -2.666819751308614e-02
4706 4564 -1.000000000000000e+00
4706 4644 -2.283300852831475e-02
4706 4706 2.153906415755252e+00
4707 151 -1.000000000000000e+00
4707 551 -1.000000000000000e+00
4707 756 -8.679606903928111e-03
4707 2510 -2.496347581668663e-02
4707 3949 -1.437596130698795e-02
4707 4707 2.048019044027602e+00
4708 909 -4.882788270335382e-03
4708 1784 -8.831824591461498e-03
4708 2139 -1.000000000000000e+00
4708 2927 -1.000000000000000e+00
4708 4708 2.013714612861797e+00
4709 31 -1.000000000000000e+00
4709 102 -1.000000000000000e+00
4709 4709 3.000179011084337e+00
4710 264 -1.000000000000000e+00
4710 353 -1.134928061900617e-02
4710 580 -1.948580120815547e-02
4710 1954 -1.612957964916018e-02
4710 2458 -1.000000000000000e+00
4710 2943 -3.954077431944530e-02
4710 3525 -1.475999492404604e-02
4710 4710 2.101265430719813e+00
4711 524 -1.000000000000000e+00
4711 1671 -2.483426642409753e-02
4711 2669 -1.924367310734811e-02
4711 2769 -1.000000000000000e+00
4711 3614 -1.886529552868146e-02
4711 3673 -2.736980955448688e-02
4711 4711 2.120316394107236e+00
4712 778 -4.663773084214869e-03
4712 936 -1.001155718408015e+00
4712 3530 -1.000000000000000e+00
4712 4712 2.005819491492230e+00
4713 161 -1.000000000000000e+00
4713 991 -1.000000000000000e+00
4713 1593 -2.831622969409541e-05
4713 2302 -8.174292798668929e-03
4713 2341 -2.038716047826935e-02
4713 2743 -1.334730632530021e-02
4713 3070 -2.062543194726382e-03
4713 4478 -2.786669846533492e-03
4713 4618 -3.919299527704549e-03
4713 4713 2.066685163882773e+00
4714 1838 -1.000000000000000e+00
4714 2350 -8.320829740064328e-03
4714 3106 -1.000000000000000e+00
4714 4606 -1.000000000000000e+00
4714 4615 -7.140098376235720e-03
4714 4714 3.015460928116300e+00
4715 302 -6.684523223078676e-03
4715 1264 -1.000000000000000e+00
4715 1721 -1.000000000000000e+00
4715 4414 -1.632115148692545e-03
4715 4715 2.008316638371771e+00
4716 1166 -1.019395870036838e+00
4716 2351 -1.131077535300044e-02
4716 2790 -1.000000000000000e+00
4716 4422 -1.037834759675390e-02
4716 4716 2.057356848353125e+00
4717 17 -1.000000000000000e+00
4717 522 -1.000000000000000e+00
4717 1959 -2.429982727771489e-02
4717 3409 -2.436644112068669e-02
4717 4500 -3.272852152646665e-02
4717 4717 2.081394789924868e+00
4718 23 -1.000000000000000e+00
4718 983 -1.428360479731784e-02
4718 1431 -8.014369977644473e-03
4718 1528 -1.019582499658144e+00
4718 2969 -2.143198500172756e-02
4718 4718 2.063312459434834e+00
4719 463 -1.000000000000000e+00
4719 1535 -1.000000000000000e+00
4719 1978 -2.397595181217866e-02
4719 2575 -6.084901243747373e-03
4719 4719 2.030060853055926e+00
4720 36 -1.000000000000000e+00
4720 1052 -2.302792861564098e-02
4720 2946 -2.735176572410916e-02
4720 3589 -1.000000000000000e+00
4720 4720 2.077507964965635e+00
4721 654 -4.532886986501530e-03
4721 911 -1.000000000000000e+00
4721 1495 -5.258219390528086e-03
4721 2170 -4.468425743038811e-03
4721 2554 -1.518402718907023e-02
4721 3747 -1.000000000000000e+00
4721 4721 2.029443559309139e+00
4722 30 -1.000000000000000e+00
4722 333 -1.000000000000000e+00
4722 837 -1.000000000000000e+00
4722 3180 -9.513143719270417e-03
4722 4632 -1.376830288824367e-02
4722 4722 3.023281446607514e+00
4723 346 -1.000000000000000e+00
4723 520 -1.258094558611840e-02
4723 3411 -2.389801960901416e-02
4723 4610 -1.000000000000000e+00
4723 4723 2.036478965195132e+00
4724 866 -1.000000000000000e+00
4724 1667 -3.329840624345835e-03
4724 3910 -8.260499821370960e-03
4724 4158 -1.019211779466661e+00
4724 4724 2.042328430795086e+00
4725 83 -1.000000000000000e+00
4725 1099 -1.012822942987718e+00
4725 4542 -6.814342842645572e-03
4725 4725 2.019637285830364e+00
4726 1685 -1.000000000000000e+00
4726 2965 -1.000000000000000e+00
4726 3970 -8.532866372232146e-03
4726 4035 -1.280989284300301e-02
4726 4726 2.021342759215235e+00
4727 14 -1.014952757131011e+00
4727 1297 -1.000000000000000e+00
4727 2021 -1.925101163491305e-02
4727 4727 2.034203768765924e+00
4728 540 -1.015391268816441e+00
4728 1459 -6.941368677441213e-03
4728 1765 -5.910778605601155e-03
4728 1837 -1.577678730855227e-02
4728 2915 -2.535316908170380e-02
4728 3619 -1.000000000000000e+00
4728 4728 3.073598285112281e+00
4729 800 -1.000000000000000e+00
4729 1420 -1.153452964334456e-02
4729 1778 -1.019282217138079e+00
4729 3709 -1.142347251955389e-04
4729 4085 -1.000000000000000e+00
4729 4110 -1.103382244011247e-02
4729 4729 3.041964803946732e+00
4730 494 -8.819710552910698e-03
4730 1266 -1.000000000000000e+00
4730 2074 -1.000000000000000e+00
4730 2213 -1.002319846953157e-02
4730 2270 -2.123249487860978e-02
4730 2407 -5.799717008450798e-05
4730 2982 -1.000000000000000e+00
4730 3913 -2.100604896696001e-02
4730 4730 3.061139450038096e+00
4731 33 -1.000000000000000e+00
4731 543 -1.009421822651214e+00
4731 1131 -1.021613086396190e+00
4731 4731 3.031034909047404e+00
4732 23 -1.000000000000000e+00
4732 1656 -1.005740206071446e+00
4732 1999 -1.452976965619781e-03
4732 2879 -1.231197525491934e-02
4732 4732 2.019505158291985e+00
4733 157 -1.000000000000000e+00
4733 526 -2.378763794574586e-02
4733 3408 -1.000000000000000e+00
4733 3429 -1.000000000000000e+00
4733 3707 -1.588246421327166e-02
4733 4733 4.039670102159017e+00
4734 56 -1.000000000000000e+00
4734 209 -1.070152482382468e-02
4734 2012 -1.000000000000000e+00
4734 2149 -8.178506933597366e-03
4734 4310 -1.056730935957878e-02
4734 4734 2.037839654890280e+00
4735 2 -1.000000000000000e+00
4735 220 -1.000000000000000e+00
4735 1722 -1.938159482394271e-02
4735 2418 -3.226189255963648e-03
4735 4735 2.022607784079906e+00
4736 17 -1.000000000000000e+00
4736 808 -2.422166637681876e-02
4736 3105 -1.539849228045378e-02
4736 3467 -1.000000000000000e+00
4736 4736 2.039620158657272e+00
4737 9 -1.000000000000000e+00
4737 1405 -1.022802270880736e+00
4737 4737 2.022802270880736e+00
4738 2 -1.000000000000000e+00
4738 454 -2.691400039492706e-02
4738 2220 -1.762394321886482e-02
4738 3053 -1.000000000000000e+00
4738 4738 2.044537943613792e+00
4739 1125 -1.000000000000000e+00
4739 2536 -1.000000000000000e+00
4739 2549 -1.000000000000000e+00
4739 3126 -1.000000000000000e+00
4739 3200 -1.988732974557473e-02
4739 3402 -1.000000000000000e+00
4739 4396 -1.573341862764502e-02
4739 4668 -3.076903377774694e-02
4739 4739 5.066389782150967e+00
4740 1244 -1.000000000000000e+00
4740 2013 -1.000000000000000e+00
4740 2138 -1.875127528970268e-02
4740 2631 -2.003266653878447e-03
4740 3071 -4.592891866846118e-03
4740 4740 2.025347433810427e+00
4741 1209 -1.813811362215731e-02
4741 1350 -9.333121126752719e-03
4741 1915 -9.763456042280565e-03
4741 3457 -1.000000000000000e+00
4741 4341 -1.000000000000000e+00
4741 4741 2.037234690791191e+00
4742 115 -1.000000000000000e+00
4742 550 -1.019654371548790e+00
4742 3080 -1.226778898653198e-02
4742 4742 2.031922160535322e+00
4743 1959 -1.639709553787069e-02
4743 3389 -1.000000000000000e+00
4743 3515 -1.000000000000000e+00
4743 3672 -2.170806942584664e-02
4743 4743 2.038105164963717e+00
4744 2073 -1.000000000000000e+00
4744 2400 -1.000000000000000e+00
4744 2716 -1.853919979971265e-02
4744 4744 2.019646347679052e+00
4745 2492 -1.000000000000000e+00
4745 2660 -2.809994697150619e-03
4745 2966 -1.000000000000000e+00
4745 3864 -1.604027144518999e-02
4745 4745 3.018850266142341e+00
4746 246 -1.000000000000000e+00
4746 2572 -1.290754435656328e-02
4746 3152 -1.755214349498481e-02
4746 3628 -1.000000000000000e+00
4746 4746 2.030459687851548e+00
4747 5 -1.000000000000000e+00
4747 1195 -1.000000000000000e+00
4747 1708 -3.005543424932364e-02
4747 2296 -2.675848456262742e-02
4747 4747 2.056813918811951e+00
4748 18 -1.000000000000000e+00
4748 83 -1.000000000000000e+00
4748 102 -1.035078863136642e-02
4748 556 -1.086867413028806e-02
4748 1764 -1.000000000000000e+00
4748 4748 3.021219462761655e+00
4749 697 -1.016373802545757e+00
4749 778 -9.042278631376129e-03
4749 1670 -1.000000000000000e+00
4749 4749 2.025416081177133e+00
4750 780 -1.000000000000000e+00
4750 1394 -4.410560569701111e-03
4750 2581 -1.001207522268630e+00
4750 2900 -1.000000000000000e+00
4750 4750 4.005618082838331e+00
4751 2 -1.000000000000000e+00
4751 236 -7.683511417244284e-04
4751 1596 -1.001349240609304e+00
4751 1742 -9.589405114829452e-03
4751 3558 -1.000000000000000e+00
4751 4053 -5.170450379089075e-03
4751 4751 3.016877447244946e+00
4752 506 -1.000000000000000e+00
4752 922 -1.543252353135467e-02
4752 3224 -1.000000000000000e+00
4752 4752 2.035717749752602e+00
4753 286 -5.980085024069398e-03
4753 306 -1.000000000000000e+00
4753 1239 -1.000000000000000e+00
4753 2005 -1.625532887892485e-02
4753 4753 3.022235413902994e+00
4754 476 -1.000000000000000e+00
4754 4709 -1.000179011084336e+00
4754 4754 2.000179011084337e+00
4755 2425 -1.000000000000000e+00
4755 2883 -1.000000000000000e+00
4755 3898 -1.854316437540137e-02
4755 4651 -1.841006850175532e-02
4755 4755 2.036953232877157e+00
4756 67 -1.000000000000000e+00
4756 3172 -2.204134593103065e-02
4756 3437 -1.013317588855492e+00
4756 3451 -2.490195630696759e-02
4756 4756 2.060260891093490e+00
4757 907 -1.000000000000000e+00
4757 1065 -1.000000000000000e+00
4757 2135 -8.504311233261558e-03
4757 3543 -1.512365389696415e-02
4757 4757 2.023627965130226e+00
4758 51 -1.000000000000000e+00
4758 2572 -1.000000000000000e+00
4758 3267 -1.000000000000000e+00
4758 4758 3.000000000000000e+00
4759 67 -1.000000000000000e+00
4759 117 -4.414199088314841e-02
4759 813 -2.879536858944275e-02
4759 2294 -1.000000000000000e+00
4759 4759 2.072937359472591e+00
4760 1145 -1.012548626908085e+00
4760 2881 -6.373552860786354e-04
4760 4326 -1.000000000000000e+00
4760 4760 2.013185982194164e+00
4761 1834 -1.000000000000000e+00
4761 1860 -1.000000000000000e+00
4761 1943 -1.018574465457155e+00
4761 4641 -1.152741535609708e-02
4761 4761 3.030101880813252e+00
4762 21 -1.000000000000000e+00
4762 4462 -1.010858838857107e+00
4762 4762 2.010858838857107e+00
4763 179 -1.000000000000000e+00
4763 2845 -1.000000000000000e+00
4763 2895 -1.525548539269648e-02
4763 3532 -7.662159241420657e-03
4763 4252 -1.166345473520485e-02
4763 4763 2.034581099369322e+00
4764 50 -1.000000000000000e+00
4764 3134 -8.792011693632676e-03
4764 3316 -1.001541088535832e+00
4764 4764 2.010333100229465e+00
4765 518 -1.000000000000000e+00
4765 834 -1.000000000000000e+00
4765 1394 -9.011929381932004e-03
4765 4548 -1.200442075381386e-02
4765 4765 2.021016350135746e+00
4766 305 -1.000000000000000e+00
4766 535 -1.105030852491898e-02
4766 1535 -1.177593419043242e-02
4766 1978 -1.521063881127195e-02
4766 2020 -2.937098416948325e-02
4766 2242 -1.958483048990201e-02
4766 2575 -2.201169701236064e-04
4766 4405 -1.000000000000000e+00
4766 4766 2.087212813156132e+00
4767 672 -6.309431858562369e-03
4767 2497 -1.000000000000000e+00
4767 3150 -1.000000000000000e+00
4767 3197 -1.000000000000000e+00
4767 3727 -1.000000000000000e+00
4767 4561 -2.416509540692208e-03
4767 4767 4.008725941399255e+00
4768 482 -9.675520604654231e-03
4768 521 -1.000000000000000e+00
4768 3188 -1.021359342856183e+00
4768 4056 -1.995155651924191e-02
4768 4061 -1.509060370344121e-02
4768 4266 -1.000000000000000e+00
4768 4768 3.066077023683521e+00
4769 393 -1.476423436062195e-02
4769 1318 -1.000000000000000e+00
4769 2328 -1.003401531027169e+00
4769 4769 2.018165765387791e+00
4770 381 -1.017265845779489e+00
4770 1753 -1.000000000000000e+00
4770 1935 -1.440971062840510e-02
4770 4770 2.035046512450394e+00
4771 815 -1.797991046803237e-02
4771 2361 -1.000000000000000e+00
4771 4194 -1.021645923770827e+00
4771 4771 2.039625834238860e+00
4772 2560 -1.002472285464030e+00
4772 4273 -1.000000000000000e+00
4772 4772 2.002472285464030e+00
4773 1019 -1.000000000000000e+00
4773 1313 -1.000000000000000e+00
4773 3379 -2.487268411786837e-02
4773 3883 -3.052737531612504e-02
4773 4773 3.055400059433993e+00
4774 194 -1.005440321150749e+00
4774 206 -1.000000000000000e+00
4774 2596 -3.708370439297510e-04
4774 4774 2.005811158194679e+00
4775 443 -1.000000000000000e+00
4775 1210 -1.000002208912552e+00
4775 4775 2.017823773156425e+00
4776 174 -1.000000000000000e+00
4776 1152 -4.007127295146365e-03
4776 2492 -1.000725450338027e+00
4776 2660 -4.230549990013986e-03
4776 2712 -5.712082247535704e-03
4776 4776 2.014675209870723e+00
4777 65 -1.000000000000000e+00
4777 86 -1.000000000000000e+00
4777 1921 -2.400513764647221e-02
4777 3932 -2.900393185286570e-02
4777 4777 2.053009069499338e+00
4778 113 -1.026540329800436e+00
4778 907 -1.000000000000000e+00
4778 4778 2.060624003212641e+00
4779 2040 -1.011067978915092e+00
4779 2130 -1.019180383752432e+00
4779 3058 -9.093651665706141e-03
4779 4779 2.039342014333230e+00
4780 613 -1.929003872448136e-02
4780 1551 -1.000000000000000e+00
4780 2342 -1.467058113354196e-03
4780 2906 -1.000000000000000e+00
4780 4780 2.020757096837836e+00
4781 252 -1.000000000000000e+00
4781 313 -1.000000000000000e+00
4781 493 -2.218409074578090e-02
4781 3458 -1.800188198231629e-02
4781 4781 2.040185972728097e+00
4782 871 -1.069038511393463e-02
4782 1024 -1.000000000000000e+00
4782 1617 -1.002503596094646e+00
4782 4782 2.013193981208580e+00
4783 1007 -1.000000000000000e+00
4783 2443 -1.000000000000000e+00
4783 2717 -2.667810621693815e-02
4783 2722 -1.149194293451125e-02
4783 4783 2.038170049151449e+00
4784 45 -1.000000000000000e+00
4784 1105 -1.000000000000000e+00
4784 2252 -3.767275241666503e-02
4784 3367 -3.241447889883790e-02
4784 4784 2.070087231315503e+00
4785 1609 -1.000000000000000e+00
4785 2779 -1.000000000000000e+00
4785 3437 -1.000000000000000e+00
4785 4785 3.000000000000000e+00
4786 672 -1.000000000000000e+00
4786 1147 -2.984859661190346e-02
4786 3197 -1.000000000000000e+00
4786 4535 -2.065043269065586e-03
4786 4786 4.031913639880969e+00
4787 219 -1.334557852426418e-02
4787 1238 -1.870324950336709e-02
4787 1918 -1.000000000000000e+00
4787 4371 -1.000000000000000e+00
4787 4662 -1.000000000000000e+00
4787 4787 4.032048828027631e+00
4788 1538 -1.000000000000000e+00
4788 2872 -1.008977806733443e+00
4788 4788 2.008977806733443e+00
4789 412 -1.022298341852017e+00
4789 2333 -1.000000000000000e+00
4789 3434 -6.676099621671891e-03
4789 4424 -1.000000000000000e+00
4789 4789 4.043677899775897e+00
4790 1149 -1.000000000000000e+00
4790 3096 -1.000000000000000e+00
4790 3195 -3.047650493145583e-02
4790 3401 -2.093735484133148e-02
4790 4790 2.051413859772787e+00
4791 338 -1.000000000000000e+00
4791 2031 -1.000000000000000e+00
4791 2145 -2.071165096150548e-02
4791 4260 -4.976454708331417e-03
4791 4791 2.047318597304074e+00
4792 519 -1.000000000000000e+00
4792 2459 -9.349220418446155e-03
4792 2688 -1.007360056764620e+00
4792 4792 2.016709277183066e+00
4793 2849 -1.000000000000000e+00
4793 4069 -6.912281861782692e-03
4793 4233 -1.000000000000000e+00
4793 4773 -1.000000000000000e+00
4793 4793 3.026302708951542e+00
4794 532 -2.462067540868193e-02
4794 884 -1.000000000000000e+00
4794 2962 -1.000000000000000e+00
4794 4372 -2.530016873040184e-02
4794 4794 2.049920844139084e+00
4795 805 -1.005171651482545e+00
4795 2344 -1.168515390693132e-02
4795 3724 -1.000000000000000e+00
4795 4795 2.016856805389477e+00
4796 458 -1.000000000000000e+00
4796 1203 -1.000000000000000e+00
4796 3214 -1.076045353509857e-02
4796 4796 3.012691597353986e+00
4797 16 -1.023413750191273e+00
4797 3378 -1.000000000000000e+00
4797 3387 -1.670042299623126e-02
4797 4797 2.040114173187504e+00
4798 28 -1.000000000000000e+00
4798 751 -6.831076341400033e-03
4798 758 -1.000000000000000e+00
4798 3089 -1.260384423521670e-02
4798 4770 -3.370956042500341e-03
4798 4798 2.022805876619117e+00
4799 141 -1.000000000000000e+00
4799 2231 -1.435111523813380e-02
4799 2521 -2.222793150225932e-02
4799 2542 -1.156475164139542e-02
4799 2699 -5.330559953771781e-03
4799 3483 -1.000000000000000e+00
4799 4799 2.053474358335560e+00
4800 1595 -1.152212758234964e-02
4800 1731 -2.666932598615024e-02
4800 1745 -1.000000000000000e+00
4800 1762 -1.000000000000000e+00
4800 2467 -1.163319747864318e-02
4800 3350 -1.256701651942276e-02
4800 3904 -1.397900846925971e-02
4800 4800 3.076370676035825e+00
4801 642 -1.000000000000000e+00
4801 1782 -2.090713767654138e-02
4801 2029 -1.444352385470238e-02
4801 3657 -1.000000000000000e+00
4801 4331 -8.688927116316662e-03
4801 4801 2.044039588647561e+00
4802 906 -1.000000000000000e+00
4802 1799 -1.000000000000000e+00
4802 4802 3.000000000000000e+00
4803 171 -1.000000000000000e+00
4803 2445 -1.000000000000000e+00
4803 4803 4.035206985713273e+00
4804 1641 -1.788104340074834e-02
4804 2377 -1.000000000000000e+00
4804 2706 -1.000000000000000e+00
4804 3609 -1.729801228431538e-02
4804 4804 3.035179055685064e+00
4805 1953 -1.000000000000000e+00
4805 3434 -2.169788066031119e-02
4805 4789 -1.014703458302208e+00
4805 4805 2.036401338962520e+00
4806 1423 -2.435049057446655e-02
4806 2899 -1.000000000000000e+00
4806 3236 -1.000000000000000e+00
4806 3471 -1.000000000000000e+00
4806 4267 -1.587260959714203e-02
4806 4806 3.040223100171608e+00
4807 153 -1.006779983320465e+00
4807 408 -7.534051418987204e-03
4807 962 -5.446642932052184e-03
4807 2024 -2.324127890272226e-03
4807 2503 -1.000000000000000e+00
4807 3812 -5.964962464185042e-03
4807 4807 2.028049768025961e+00
4808 826 -1.000000000000000e+00
4808 1167 -1.004119083958524e+00
4808 3418 -1.076626971554813e-02
4808 4808 2.014885353674072e+00
4809 1 -1.000000000000000e+00
4809 1191 -2.473671037374162e-02
4809 2960 -2.793781848004294e-02
4809 3018 -1.000000000000000e+00
4809 4809 2.052674528853784e+00
4810 582 -1.000000000000000e+00
4810 3326 -1.000000000000000e+00
4810 4810 2.036377017337890e+00
4811 708 -3.252028664184768e-03
4811 1062 -1.023474617586399e+00
4811 3752 -1.000000000000000e+00
4811 4811 3.026726646250584e+00
4812 2777 -4.642152665596754e-03
4812 3624 -7.558111071062563e-03
4812 4193 -1.000000000000000e+00
4812 4337 -1.000000000000000e+00
4812 4812 2.012200263736659e+00
4813 83 -1.000000000000000e+00
4813 1514 -1.653733033486544e-02
4813 1744 -1.000000000000000e+00
4813 4333 -2.015496735277643e-02
4813 4813 2.036692297687642e+00
4814 1521 -2.778875913489947e-02
4814 3733 -1.006558410349329e+00
4814 3880 -1.000000000000000e+00
4814 4814 2.034347169484229e+00
4815 149 -1.000000000000000e+00
4815 938 -9.724057306965577e-03
4815 1287 -1.000000000000000e+00
4815 2179 -2.124331752826761e-02
4815 4815 2.054376369651991e+00
4816 515 -1.000000000000000e+00
4816 2596 -1.345720924974672e-02
4816 3028 -1.010783559892201e+00
4816 4582 -1.000000000000000e+00
4816 4816 3.024240769141948e+00
4817 100 -1.000000000000000e+00
4817 975 -1.000000000000000e+00
4817 3639 -1.602065062115874e-02
4817 4631 -3.078130570989383e-02
4817 4817 2.046801956331052e+00
4818 490 -1.620774136267884e-02
4818 839 -1.000000000000000e+00
4818 906 -1.000000000000000e+00
4818 929 -1.000000000000000e+00
4818 958 -1.343731741204775e-02
4818 3917 -1.895688749749577e-02
4818 4818 3.066391707320747e+00
4819 3030 -1.000000000000000e+00
4819 3139 -2.313767296516955e-02
4819 3589 -2.396746417797734e-02
4819 4284 -1.680831039945656e-02
4819 4686 -1.000000000000000e+00
4819 4819 2.063913447542603e+00
4820 332 -1.000000000000000e+00
4820 1386 -1.306610008215074e-02
4820 2152 -1.000000000000000e+00
4820 4023 -1.423094053269365e-02
4820 4820 2.027297040614844e+00
4821 1258 -1.000000000000000e+00
4821 4285 -1.001805246580848e+00
4821 4821 2.001805246580848e+00
4822 967 -1.000000000000000e+00
4822 1081 -1.018940911275955e+00
4822 2256 -1.925302687859446e-02
4822 4822 2.038193938154549e+00
4823 239 -8.518184718655895e-03
4823 991 -1.566119712562905e-02
4823 2500 -1.000000000000000e+00
4823 3070 -1.000000000000000e+00
4823 4116 -2.169338563966179e-02
4823 4823 2.045872767483947e+00
4824 470 -1.000000000000000e+00
4824 1356 -1.000000000000000e+00
4824 2674 -1.941489561975662e-02
4824 4477 -9.450569964860154e-03
4824 4824 2.028865465584617e+00
4825 12 -1.000000000000000e+00
4825 2331 -7.189928258670367e-03
4825 3983 -1.004972625756994e+00
4825 4825 2.012162554015664e+00
4826 5 -1.000000000000000e+00
4826 27 -1.582130130568534e-02
4826 1045 -1.000000000000000e+00
4826 2251 -3.370093049686055e-03
4826 3027 -1.762517865538176e-02
4826 3202 -2.398391843687741e-02
4826 3399 -1.013658905416330e-02
4826 4826 2.070937080501794e+00
4827 115 -1.000000000000000e+00
4827 313 -2.086582485609261e-02
4827 401 -1.000000000000000e+00
4827 1213 -1.678806713670070e-02
4827 2052 -2.012599080828887e-02
4827 2172 -1.151519261792417e-02
4827 2253 -2.408637875376885e-02
4827 2273 -1.844033388913449e-02
4827 2289 -1.534963872164863e-02
4827 2410 -2.265624072676034e-02
4827 2579 -1.263172109359428e-02
4827 4025 -1.360575753982626e-02
4827 4308 -1.223445675408028e-02
4827 4613 -8.834981908920942e-03
4827 4827 2.197134584806741e+00
4828 1726 -1.000000000000000e+00
4828 2502 -1.000000000000000e+00
4828 2584 -1.271531665572194e-02
4828 4481 -2.538235963411549e-02
4828 4828 2.038097676289838e+00
4829 11 -1.000000000000000e+00
4829 352 -1.827592632949735e-02
4829 1502 -1.000000000000000e+00
4829 2321 -2.886045168935926e-02
4829 4829 2.047136378018857e+00
4830 1 -1.032095554225205e+00
4830 1712 -1.000000000000000e+00
4830 2746 -2.853180810159672e-02
4830 2838 -1.000000000000000e+00
4830 3630 -2.309121742517257e-02
4830 4830 3.083718579751974e+00
4831 152 -1.000000000000000e+00
4831 202 -1.000000000000000e+00
4831 334 -1.000000000000000e+00
4831 4347 -2.443303637760110e-03
4831 4353 -2.079847570288041e-02
4831 4831 3.023241779340641e+00
4832 102 -1.000000000000000e+00
4832 2149 -2.652531396524005e-02
4832 2305 -1.000000000000000e+00
4832 3602 -1.371910886133811e-02
4832 4832 2.040244422826578e+00
4833 275 -1.000000000000000e+00
4833 3234 -1.736405713797871e-02
4833 3423 -1.000000000000000e+00
4833 4617 -2.534641672399151e-02
4833 4833 2.042710473861970e+00
4834 2128 -1.631065629399833e-02
4834 3096 -3.075915811774975e-02
4834 3944 -1.000000000000000e+00
4834 4697 -1.000000000000000e+00
4834 4834 2.047069814411748e+00
4835 66 -1.000000000000000e+00
4835 4637 -1.012529475936439e+00
4835 4835 2.012529475936439e+00
4836 126 -1.296886406009421e-02
4836 799 -1.000000000000000e+00
4836 945 -6.401979998268780e-03
4836 1846 -3.988571344289995e-03
4836 3590 -3.445544716974256e-04
4836 3708 -1.007990810373838e+00
4836 4836 2.031694780248188e+00
4837 330 -1.000000000000000e+00
4837 1364 -6.046606373265291e-03
4837 3093 -1.017350662516269e+00
4837 4837 2.023397268889534e+00
4838 348 -2.027350097947394e-02
4838 395 -1.080318243668029e-02
4838 955 -1.114724898658107e-02
4838 1090 -1.000000000000000e+00
4838 1137 -1.000000000000000e+00
4838 2440 -1.782398167783770e-02
4838 3254 -1.678166615755339e-02
4838 4113 -1.351803267928690e-02
4838 4838 2.090347612917413e+00
4839 601 -1.000000000000000e+00
4839 1507 -1.663868104202958e-02
4839 3778 -1.000000000000000e+00
4839 4839 2.036400195994619e+00
4840 2720 -1.984040435001281e-02
4840 3235 -7.936825318740183e-03
4840 3681 -1.000000000000000e+00
4840 3688 -1.000000000000000e+00
4840 4840 2.027777229668753e+00
4841 240 -1.000000000000000e+00
4841 1824 -2.469886290859775e-02
4841 2457 -1.000000000000000e+00
4841 4555 -2.584418573584943e-02
4841 4841 2.050543048644447e+00
4842 734 -1.015265355481900e+00
4842 3358 -1.000000000000000e+00
4842 4559 -9.054591778633669e-03
4842 4842 2.024319947260534e+00
4843 22 -1.000000000000000e+00
4843 29 -1.014522188857802e+00
4843 1334 -1.000000000000000e+00
4843 4843 3.033013655727426e+00
4844 410 -1.000000000000000e+00
4844 1027 -1.026087058017493e+00
4844 3674 -6.771529501824912e-03
4844 4001 -1.154012611430588e-02
4844 4844 2.044398713633624e+00
4845 5 -1.000000000000000e+00
4845 1469 -4.617836809402296e-03
4845 3327 -2.038851262839900e-02
4845 4434 -1.000000000000000e+00
4845 4845 2.025006349437801e+00
4846 21 -1.000000000000000e+00
4846 2745 -1.468773357596960e-02
4846 3416 -1.149582756275545e-02
4846 3632 -1.000000000000000e+00
4846 4846 2.026183561138725e+00
4847 26 -1.000000000000000e+00
4847 972 -1.188118580042426e-02
4847 1359 -1.000000000000000e+00
4847 4847 2.026861958532785e+00
4848 81 -1.000000000000000e+00
4848 1277 -1.915846500332655e-02
4848 1718 -2.413767868549420e-02
4848 2986 -1.747639392266531e-02
4848 4688 -1.000000000000000e+00
4848 4848 2.060772537611486e+00
4849 467 -1.003997542032411e+00
4849 710 -6.996259890852933e-03
4849 722 -1.000000000000000e+00
4849 2504 -1.907551490481858e-02
4849 4849 2.030069316828083e+00
4850 1 -1.000000000000000e+00
4850 1751 -3.035053832634982e-02
4850 1855 -1.923731154206257e-02
4850 2331 -1.000000000000000e+00
4850 2817 -2.369134509935856e-02
4850 2870 -3.313870275730185e-02
4850 3472 -1.998144170248637e-02
4850 4199 -2.932515272432470e-02
4850 4395 -1.000000000000000e+00
4850 4419 -1.585882015483610e-02
4850 4850 3.197363350457549e+00
4851 700 -1.000000000000000e+00
4851 1008 -1.000000000000000e+00
4851 1992 -9.722530942039807e-03
4851 3621 -1.637710812450946e-02
4851 4851 2.026099639066549e+00
4852 1837 -3.576301722328481e-03
4852 4441 -1.000000000000000e+00
4852 4728 -1.004224912622542e+00
4852 4852 2.007801214344870e+00
4853 67 -1.000000000000000e+00
4853 1965 -1.000000000000000e+00
4853 2498 -1.000000000000000e+00
4853 4277 -2.012588955178082e-02
4853 4853 3.021883255154355e+00
4854 1554 -1.000000000000000e+00
4854 2507 -1.000000000000000e+00
4854 3901 -1.474158493985583e-02
4854 4255 -8.273167211002330e-03
4854 4854 2.023014752150858e+00
4855 155 -1.000000000000000e+00
4855 2327 -2.946732988646426e-02
4855 4120 -1.000000000000000e+00
4855 4855 2.043354983590245e+00
4856 51 -1.000000000000000e+00
4856 2350 -3.518463793558497e-03
4856 3856 -1.999498900753749e-02
4856 4359 -1.000000000000000e+00
4856 4856 2.023513452801096e+00
4857 23 -1.004390236978769e+00
4857 337 -8.742979685748685e-03
4857 520 -1.000000000000000e+00
4857 2589 -9.476275727111620e-03
4857 3411 -2.083091144053602e-02
4857 3666 -1.678891419259187e-02
4857 4131 -2.588620383523708e-02
4857 4531 -7.294971833061532e-03
4857 4857 2.110829703041310e+00
4858 991 -1.000000000000000e+00
4858 1688 -1.000000000000000e+00
4858 4713 -8.570181854109918e-03
4858 4858 2.033731528838987e+00
4859 2 -1.000000000000000e+00
4859 1394 -1.543919775893661e-02
4859 4548 -6.693883466207777e-03
4859 4750 -1.000000000000000e+00
4859 4859 3.022133081225145e+00
4860 536 -1.012218933131633e+00
4860 2189 -1.000000000000000e+00
4860 2692 -6.119214895659149e-04
4860 3201 -9.159621365711520e-03
4860 4860 2.021990475986911e+00
4861 2627 -1.000000000000000e+00
4861 3422 -2.305205197029470e-03
4861 4373 -1.016370208286625e+00
4861 4861 2.018675413483654e+00
4862 401 -1.000000000000000e+00
4862 3294 -1.008912241663742e+00
4862 4862 2.008912241663741e+00
4863 311 -1.000000000000000e+00
4863 371 -1.000000000000000e+00
4863 1525 -1.406928683169638e-02
4863 2422 -1.731875792015930e-02
4863 3482 -1.859402248569248e-02
4863 4539 -1.120546674725687e-02
4863 4863 2.061187533984805e+00
4864 193 -1.000000000000000e+00
4864 796 -1.638439083950981e-02
4864 1675 -1.000000000000000e+00
4864 2407 -3.355415011612904e-05
4864 2787 -1.000000000000000e+00
4864 4778 -3.408367341220488e-02
4864 4864 3.050501618401831e+00
4865 1481 -1.000000000000000e+00
4865 1602 -4.625553657713831e-03
4865 2189 -1.000000000000000e+00
4865 4216 -1.619002406680211e-03
4865 4262 -1.000000000000000e+00
4865 4865 3.006244556064394e+00
4866 2 -1.000000000000000e+00
4866 422 -1.020210876380791e-02
4866 2465 -1.000000000000000e+00
4866 3402 -1.166163268670261e-02
4866 4866 2.036027248015374e+00
4867 2602 -1.009856596916826e+00
4867 4195 -3.602994692212184e-03
4867 4205 -2.859380385211638e-03
4867 4327 -1.000000000000000e+00
4867 4867 2.016318971994250e+00
4868 50 -1.000000000000000e+00
4868 1492 -1.992886411743796e-02
4868 2109 -1.000000000000000e+00
4868 2515 -2.214108799518915e-02
4868 4868 2.042069952112627e+00
4869 206 -1.000000000000000e+00
4869 748 -1.000000000000000e+00
4869 2757 -1.000000000000000e+00
4869 4869 3.000000000000000e+00
4870 133 -1.000000000000000e+00
4870 816 -1.003353733055242e+00
4870 3737 -8.302538795976049e-03
4870 4172 -6.741700944140280e-03
4870 4870 2.018397972795358e+00
4871 45 -2.328766774669221e-02
4871 788 -1.755249528498293e-02
4871 862 -2.625785514870312e-02
4871 920 -2.304101891566837e-02
4871 1380 -1.000000000000000e+00
4871 1751 -2.914898847531688e-02
4871 2340 -1.000000000000000e+00
4871 2416 -2.239501046556007e-02
4871 2671 -2.366365407729589e-02
4871 4871 2.190881020586099e+00
4872 113 -1.000000000000000e+00
4872 1182 -1.011874623962634e+00
4872 1313 -2.443113165792276e-02
4872 4793 -1.939042708975931e-02
4872 4872 2.074821465579795e+00
4873 594 -1.010562997249613e+00
4873 774 -1.701328324422379e-02
4873 1068 -1.238144659081497e-02
4873 1605 -1.403055554185831e-02
4873 2096 -1.000000000000000e+00
4873 2248 -1.688443514845292e-02
4873 3606 -1.512222094919035e-02
4873 4169 -1.205507149771428e-02
4873 4720 -2.712827062588470e-02
4873 4873 2.125178280847752e+00
4874 917 -1.000000000000000e+00
4874 1635 -2.884716593123140e-02
4874 1996 -1.000000000000000e+00
4874 2112 -1.000000000000000e+00
4874 2318 -2.432734606003647e-02
4874 4874 3.053174511991268e+00
4875 82 -1.000000000000000e+00
4875 402 -1.430268818244354e-02
4875 538 -1.000000000000000e+00
4875 2404 -1.875858568927771e-02
4875 4875 2.033061273871721e+00
4876 485 -1.000000000000000e+00
4876 2667 -1.021039392118995e+00
4876 4876 2.021039392118995e+00
4877 225 -1.000000000000000e+00
4877 588 -6.755622430642525e-03
4877 1489 -1.001526917069470e+00
4877 4877 2.008282539500112e+00
4878 362 -1.000000000000000e+00
4878 1776 -1.000000000000000e+00
4878 4878 3.001487489896015e+00
4879 811 -1.000000000000000e+00
4879 1316 -1.006845933517724e+00
4879 2330 -5.567976811340902e-03
4879 3054 -4.145680832743801e-03
4879 4488 -1.883569467564055e-02
4879 4519 -6.217247930906906e-03
4879 4879 2.041612533768357e+00
4880 1 -1.000000000000000e+00
4880 2624 -1.000000000000000e+00
4880 3092 -4.617306155627356e-02
4880 3476 -2.626403927071540e-02
4880 4880 2.072437100826989e+00
4881 853 -1.004952765841183e+00
4881 2658 -1.009904653232749e+00
4881 3384 -1.000000000000000e+00
4881 4881 3.014857419073933e+00
4882 857 -1.000000000000000e+00
4882 1904 -9.552480189956475e-03
4882 2115 -1.000000000000000e+00
4882 3325 -2.118345225566348e-03
4882 4882 2.011670825415523e+00
4883 427 -1.000000000000000e+00
4883 993 -1.000000000000000e+00
4883 3672 -2.032070850434734e-02
4883 3748 -1.950828892513263e-02
4883 4883 2.039828997429480e+00
4884 102 -1.000000000000000e+00
4884 655 -6.617349809115306e-03
4884 1965 -1.010855997503501e+00
4884 2375 -1.576588067561448e-05
4884 2498 -2.211092337420728e-02
4884 4884 2.040938392991067e+00
4885 141 -1.000000000000000e+00
4885 4803 -1.035206985713274e+00
4885 4885 3.035206985713273e+00
4886 494 -1.695204261839219e-02
4886 1494 -1.000000000000000e+00
4886 1675 -3.164038754867179e-02
4886 4169 -1.000000000000000e+00
4886 4886 2.048592430167064e+00
4887 532 -2.082817397295846e-02
4887 612 -1.000000000000000e+00
4887 892 -2.708749627429677e-02
4887 2746 -1.000000000000000e+00
4887 4887 2.047915670247255e+00
4888 558 -1.016570860136821e+00
4888 945 -1.015247476877718e+00
4888 4888 2.031818337014539e+00
4889 499 -1.000000000000000e+00
4889 716 -2.324544960126641e-02
4889 1987 -1.586414109681535e-02
4889 2610 -1.000000000000000e+00
4889 2809 -2.365623004906776e-02
4889 3069 -2.396302040504298e-02
4889 4889 2.086728841152192e+00
4890 424 -1.585922205920635e-02
4890 501 -1.022768510214575e+00
4890 591 -6.817330687928885e-03
4890 773 -1.000000000000000e+00
4890 1361 -1.696698764650259e-02
4890 3810 -1.000000000000000e+00
4890 4890 3.062412050608213e+00
4891 189 -1.000000000000000e+00
4891 3337 -1.000000000000000e+00
4891 3733 -5.577571638776891e-03
4891 4891 2.025948872860641e+00
4892 62 -3.496105397989782e-03
4892 239 -1.000000000000000e+00
4892 470 -1.000000000000000e+00
4892 4713 -7.409393627765725e-03
4892 4858 -2.516134698487742e-02
4892 4892 2.036066846010633e+00
4893 719 -5.351365092931197e-03
4893 978 -1.950320525538348e-02
4893 1589 -1.000000000000000e+00
4893 1917 -1.000000000000000e+00
4893 4893 2.024854570348315e+00
4894 155 -1.000000000000000e+00
4894 1238 -2.828803919399596e-02
4894 2207 -1.000000000000000e+00
4894 2418 -6.311072240668632e-03
4894 4894 2.034599111434665e+00
4895 1453 -2.164521151748796e-02
4895 1516 -1.550200913059865e-02
4895 2469 -2.053773678898118e-02
4895 4253 -1.730699825950231e-02
4895 4541 -1.000000000000000e+00
4895 4804 -1.000000000000000e+00
4895 4895 2.074991955696570e+00
4896 834 -1.000000000000000e+00
4896 1374 -2.051756861544542e-03
4896 2020 -1.000000000000000e+00
4896 3853 -2.507214399170589e-02
4896 4896 2.027123900853250e+00
4897 339 -1.000000000000000e+00
4897 585 -2.715514875230579e-02
4897 1031 -1.000000000000000e+00
4897 2833 -3.029367677375542e-02
4897 4897 2.078932520765816e+00
4898 66 -1.000000000000000e+00
4898 655 -1.000000000000000e+00
4898 1706 -6.609212685537093e-03
4898 1965 -1.734305684874542e-02
4898 2364 -1.614411109037180e-03
4898 4277 -9.501623299990939e-03
4898 4853 -1.757365602574251e-03
4898 4884 -1.338356423568066e-03
4898 4898 2.038164025969453e+00
4899 53 -1.000000000000000e+00
4899 1065 -1.218317199137950e-02
4899 2135 -1.016230090370398e+00
4899 2885 -3.585843052604468e-04
4899 4899 2.028771846667038e+00
4900 197 -1.000000000000000e+00
4900 4102 -1.000000000000000e+00
4900 4900 3.005971098514081e+00
4901 95 -1.000000000000000e+00
4901 1417 -1.695841489970230e-02
4901 1607 -1.000000000000000e+00
4901 1669 -1.000000000000000e+00
4901 2680 -3.499570322631186e-02
4901 3056 -1.488424051139542e-02
4901 4810 -8.885445079815955e-03
4901 4901 3.075723803717226e+00
4902 318 -1.000000000000000e+00
4902 1681 -1.000000000000000e+00
4902 2539 -7.774305592064995e-03
4902 4657 -1.941384609254769e-02
4902 4902 2.027188151684613e+00
4903 1 -2.572220221000164e-02
4903 535 -1.000000000000000e+00
4903 788 -2.862360650266219e-02
4903 1373 -2.379335499391465e-02
4903 1380 -1.000000000000000e+00
4903 1627 -3.003271923274870e-02
4903 2487 -2.993489056236471e-02
4903 2962 -2.846986878863801e-02
4903 4250 -2.790124706027014e-02
4903 4372 -3.128017104129015e-02
4903 4903 2.225758060391890e+00
4904 29 -1.421547919680903e-02
4904 162 -1.000000000000000e+00
4904 166 -1.493686227077647e-02
4904 3144 -1.000000000000000e+00
4904 4242 -8.924680957822473e-03
4904 4904 2.068727792703863e+00
4905 645 -5.642843781958101e-03
4905 1006 -2.005599343307593e-02
4905 1419 -1.248043258843099e-02
4905 1456 -2.518482154483595e-03
4905 3703 -1.008413313328673e+00
4905 4323 -1.218730349549646e-02
4905 4550 -1.000000000000000e+00
4905 4905 2.061298368782118e+00
4906 1 -1.000000000000000e+00
4906 335 -1.000000000000000e+00
4906 1800 -1.000000000000000e+00
4906 4906 3.000000000000000e+00
4907 132 -1.000000000000000e+00
4907 289 -1.477274540051247e-02
4907 2372 -1.000000000000000e+00
4907 2433 -8.590237926471943e-03
4907 4907 2.023362983326984e+00
4908 5 -1.000000000000000e+00
4908 83 -1.000000000000000e+00
4908 817 -1.768689723530469e-02
4908 1040 -3.268825481215773e-02
4908 1531 -2.111052148898169e-02
4908 4908 2.071485673536444e+00
4909 495 -1.000000000000000e+00
4909 637 -1.000000000000000e+00
4909 2167 -3.237532340182854e-02
4909 2695 -1.217255721121616e-02
4909 4909 2.044547880613045e+00
4910 2241 -1.000000000000000e+00
4910 4900 -1.005971098514081e+00
4910 4910 2.005971098514081e+00
4911 361 -1.997164359469367e-02
4911 1023 -1.000000000000000e+00
4911 2237 -1.000000000000000e+00
4911 3706 -2.176437053289261e-02
4911 4911 2.041736014127586e+00
4912 1206 -1.000000000000000e+00
4912 1745 -1.000000000000000e+00
4912 2881 -1.000000000000000e+00
4912 4076 -6.938684866738942e-03
4912 4346 -1.341303213949906e-02
4912 4912 3.020351717006238e+00
4913 210 -1.941338906403107e-02
4913 4183 -1.000000000000000e+00
4913 4796 -1.000000000000000e+00
4913 4913 2.051222076958552e+00
4914 375 -1.000000000000000e+00
4914 1038 -1.560208768551804e-02
4914 2307 -1.000000000000000e+00
4914 4914 4.036762835889904e+00
4915 525 -1.000000000000000e+00
4915 2835 -2.105236261781983e-02
4915 3004 -1.000000000000000e+00
4915 3427 -7.609821318773879e-03
4915 4915 2.028662183936594e+00
4916 575 -1.000000000000000e+00
4916 1838 -2.910117176240397e-02
4916 4615 -1.008290350470959e+00
4916 4916 2.037391522233364e+00
4917 737 -1.006107871759461e+00
4917 2465 -1.000000000000000e+00
4917 3595 -2.102217274441227e-03
4917 4917 3.008210089033902e+00
4918 23 -1.000000000000000e+00
4918 119 -1.000000000000000e+00
4918 1562 -1.028788270896380e-02
4918 1723 -1.571341813281613e-02
4918 4918 2.026001300841780e+00
4919 725 -1.000000000000000e+00
4919 4535 -9.511282998549383e-03
4919 4561 -1.000000000000000e+00
4919 4636 -2.757580210232480e-02
4919 4919 2.047255265499831e+00
4920 157 -1.000000000000000e+00
4920 3541 -1.006353167082211e+00
4920 3934 -2.860977636980542e-03
4920 4920 2.026098684237906e+00
4921 406 -1.000000000000000e+00
4921 2482 -1.000000000000000e+00
4921 3626 -1.000000000000000e+00
4921 4296 -6.896371630126642e-03
4921 4921 3.021370195457248e+00
4922 2610 -1.000000000000000e+00
4922 2809 -1.026571899521753e+00
4922 2830 -3.020850152966012e-02
4922 4922 2.056780401051413e+00
4923 850 -1.013504467909008e+00
4923 2718 -1.000000000000000e+00
4923 3529 -2.524078930218707e-02
4923 3711 -1.000000000000000e+00
4923 4923 3.038745257211195e+00
4924 1401 -1.000000000000000e+00
4924 2017 -1.000000000000000e+00
4924 2239 -1.000000000000000e+00
4924 4924 3.000000000000000e+00
4925 2637 -1.000000000000000e+00
4925 2801 -1.001566768283346e+00
4925 4925 2.001566768283346e+00
4926 632 -1.000000000000000e+00
4926 3769 -1.007689488799990e+00
4926 4926 2.007689488799990e+00
4927 221 -1.798460161426810e-02
4927 2307 -1.000000000000000e+00
4927 2693 -1.000000000000000e+00
4927 4606 -1.399533655819611e-02
4927 4927 2.031979938172464e+00
4928 66 -1.000000000000000e+00
4928 1062 -1.000000000000000e+00
4928 4928 3.000000000000000e+00
4929 19 -1.000000000000000e+00
4929 1886 -3.130438327597917e-02
4929 3906 -1.000000000000000e+00
4929 4119 -4.795430038698799e-03
4929 4929 2.036099813314678e+00
4930 5 -1.000000000000000e+00
4930 13 -1.000000000000000e+00
4930 1575 -1.251353833736116e-02
4930 1705 -9.447427391563722e-03
4930 4930 2.021960965728925e+00
4931 859 -8.045141562593373e-03
4931 1424 -1.000000000000000e+00
4931 3387 -1.000000000000000e+00
4931 3801 -8.232702472110409e-04
4931 4931 2.008868411809805e+00
4932 1050 -1.026735018966630e+00
4932 4008 -1.000000000000000e+00
4932 4556 -7.664370140451007e-03
4932 4932 2.034399389107081e+00
4933 629 -1.000000000000000e+00
4933 3196 -2.011376915046355e-02
4933 3220 -1.000000000000000e+00
4933 3898 -1.994251088349355e-02
4933 4933 2.040056280033957e+00
4934 601 -1.000000000000000e+00
4934 667 -1.000000000000000e+00
4934 1959 -1.460617189498572e-02
4934 4872 -1.912528286947907e-02
4934 4934 2.033731454764465e+00
4935 155 -1.000000000000000e+00
4935 256 -1.000000000000000e+00
4935 327 -1.649788820630397e-02
4935 1137 -1.286450040893755e-02
4935 4415 -1.000000000000000e+00
4935 4935 3.029362388615242e+00
4936 17 -1.000000000000000e+00
4936 3649 -1.015932852879262e+00
4936 3960 -2.069500220444985e-02
4936 4936 2.036627855083712e+00
4937 1091 -1.001433630000158e+00
4937 2894 -1.000000000000000e+00
4937 3086 -1.792590725815943e-03
4937 3552 -7.745188799338574e-03
4937 3783 -1.897263303910833e-02
4937 4937 2.029944042564421e+00
4938 640 -1.000000000000000e+00
4938 3146 -1.108792815337794e-02
4938 4928 -1.000000000000000e+00
4938 4938 2.031518087913046e+00
4939 912 -1.000000000000000e+00
4939 1454 -1.015500956329169e+00
4939 2820 -7.445941164200075e-03
4939 3914 -2.227990324956294e-02
4939 4302 -9.811526373965660e-03
4939 4939 2.055038327116897e+00
4940 1 -1.000000000000000e+00
4940 653 -1.000000000000000e+00
4940 744 -1.018554365120189e-02
4940 1072 -1.743539400975759e-02
4940 2123 -1.155774943947854e-02
4940 2773 -9.026285807323346e-03
4940 4940 2.048204972907761e+00
4941 4 -1.000000000000000e+00
4941 1389 -1.795170016219483e-02
4941 2258 -1.932246968179446e-02
4941 3037 -1.000000000000000e+00
4941 4941 2.055927975962132e+00
4942 577 -2.075699601649987e-02
4942 1583 -1.000000000000000e+00
4942 2029 -1.019684488878507e+00
4942 3644 -1.000000000000000e+00
4942 4331 -1.110370030927925e-02
4942 4942 5.051545185204286e+00
4943 79 -1.000000000000000e+00
4943 386 -2.749673169729540e-02
4943 1817 -1.000000000000000e+00
4943 4394 -1.140227146366899e-02
4943 4943 2.038899003160965e+00
4944 28 -1.000000000000000e+00
4944 1066 -1.000000000000000e+00
4944 2835 -8.711485960694189e-03
4944 3937 -3.489942945080826e-02
4944 4944 2.043610915411502e+00
4945 181 -1.609868721970575e-02
4945 509 -1.011116682360721e+00
4945 538 -1.000000000000000e+00
4945 1571 -1.000000000000000e+00
4945 2385 -1.401270892355836e-02
4945 4945 4.041228078503985e+00
4946 113 -1.000000000000000e+00
4946 1389 -4.772359942998001e-03
4946 2486 -1.000000000000000e+00
4946 4946 2.011234896312724e+00
4947 162 -1.000000000000000e+00
4947 743 -1.774064589046360e-02
4947 1777 -1.381268966926276e-02
4947 1814 -1.000000000000000e+00
4947 1922 -2.910684813262298e-02
4947 2175 -2.225445438166140e-02
4947 2890 -2.247506659522460e-02
4947 3497 -3.014447313813356e-02
4947 4319 -3.633309518245442e-02
4947 4947 2.185193189986519e+00
4948 8 -1.000000000000000e+00
4948 1014 -1.000000000000000e+00
4948 1805 -5.869538489207135e-03
4948 2633 -1.000000000000000e+00
4948 2976 -1.011828709942405e+00
4948 4948 4.017698248431612e+00
4949 7 -1.000000000000000e+00
4949 752 -2.365318812896550e-02
4949 2302 -1.000000000000000e+00
4949 4384 -1.568809917232059e-02
4949 4949 2.039341287301286e+00
4950 150 -1.000000000000000e+00
4950 905 -2.299702070471292e-03
4950 1715 -1.013134017444302e+00
4950 1815 -9.469252519483350e-03
4950 4457 -7.505319378603860e-03
4950 4950 2.032408291412860e+00
4951 7 -1.000000000000000e+00
4951 799 -6.263591078294399e-03
4951 947 -1.000000000000000e+00
4951 1389 -1.006956823461550e+00
4951 1471 -1.261977123859551e-02
4951 1609 -9.512339842932436e-03
4951 1937 -1.936736796447750e-02
4951 2770 -1.548607193590333e-02
4951 4941 -1.865380611814217e-02
4951 4946 -6.462536369725513e-03
4951 4951 3.095322308009621e+00
4952 291 -2.168069556530803e-02
4952 911 -1.000000000000000e+00
4952 1449 -1.841651763360824e-02
4952 1521 -1.000000000000000e+00
4952 3247 -1.000000000000000e+00
4952 4952 3.040097213198916e+00
4953 57 -1.000000000000000e+00
4953 170 -1.531446849822568e-02
4953 3885 -1.000000000000000e+00
4953 4393 -2.804982598464099e-03
4953 4571 -1.191025058226293e-02
4953 4953 2.030029701678953e+00
4954 1043 -4.119655139035216e-03
4954 1477 -1.116197969470466e-02
4954 1711 -3.977943113314207e-03
4954 3689 -7.313304819730180e-04
4954 4049 -1.003184556285059e+00
4954 4101 -1.000000000000000e+00
4954 4954 2.023175464714086e+00
4955 1399 -1.019534821259183e+00
4955 2361 -1.000000000000000e+00
4955 4955 2.019534821259183e+00
4956 143 -1.000000000000000e+00
4956 612 -1.000000000000000e+00
4956 3453 -1.549479359635239e-02
4956 3983 -1.269244258489300e-02
4956 4956 2.028187236181245e+00
4957 577 -3.165085390625954e-03
4957 2029 -2.312654777186960e-02
4957 4632 -1.000000000000000e+00
4957 4942 -1.000000000000000e+00
4957 4957 2.026291633162495e+00
4958 240 -1.000000000000000e+00
4958 312 -1.436133520553541e-02
4958 1440 -1.000000000000000e+00
4958 1456 -9.164837897369837e-03
4958 2218 -2.948061099428880e-03
4958 3449 -1.281335435409945e-02
4958 4958 2.039287588556434e+00
4959 1053 -1.006105855229646e+00
4959 1258 -1.000000000000000e+00
4959 3259 -1.592756100740785e-02
4959 4959 2.022033416237054e+00
4960 305 -1.134811488668972e-02
4960 535 -1.000000000000000e+00
4960 1046 -1.000000000000000e+00
4960 2575 -5.243340996211856e-03
4960 4960 2.016591455882902e+00
4961 510 -1.265977817357353e-02
4961 1047 -9.067229756018333e-03
4961 2129 -1.000000000000000e+00
4961 2663 -8.922045931208124e-03
4961 4671 -1.000000000000000e+00
4961 4961 2.030649053860800e+00
4962 240 -1.000000000000000e+00
4962 364 -1.030596033337731e-02
4962 1214 -1.000000000000000e+00
4962 2283 -1.932202571335573e-02
4962 4962 2.029627986046733e+00
4963 16 -1.000000000000000e+00
4963 1574 -1.000000000000000e+00
4963 3228 -1.348634180630974e-02
4963 4904 -3.065077027845542e-02
4963 4963 2.044137112084765e+00
4964 7 -1.000000000000000e+00
4964 192 -2.699941733109824e-02
4964 566 -1.585451407645402e-02
4964 2710 -2.214319026055797e-02
4964 4368 -1.000000000000000e+00
4964 4964 2.064997121668110e+00
4965 40 -1.012588409744880e+00
4965 2074 -1.000000000000000e+00
4965 3078 -2.185604049705068e-02
4965 3897 -1.580630272037519e-02
4965 4965 2.050250752962306e+00
4966 1 -1.000000000000000e+00
4966 202 -1.633376505791975e-02
4966 3721 -1.000000000000000e+00
4966 4364 -3.290142107525935e-02
4966 4966 2.049235186133179e+00
4967 427 -1.000000000000000e+00
4967 1252 -1.467268106007411e-02
4967 3501 -1.000000000000000e+00
4967 3537 -2.943280591487988e-02
4967 4967 2.044105486974954e+00
4968 647 -1.000000000000000e+00
4968 2368 -1.001812652733425e+00
4968 3546 -3.980434674879818e-03
4968 4968 2.005793087408305e+00
4969 450 -1.000000000000000e+00
4969 2247 -1.005865214293685e+00
4969 3003 -4.927907460792436e-03
4969 4969 2.010793121754477e+00
4970 142 -1.001839367166591e+00
4970 1000 -1.460274231305424e-02
4970 1103 -3.129159411016861e-03
4970 1319 -4.911882157021965e-03
4970 4248 -1.000000000000000e+00
4970 4970 2.024483151047684e+00
4971 2132 -1.012486646938348e+00
4971 3477 -1.008251610427900e-02
4971 4062 -1.000000000000000e+00
4971 4168 -1.102098529596714e-02
4971 4971 2.033590148338594e+00
4972 121 -1.000000000000000e+00
4972 980 -1.000000000000000e+00
4972 1390 -2.613659561127192e-02
4972 3936 -2.588413067754095e-02
4972 4972 2.052020726288813e+00
4973 2 -1.000000000000000e+00
4973 23 -1.000000000000000e+00
4973 520 -1.782674373522657e-02
4973 622 -1.895520178051591e-02
4973 1122 -2.154891242042752e-02
4973 4437 -1.020046707914974e+00
4973 4857 -1.741920934825371e-02
4973 4973 3.095796775199398e+00
4974 387 -1.000000000000000e+00
4974 2279 -1.011374448924782e+00
4974 4974 2.011374448924782e+00
4975 714 -1.022636575570380e+00
4975 2210 -6.172239435400165e-03
4975 4364 -1.000000000000000e+00
4975 4975 2.028808815005780e+00
4976 2365 -2.058053030078020e-02
4976 2563 -1.000000000000000e+00
4976 2593 -1.000000000000000e+00
4976 3256 -1.372597436081756e-02
4976 4976 2.034306504661598e+00
4977 28 -1.000000000000000e+00
4977 1290 -1.196564648528822e-02
4977 2844 -1.000000000000000e+00
4977 3213 -1.453049161617048e-02
4977 4977 2.044481367397279e+00
4978 641 -1.000000000000000e+00
4978 2744 -1.000000000000000e+00
4978 3203 -2.041263177053147e-02
4978 4384 -1.664787810537558e-02
4978 4978 2.037060509875907e+00
4979 570 -1.013953528415651e+00
4979 1643 -9.310908433940687e-03
4979 2843 -1.000000000000000e+00
4979 4158 -5.065062248657135e-03
4979 4979 2.028329499098248e+00
4980 30 -1.000000000000000e+00
4980 210 -1.000101205665052e+00
4980 216 -2.915541916424022e-03
4980 4108 -4.135685616246780e-03
4980 4796 -1.931143818887546e-03
4980 4913 -3.180868789452112e-02
4980 4980 2.046858155536725e+00
4981 612 -1.000000000000000e+00
4981 1868 -1.497136219028828e-02
4981 2323 -1.992577887188635e-02
4981 3157 -1.338740059867826e-02
4981 3453 -2.986154421291453e-02
4981 3474 -1.000000000000000e+00
4981 4256 -1.591135713287824e-02
4981 4981 2.094057443006646e+00
4982 832 -3.500445996891771e-04
4982 1615 -1.006707276453705e+00
4982 1930 -7.628046402269808e-03
4982 2050 -1.000000000000000e+00
4982 4982 2.022249139259344e+00
4983 1214 -1.000000000000000e+00
4983 1941 -1.895638465541200e-02
4983 2256 -2.272384461138118e-04
4983 2362 -1.000000000000000e+00
4983 2905 -9.903761299729358e-03
4983 3046 -2.979915430187098e-03
4983 3116 -3.178601944050991e-03
4983 4033 -8.018540775206617e-05
4983 4209 -1.993907523805762e-02
4983 4983 2.055265162421303e+00
4984 97 -1.000000000000000e+00
4984 517 -1.000000000000000e+00
4984 847 -1.970041436382400e-02
4984 1793 -1.071561671315921e-02
4984 4984 2.030416031076983e+00
4985 206 -1.000000000000000e+00
4985 359 -1.632307978713441e-02
4985 365 -1.000000000000000e+00
4985 1133 -1.877393335206403e-02
4985 4196 -1.155902875216362e-02
4985 4985 2.046656041891362e+00
4986 3541 -1.000000000000000e+00
4986 3934 -1.007089679564026e+00
4986 4920 -1.688453951871409e-02
4986 4986 2.023974219082739e+00
4987 23 -1.000000000000000e+00
4987 199 -1.000000000000000e+00
4987 1854 -2.366240507365366e-03
4987 1927 -1.509805763923047e-02
4987 4987 2.017464298146596e+00
4988 1734 -1.002842171323247e+00
4988 2054 -1.507771313067636e-02
4988 2654 -4.979158094061644e-03
4988 2741 -1.000000000000000e+00
4988 4988 2.022899042547985e+00
4989 147 -1.000000000000000e+00
4989 2027 -1.000000000000000e+00
4989 3566 -3.492006945404850e-03
4989 3903 -7.073324018897174e-03
4989 4989 2.010565330964302e+00
4990 237 -1.240332329513198e-02
4990 526 -1.797271853937272e-02
4990 760 -2.616302347469023e-02
4990 1955 -1.000000000000000e+00
4990 2906 -1.835344556913144e-02
4990 3078 -1.334648818745749e-02
4990 3882 -1.000000000000000e+00
4990 4527 -1.071365185125449e-02
4990 4990 2.098952650917038e+00
4991 448 -1.000000000000000e+00
4991 2794 -1.007553682411406e+00
4991 4991 2.007553682411406e+00
4992 338 -1.000000000000000e+00
4992 2735 -1.009412144995423e+00
4992 4992 2.009412144995423e+00
4993 164 -1.019002425029202e+00
4993 1191 -1.000000000000000e+00
4993 2000 -1.879299749496489e-02
4993 4171 -1.403779375574325e-02
4993 4993 2.051833216279911e+00
4994 48 -1.000000000000000e+00
4994 919 -1.000000000000000e+00
4994 3595 -1.088591144757727e-03
4994 4000 -1.868023944336582e-02
4994 4658 -1.312431985438391e-02
4994 4917 -1.000000000000000e+00
4994 4994 3.032893150442507e+00
4995 746 -2.300326764058958e-02
4995 786 -1.000000000000000e+00
4995 3596 -1.000000000000000e+00
4995 4296 -9.369964917978548e-04
4995 4921 -1.447382382712148e-02
4995 4995 2.038414087959509e+00
4996 1025 -1.007518466117614e+00
4996 2604 -2.364408687755152e-02
4996 4745 -1.000000000000000e+00
4996 4996 2.031162552995165e+00
4997 227 -1.000000000000000e+00
4997 703 -1.026485982421389e+00
4997 2443 -3.108884885923628e-02
4997 2719 -2.526706667677820e-02
4997 4997 2.082841897957403e+00
4998 2 -1.000000000000000e+00
4998 983 -1.756986637306581e-02
4998 2588 -1.554167941782385e-02
4998 3011 -1.000000000000000e+00
4998 3094 -1.000000000000000e+00
4998 4998 3.033111545790890e+00
4999 133 -1.000000000000000e+00
4999 535 -1.000000000000000e+00
4999 1580 -1.364301985824542e-02
4999 1832 -2.160864480584765e-02
4999 1994 -1.780207556211956e-02
4999 4999 2.053053740226213e+00
5000 510 -1.000000000000000e+00
5000 1047 -1.000000000000000e+00
5000 1990 -1.652197937168873e-02
5000 2177 -2.406167561387692e-02
5000 5000 2.040583654985566e+00
5001 451 -1.000000000000000e+00
5001 1257 -1.000000000000000e+00
5001 5001 2.000000000000000e+00
5002 2472 -1.000000000000000e+00
5002 3540 -1.000000000000000e+00
5002 3713 -1.257196217605532e-02
5002 4675 -1.459103620307289e-03
5002 5002 2.014031065796363e+00
5003 541 -1.000000000000000e+00
5003 642 -1.000000000000000e+00
5003 2303 -1.705751363731384e-02
5003 3297 -1.181801047993846e-02
5003 3731 -2.201548203063588e-02
5003 5003 2.050891006147888e+00
5004 319 -1.000000000000000e+00
5004 775 -1.000000000000000e+00
5004 4301 -2.410375047257603e-02
5004 4512 -1.993468389666047e-02
5004 5004 2.044038434369237e+00
5005 430 -1.000000000000000e+00
5005 695 -1.000000000000000e+00
5005 2418 -1.000000000000000e+00
5005 5005 3.000000000000000e+00
5006 3127 -1.000000000000000e+00
5006 3293 -1.009481052159934e+00
5006 4453 -7.642476580864127e-03
5006 5006 3.037642880272437e+00
5007 338 -1.000000000000000e+00
5007 2845 -1.563243872562490e-02
5007 3370 -1.000000000000000e+00
5007 3532 -3.575922459175335e-03
5007 5007 2.019208361184800e+00
5008 1099 -7.730741240734766e-03
5008 1912 -1.000000000000000e+00
5008 4542 -2.292365776089057e-02
5008 4914 -1.021160748204387e+00
5008 5008 2.051815147206012e+00
5009 89 -1.000000000000000e+00
5009 2363 -1.000000000000000e+00
5009 2641 -1.832099090831094e-02
5009 3661 -8.136251862203726e-03
5009 5009 2.026457242770515e+00
5010 393 -1.000000000000000e+00
5010 606 -1.783892053961489e-02
5010 3800 -4.484162310614661e-03
5010 3805 -1.000000000000000e+00
5010 5010 2.022323082850229e+00
5011 775 -7.063941248914412e-03
5011 832 -1.000000000000000e+00
5011 1265 -1.000000000000000e+00
5011 1776 -1.251103350497476e-02
5011 1930 -1.206965030525663e-02
5011 4982 -7.563771803680035e-03
5011 5011 2.039208396862826e+00
5012 5 -1.000000000000000e+00
5012 215 -1.018350727653367e+00
5012 2290 -9.478510284325204e-04
5012 2298 -9.296747830837877e-03
5012 4885 -1.000000000000000e+00
5012 5012 3.028595326512637e+00
5013 2273 -1.000000000000000e+00
5013 3722 -1.005182782365537e+00
5013 4588 -2.355973111864114e-02
5013 5013 2.028742513484179e+00
5014 906 -1.000000000000000e+00
5014 1123 -1.032703797336319e-03
5014 1573 -1.764934094783304e-02
5014 2291 -1.913995792832196e-02
5014 2691 -1.000000000000000e+00
5014 4451 -1.000000000000000e+00
5014 5014 3.037822002673491e+00
5015 887 -1.000000000000000e+00
5015 1579 -1.000890647142036e+00
5015 5015 2.000890647142036e+00
5016 60 -1.000000000000000e+00
5016 103 -1.009939410885356e+00
5016 3816 -1.501927419901714e-02
5016 5016 2.024958685084373e+00
5017 102 -1.000000000000000e+00
5017 4878 -1.001487489896015e+00
5017 5017 2.001487489896015e+00
5018 1394 -1.000000000000000e+00
5018 2581 -1.064400340535256e-02
5018 4548 -2.325782015821003e-03
5018 4859 -1.000000000000000e+00
5018 5018 2.012969785421173e+00
5019 162 -1.974594776552932e-02
5019 521 -1.018427123408087e+00
5019 4698 -1.000000000000000e+00
5019 4815 -2.340899481675752e-02
5019 5019 2.061582065990374e+00
5020 152 -1.000000000000000e+00
5020 4171 -1.000000000000000e+00
5020 4604 -1.000000000000000e+00
5020 5020 3.000000000000000e+00
5021 75 -2.014058889310844e-02
5021 371 -1.000000000000000e+00
5021 3437 -2.804739761183677e-02
5021 3451 -1.000000000000000e+00
5021 5021 2.048187986504945e+00
5022 1421 -1.000000000000000e+00
5022 2699 -1.635989377147177e-02
5022 3946 -1.000000000000000e+00
5022 4054 -1.526939303185106e-02
5022 5022 2.031629286803323e+00
5023 254 -1.000000000000000e+00
5023 1994 -1.000000000000000e+00
5023 2963 -2.551403534051477e-02
5023 4278 -9.586791892385578e-03
5023 5006 -1.020519351531640e+00
5023 5023 3.055620178764540e+00
5024 76 -1.000000000000000e+00
5024 227 -2.293040443744036e-02
5024 1130 -1.000000000000000e+00
5024 3001 -1.578481949195734e-02
5024 5024 2.038715223929398e+00
5025 182 -2.056624308324509e-02
5025 225 -2.591364569519790e-02
5025 498 -1.000000000000000e+00
5025 1048 -1.000000000000000e+00
5025 5025 2.046479888778443e+00
5026 97 -1.000000000000000e+00
5026 1295 -2.433293315402881e-03
5026 1610 -5.152874245508852e-03
5026 2031 -1.000766974347961e+00
5026 3284 -1.213335291541567e-02
5026 5026 2.020486494824288e+00
5027 40 -1.000000000000000e+00
5027 3160 -1.531485600981915e-02
5027 3408 -1.452924923564634e-02
5027 4206 -1.000000000000000e+00
5027 4527 -2.017165973413328e-02
5027 4691 -1.000000000000000e+00
5027 5027 3.050015764979599e+00
5028 83 -1.000000000000000e+00
5028 573 -1.000000000000000e+00
5028 913 -2.777335260091651e-02
5028 2252 -2.456241565294546e-02
5028 2933 -1.000000000000000e+00
5028 5028 3.052335768253862e+00
5029 45 -1.000000000000000e+00
5029 1257 -1.000000000000000e+00
5029 5029 2.000000000000000e+00
5030 1195 -1.000000000000000e+00
5030 1210 -1.008710649896549e+00
5030 4775 -1.782156424387280e-02
5030 5030 2.026532214140422e+00
5031 972 -1.122991694784706e-02
5031 2102 -1.901018426032113e-02
5031 2531 -1.000000000000000e+00
5031 2694 -8.920480736415718e-03
5031 3688 -1.000000000000000e+00
5031 4847 -1.498077273236130e-02
5031 5031 2.054141354676945e+00
5032 1 -1.000000000000000e+00
5032 509 -1.000000000000000e+00
5032 4154 -2.065851514022386e-02
5032 4666 -1.349715698510361e-02
5032 5032 2.050432405225064e+00
5033 624 -1.003828509654862e+00
5033 773 -1.206229795581811e-02
5033 1092 -3.197066826236858e-02
5033 2199 -1.015816784458842e+00
5033 2387 -1.617195165393587e-02
5033 2457 -2.511758477355287e-02
5033 2499 -1.966823159751980e-02
5033 3024 -2.821023196553986e-02
5033 3296 -1.882448920856161e-02
5033 4298 -2.666529580897601e-02
5033 5033 2.206054522940523e+00
5034 17 -1.000000000000000e+00
5034 1842 -2.256091409913148e-02
5034 2168 -1.377176949333435e-02
5034 2697 -1.679483639050635e-02
5034 3518 -1.060512048236522e-02
5034 4131 -8.457088206761264e-03
5034 4243 -1.000000000000000e+00
5034 4437 -6.035294119579430e-03
5034 4531 -1.812816561716094e-02
5034 5034 2.096353188408839e+00
5035 153 -1.000000000000000e+00
5035 1187 -1.000000000000000e+00
5035 1559 -1.539223730224023e-02
5035 2406 -1.000000000000000e+00
5035 4352 -1.260155247424830e-02
5035 5035 3.027993789776489e+00
5036 472 -1.000000000000000e+00
5036 1101 -1.000000000000000e+00
5036 1947 -1.000000000000000e+00
5036 5036 3.000000000000000e+00
5037 1 -1.000000000000000e+00
5037 1144 -2.515602628579288e-02
5037 1217 -1.119833372231043e-02
5037 1826 -1.971734676555102e-02
5037 3186 -1.000000000000000e+00
5037 4159 -3.079260270388370e-02
5037 4381 -1.249521612974101e-02
5037 5037 2.099359525607279e+00
5038 254 -1.000000000000000e+00
5038 3460 -1.023594498786936e+00
5038 5038 2.023594498786936e+00
5039 794 -1.629302928035294e-02
5039 929 -9.535692141134190e-03
5039 1603 -1.000000000000000e+00
5039 2819 -1.000000000000000e+00
5039 5039 2.025828721421487e+00
5040 48 -1.000000000000000e+00
5040 963 -3.979617016618101e-02
5040 1651 -1.000000000000000e+00
5040 4680 -3.011805693346474e-02
5040 5040 2.069914227099646e+00
5041 423 -1.000000000000000e+00
5041 2800 -1.002309480868897e+00
5041 5041 2.002309480868897e+00
5042 238 -9.691324483547726e-03
5042 900 -1.000000000000000e+00
5042 1830 -2.418186690282614e-02
5042 3201 -1.000000000000000e+00
5042 3444 -1.000000000000000e+00
5042 5042 3.033873191386374e+00
5043 761 -7.663605152717233e-03
5043 3831 -1.000000000000000e+00
5043 4615 -1.008986868357953e+00
5043 5043 2.016650473510670e+00
5044 1350 -1.000000000000000e+00
5044 1874 -1.747025528946402e-02
5044 2715 -1.000000000000000e+00
5044 3337 -2.716197733924574e-02
5044 3854 -2.339282541677074e-02
5044 4341 -1.000000000000000e+00
5044 4891 -2.037130122186376e-02
5044 5044 3.088396359267344e+00
5045 334 -1.000000000000000e+00
5045 833 -6.123209521650979e-03
5045 2642 -1.030358865162981e-02
5045 2752 -1.000000000000000e+00
5045 2806 -4.683191030850037e-04
5045 3390 -2.828384900724073e-03
5045 4374 -1.853518960132809e-03
5045 5045 2.021577021137223e+00
5046 1094 -1.904787241848984e-02
5046 2457 -1.000000000000000e+00
5046 3432 -1.000000000000000e+00
5046 3496 -5.042765636111009e-03
5046 5046 2.024090638054601e+00
5047 495 -1.000000000000000e+00
5047 606 -1.524812942919331e-02
5047 1185 -1.036408538343176e+00
5047 5047 2.051656667772370e+00
5048 861 -1.000000000000000e+00
5048 3724 -1.007283003005940e+00
5048 5048 2.007283003005940e+00
5049 197 -1.691365495289986e-02
5049 348 -1.000000000000000e+00
5049 1262 -2.373930204451251e-02
5049 4065 -1.000000000000000e+00
5049 5049 3.040652956997413e+00
5050 11 -1.000000000000000e+00
5050 352 -1.000000000000000e+00
5050 3068 -3.040599752485665e-02
5050 3529 -2.276143929817657e-02
5050 5050 2.076415092907472e+00
5051 5 -1.000000000000000e+00
5051 233 -1.000000000000000e+00
5051 1970 -1.989425361376396e-02
5051 5051 2.040848449012871e+00
5052 1123 -1.000000000000000e+00
5052 3158 -6.960526510734429e-03
5052 3824 -1.014427643542384e+00
5052 3889 -1.193023011167212e-02
5052 5052 2.033318400164790e+00
5053 125 -1.015521216524165e+00
5053 782 -1.000000000000000e+00
5053 784 -1.974880824318156e-02
5053 1961 -9.413324123669440e-03
5053 2675 -1.440642052346644e-02
5053 3360 -3.673669334778977e-03
5053 4023 -1.532910926690997e-02
5053 5053 2.078092548016171e+00
5054 63 -1.000000000000000e+00
5054 2718 -1.000000000000000e+00
5054 2810 -4.182289579561063e-03
5054 3498 -1.486880973412564e-03
5054 4597 -6.400415345699591e-03
5054 5054 2.012069585898673e+00
5055 597 -1.000000000000000e+00
5055 731 -1.153819827756140e-02
5055 874 -9.600467319681120e-03
5055 1684 -1.000000000000000e+00
5055 1954 -1.916863813116112e-02
5055 1979 -2.148917421206326e-02
5055 3726 -1.739148483181181e-02
5055 5055 2.079187962772279e+00
5056 1 -1.000000000000000e+00
5056 3 -1.000000000000000e+00
5056 827 -3.184582287861823e-02
5056 3018 -3.367292596041072e-02
5056 5056 2.065518748839029e+00
5057 75 -1.000000000000000e+00
5057 96 -1.018124791275159e-02
5057 956 -1.000000000000000e+00
5057 4302 -1.446607953058431e-02
5057 5057 2.024647327443336e+00
5058 393 -1.000000000000000e+00
5058 1691 -2.758174327248513e-03
5058 2934 -1.000000000000000e+00
5058 5032 -1.627673309973643e-02
5058 5058 2.019034907426985e+00
5059 248 -1.000000000000000e+00
5059 339 -1.000000000000000e+00
5059 589 -1.774820731477680e-02
5059 616 -1.055041082342663e-02
5059 2329 -2.626149723505027e-02
5059 5059 2.054560115373254e+00
5060 946 -1.000000000000000e+00
5060 1169 -1.000000000000000e+00
5060 1369 -1.569424262901262e-02
5060 2000 -9.551381012761838e-03
5060 5060 2.025245623641775e+00
5061 594 -1.240895099350079e-02
5061 645 -1.000000000000000e+00
5061 1963 -3.459841056604737e-02
5061 3610 -1.000000000000000e+00
5061 4103 -1.000000000000000e+00
5061 5061 3.047007361559548e+00
5062 1595 -1.000000000000000e+00
5062 1731 -5.157452124439190e-03
5062 1745 -6.525418977558226e-03
5062 4800 -1.000000000000000e+00
5062 5062 2.011682871101998e+00
5063 362 -1.008272559273533e+00
5063 2648 -1.000000000000000e+00
5063 2844 -3.811023096687020e-03
5063 4977 -1.798522929582009e-02
5063 5063 2.030068811666040e+00
5064 12 -1.000000000000000e+00
5064 452 -1.189462042222938e-02
5064 1225 -1.000000000000000e+00
5064 1835 -1.000000000000000e+00
5064 2572 -8.367670632456067e-03
5064 5064 3.020262291054685e+00
5065 1043 -1.519274320571923e-02
5065 1160 -1.000000000000000e+00
5065 1623 -1.000000000000000e+00
5065 3057 -1.603933699386275e-02
5065 4049 -1.635627812562964e-02
5065 5065 2.047588358325211e+00
5066 1429 -1.000000000000000e+00
5066 1796 -1.016921148154069e+00
5066 1822 -8.297466700253843e-03
5066 4201 -8.305293981585303e-03
5066 4245 -2.235199690772085e-02
5066 5066 2.055875905743628e+00
5067 56 -1.000000000000000e+00
5067 1430 -1.000000000000000e+00
5067 2149 -1.008060133173191e-02
5067 4734 -8.392313773278919e-03
5067 5067 2.018472915105011e+00
5068 2044 -1.000000000000000e+00
5068 2395 -1.007676532866701e-02
5068 2786 -1.000000000000000e+00
5068 3700 -7.573945338685143e-03
5068 4545 -1.000000000000000e+00
5068 5068 3.017650710667352e+00
5069 988 -1.000000000000000e+00
5069 1368 -1.198892992998775e-03
5069 1465 -1.000000000000000e+00
5069 2017 -1.000000000000000e+00
5069 4450 -3.664442342549502e-03
5069 5069 3.004863335335548e+00
5070 65 -2.300345363348372e-02
5070 173 -1.000000000000000e+00
5070 1570 -2.362805738527538e-02
5070 1608 -1.000000000000000e+00
5070 4413 -1.919212061574794e-02
5070 5070 2.065823631634507e+00
5071 1341 -1.000000000000000e+00
5071 1976 -2.439197500655570e-02
5071 2147 -1.000000000000000e+00
5071 3233 -1.756869194747586e-02
5071 5071 2.041960666954032e+00
5072 174 -1.000000000000000e+00
5072 831 -1.000000000000000e+00
5072 1860 -4.517468980936848e-03
5072 2683 -4.604805169687169e-03
5072 5072 2.009122274150624e+00
5073 93 -1.403852062740006e-02
5073 656 -1.000000000000000e+00
5073 1094 -1.000000000000000e+00
5073 1343 -1.008480361222160e-02
5073 5073 2.024123324239622e+00
5074 195 -1.000000000000000e+00
5074 297 -1.000000000000000e+00
5074 525 -1.005852186984347e-02
5074 2835 -4.294146969615204e-03
5074 3427 -6.720786580754856e-03
5074 5074 2.021073455420213e+00
5075 8 -1.000000000000000e+00
5075 876 -1.000000000000000e+00
5075 896 -1.002913938238984e-02
5075 1757 -1.560658277139214e-02
5075 5075 2.025635722153782e+00
5076 18 -1.000000000000000e+00
5076 198 -1.000000000000000e+00
5076 1155 -1.808919348171829e-02
5076 1307 -1.146669092439155e-02
5076 2803 -1.569340868289662e-02
5076 5051 -2.095419539910698e-02
5076 5076 2.066203488488113e+00
5077 1163 -1.000000000000000e+00
5077 2062 -1.000000000000000e+00
5077 2418 -3.666444349112661e-03
5077 3105 -2.092880228996645e-02
5077 5077 2.024595246639079e+00
5078 521 -1.797903639116910e-02
5078 1287 -9.861078147492182e-03
5078 1406 -1.000000000000000e+00
5078 2689 -9.024984592951476e-03
5078 4120 -9.865415330543005e-03
5078 4319 -1.000000000000000e+00
5078 4855 -1.388765370378038e-02
5078 4947 -1.332591699669551e-02
5078 5078 2.073944085162632e+00
5079 538 -1.000000000000000e+00
5079 1123 -1.000000000000000e+00
5079 2733 -1.199744500597461e-02
5079 3593 -1.944846131537854e-02
5079 5079 2.031445906321353e+00
5080 973 -1.012871278173713e+00
5080 986 -1.000000000000000e+00
5080 4395 -1.000000000000000e+00
5080 4520 -1.675026388300268e-02
5080 5080 3.029621542056716e+00
5081 172 -3.226018629865210e-02
5081 189 -1.000000000000000e+00
5081 234 -2.042556975349482e-02
5081 1556 -1.000000000000000e+00
5081 5081 2.052685756052147e+00
5082 463 -1.000000000000000e+00
5082 4365 -1.002143944094025e+00
5082 5082 2.002143944094025e+00
5083 11 -1.480169165741170e-02
5083 941 -3.852043253568526e-02
5083 2618 -1.000000000000000e+00
5083 3068 -1.000000000000000e+00
5083 3424 -9.993277575365214e-03
5083 4236 -2.435101010590492e-02
5083 5050 -2.324765608443924e-02
5083 5083 2.110914067958806e+00
5084 1936 -1.550813917555316e-02
5084 2607 -1.011389300134826e+00
5084 2926 -2.463749902497618e-02
5084 4112 -1.000000000000000e+00
5084 4914 -1.000000000000000e+00
5084 5084 3.051534938335355e+00
5085 976 -1.000000000000000e+00
5085 3521 -1.000000000000000e+00
5085 3740 -8.443143627044866e-03
5085 4042 -1.035365587954275e-02
5085 5085 2.018796799506588e+00
5086 197 -1.000000000000000e+00
5086 1262 -7.717969674393656e-03
5086 3077 -9.095047707532673e-03
5086 5049 -1.000000000000000e+00
5086 5086 2.016813017381927e+00
5087 1 -1.000000000000000e+00
5087 202 -1.473585674089335e-02
5087 3880 -1.000000000000000e+00
5087 4850 -2.578003815082874e-02
5087 5087 2.040515894891722e+00
5088 2412 -1.009876880422621e+00
5088 4389 -1.000526112041392e+00
5088 5088 2.010402992464014e+00
5089 22 -1.000000000000000e+00
5089 141 -1.000000000000000e+00
5089 1423 -1.189416096600369e-02
5089 2418 -5.706252012066265e-05
5089 5089 2.011951223486125e+00
5090 152 -1.000000000000000e+00
5090 2027 -1.000000000000000e+00
5090 2271 -3.867376675937833e-03
5090 4115 -9.267849301534800e-03
5090 4802 -1.000000000000000e+00
5090 5090 3.013135225977473e+00
5091 918 -1.010936739181007e+00
5091 929 -1.000000000000000e+00
5091 1038 -1.000000000000000e+00
5091 5091 3.010936739181007e+00
5092 269 -6.510948237629790e-03
5092 3804 -1.005852219876876e+00
5092 4166 -1.000000000000000e+00
5092 4787 -1.000000000000000e+00
5092 5092 3.012363168114506e+00
5093 845 -1.000000000000000e+00
5093 1727 -1.725203120445310e-02
5093 3933 -8.745779114173726e-03
5093 4008 -1.000000000000000e+00
5093 5093 2.025997810318627e+00
5094 669 -1.000000000000000e+00
5094 707 -2.070799002616990e-02
5094 2827 -1.951023315037933e-02
5094 3226 -1.715047834776214e-02
5094 3858 -1.000000000000000e+00
5094 4938 -2.043015975966815e-02
5094 5094 2.077798861283980e+00
5095 39 -1.000000000000000e+00
5095 1651 -1.000000000000000e+00
5095 2933 -1.994405075577252e-02
5095 3898 -1.304876503934299e-02
5095 5095 2.032992815795116e+00
5096 227 -1.723683984965481e-02
5096 1374 -1.000000000000000e+00
5096 1531 -5.498250535513515e-03
5096 4169 -1.000000000000000e+00
5096 5096 2.022735090385168e+00
5097 1640 -2.708163198617833e-03
5097 2246 -1.000000000000000e+00
5097 2339 -1.016290173505590e+00
5097 5097 2.018998336704208e+00
5098 352 -1.478240219039767e-02
5098 903 -1.000000000000000e+00
5098 1864 -1.616571583701357e-02
5098 3068 -1.000000000000000e+00
5098 5098 2.030948118027411e+00
5099 403 -2.248694946734818e-02
5099 823 -1.000000000000000e+00
5099 1565 -2.281862930861219e-02
5099 4253 -1.000000000000000e+00
5099 5099 2.045305578775960e+00
5100 141 -1.000000000000000e+00
5100 335 -1.009132939549328e+00
5100 806 -6.147146513530832e-03
5100 5100 2.015280086062859e+00
5101 830 -2.966519908184530e-03
5101 3065 -1.000000000000000e+00
5101 3522 -1.009305430508981e+00
5101 4307 -1.000000000000000e+00
5101 5101 3.012271950417165e+00
5102 482 -1.000000000000000e+00
5102 785 -1.783233107098206e-02
5102 1261 -1.014141249909336e+00
5102 2482 -7.724710461574444e-03
5102 3962 -1.261434823275871e-02
5102 4296 -1.100493892709622e-02
5102 5102 2.063317578601747e+00
5103 517 -1.000000000000000e+00
5103 665 -1.000000000000000e+00
5103 1137 -1.959075441823073e-02
5103 4044 -1.530268627901621e-02
5103 5103 2.034893440697247e+00
5104 50 -1.000000000000000e+00
5104 487 -1.632044546620136e-02
5104 1087 -1.248778187227196e-02
5104 3287 -1.000000000000000e+00
5104 5104 2.028808227338473e+00
5105 302 -1.000000000000000e+00
5105 725 -1.162991869720298e-02
5105 3197 -6.688020758417023e-03
5105 4535 -6.290426661220815e-03
5105 4786 -1.000000000000000e+00
5105 4919 -1.016818039895653e-02
5105 5105 2.034776546515797e+00
5106 115 -1.000000000000000e+00
5106 1482 -1.000000000000000e+00
5106 2273 -1.812950695458031e-02
5106 3458 -1.791022747339030e-02
5106 5106 2.036039734427971e+00
5107 11 -1.000000000000000e+00
5107 1429 -2.540568147005535e-02
5107 1665 -1.000000000000000e+00
5107 2418 -8.087053881976730e-03
5107 4267 -1.616603333050728e-02
5107 5107 2.049658768682539e+00
5108 766 -1.000000000000000e+00
5108 817 -1.000000000000000e+00
5108 1426 -5.356379010872524e-03
5108 2035 -1.638983608449527e-02
5108 5108 2.021746215095368e+00
5109 59 -5.642767975488906e-03
5109 1793 -1.000000000000000e+00
5109 2509 -1.000000000000000e+00
5109 3299 -2.076802937611853e-02
5109 5109 2.026410797351607e+00
5110 18 -1.000000000000000e+00
5110 3484 -1.020283260160016e+00
5110 5110 2.020283260160015e+00
5111 1290 -1.000000000000000e+00
5111 4683 -1.000395350534439e+00
5111 5111 2.000395350534439e+00
5112 105 -1.000000000000000e+00
5112 3067 -1.015338434368806e+00
5112 5112 2.015338434368806e+00
5113 410 -1.000000000000000e+00
5113 661 -1.000000000000000e+00
5113 899 -1.031901605871320e-02
5113 4716 -1.627185536653220e-02
5113 5113 2.026590871425245e+00
5114 142 -1.000000000000000e+00
5114 528 -1.000000000000000e+00
5114 553 -1.084275855964863e-02
5114 1143 -7.381464423512821e-03
5114 2269 -1.401884373434785e-02
5114 5114 2.032243066717509e+00
5115 497 -1.000002116715394e+00
5115 1215 -1.164753304717498e-02
5115 2214 -1.000000000000000e+00
5115 5115 2.011649649762569e+00
5116 2 -1.000000000000000e+00
5116 16 -1.000000000000000e+00
5116 1337 -2.549895452417316e-02
5116 4268 -3.265457734998922e-02
5116 5116 2.058153531874162e+00
5117 1888 -1.000000000000000e+00
5117 3856 -1.000000000000000e+00
5117 4786 -1.000000000000000e+00
5117 5117 3.000000000000000e+00
5118 77 -1.012148460067312e+00
5118 218 -1.009466962499170e+00
5118 3763 -7.345627972850237e-03
5118 5118 2.028961050539332e+00
5119 453 -1.007668692900587e+00
5119 760 -1.000000000000000e+00
5119 1038 -1.000000000000000e+00
5119 5119 3.007668692900587e+00
5120 1342 -6.575447239344391e-03
5120 2758 -1.023535768589996e+00
5120 3493 -1.000000000000000e+00
5120 4569 -1.932475818627264e-02
5120 5120 2.049435974015613e+00
5121 29 -2.853593020692260e-03
5121 475 -1.000000000000000e+00
5121 3486 -1.567472598606970e-02
5121 3698 -1.000000000000000e+00
5121 5121 2.018528319006762e+00
5122 58 -1.000000000000000e+00
5122 212 -2.889902372041961e-02
5122 1105 -3.536952490828056e-02
5122 1314 -1.000000000000000e+00
5122 4803 -1.000000000000000e+00
5122 5122 3.064268548628700e+00
5123 3013 -1.000000000000000e+00
5123 4078 -1.016926827320026e+00
5123 5123 2.016926827320026e+00
5124 2 -1.000000000000000e+00
5124 1135 -2.413414905218679e-02
5124 1238 -2.486576549686575e-02
5124 2239 -1.000000000000000e+00
5124 3648 -3.036765127972962e-02
5124 5124 2.079367565828782e+00
5125 35 -1.000000000000000e+00
5125 1888 -1.015978167485505e+00
5125 3135 -2.062505197332226e-02
5125 5125 2.036603219458827e+00
5126 8 -1.000000000000000e+00
5126 163 -1.026829533772585e+00
5126 464 -1.740722164444135e-02
5126 1360 -5.921621555623460e-03
5126 1474 -1.133848889139879e-02
5126 3403 -1.444915193542722e-02
5126 5126 2.075946017799475e+00
5127 378 -1.000000000000000e+00
5127 2178 -1.000000000000000e+00
5127 2418 -1.062509732105308e-02
5127 2988 -2.736937790053912e-02
5127 4044 -2.479030592673378e-02
5127 4181 -1.620564526996912e-02
5127 5127 2.078990426418295e+00
5128 624 -1.000000000000000e+00
5128 2457 -1.158945541695877e-02
5128 2944 -1.000000000000000e+00
5128 3296 -2.162058362874963e-02
5128 5128 2.033210039045708e+00
5129 138 -1.000000000000000e+00
5129 190 -1.052053690757292e-02
5129 1816 -1.484245954970615e-02
5129 2415 -1.000000000000000e+00
5129 4694 -2.337133972623065e-02
5129 5129 2.048734336183510e+00
5130 433 -4.043846270502506e-03
5130 1788 -1.000000000000000e+00
5130 4203 -1.000000000000000e+00
5130 4459 -5.281744062322111e-03
5130 5130 2.009325590332824e+00
5131 627 -1.000000000000000e+00
5131 931 -1.000000000000000e+00
5131 1298 -3.624033820724610e-02
5131 2402 -1.000000000000000e+00
5131 2537 -1.942842576204166e-02
5131 2584 -1.607429889576279e-02
5131 4481 -2.174268548486813e-02
5131 5131 3.093485748349919e+00
5132 8 -1.000000000000000e+00
5132 9 -1.570543272765842e-02
5132 505 -1.955684432638941e-02
5132 1203 -1.380557742362932e-02
5132 1868 -1.000000000000000e+00
5132 2041 -1.341701156603760e-02
5132 3887 -1.652858217729789e-02
5132 5132 2.079013448221013e+00
5133 28 -1.000000000000000e+00
5133 715 -1.000000000000000e+00
5133 2448 -9.490198515442656e-03
5133 3163 -1.115525206942352e-02
5133 5133 2.020645450584866e+00
5134 8 -1.000000000000000e+00
5134 542 -1.002931436667291e+00
5134 1627 -1.000000000000000e+00
5134 2084 -2.487224281747908e-03
5134 3038 -2.577993189529091e-03
5134 3950 -2.911879115644193e-03
5134 5134 3.010908533254212e+00
5135 276 -1.001660680701025e+00
5135 316 -1.000000000000000e+00
5135 1278 -3.417115947385000e-03
5135 1331 -1.000000000000000e+00
5135 5135 3.005077796648410e+00
5136 87 -1.000000000000000e+00
5136 1643 -1.001441037352206e+00
5136 4724 -1.152631088270887e-02
5136 5136 2.012967348234915e+00
5137 780 -1.456466061412053e-02
5137 1081 -6.222075376613369e-03
5137 1613 -1.000000000000000e+00
5137 2256 -1.062177547779247e-02
5137 2362 -1.000000000000000e+00
5137 4033 -1.000000000000000e+00
5137 4142 -1.239991451779116e-02
5137 4209 -9.796858043238647e-03
5137 5137 3.053605284029556e+00
5138 611 -1.000000000000000e+00
5138 2051 -1.014827023208679e-02
5138 2381 -3.819917057809263e-04
5138 2482 -1.000000000000000e+00
5138 5138 2.010530261937868e+00
5139 27 -1.000000000000000e+00
5139 1564 -1.000000000000000e+00
5139 2251 -8.418225302708573e-03
5139 3027 -2.607411861990485e-03
5139 3929 -1.002485337748570e-02
5139 5139 2.021050490542185e+00
5140 80 -1.000000000000000e+00
5140 1389 -1.000000000000000e+00
5140 3917 -1.896996884189855e-02
5140 4818 -1.778976104852444e-02
5140 5140 2.036759729890423e+00
5141 95 -1.630242789592580e-02
5141 387 -7.504918210382294e-03
5141 820 -1.000000000000000e+00
5141 919 -1.000000000000000e+00
5141 1307 -1.424592993643828e-02
5141 2451 -1.280152769717892e-02
5141 4274 -1.270777345741849e-02
5141 5141 2.063562577197344e+00
5142 72 -1.000000000000000e+00
5142 840 -1.783610732631151e-02
5142 922 -1.000000000000000e+00
5142 1563 -1.423371818456315e-02
5142 2850 -2.061594900353748e-02
5142 4752 -2.028522622124777e-02
5142 5142 2.072971000735660e+00
5143 2311 -1.000000000000000e+00
5143 2842 -1.000000000000000e+00
5143 2919 -1.992664825581663e-02
5143 3555 -1.045277636933434e-02
5143 3968 -1.435065756165472e-02
5143 5143 2.044730082186806e+00
5144 105 -1.141621872733126e-02
5144 201 -1.763757685730394e-02
5144 284 -1.000000000000000e+00
5144 1231 -7.864691367272296e-03
5144 3056 -2.215770419799547e-02
5144 3326 -1.000000000000000e+00
5144 4810 -2.749157225807429e-02
5144 5144 2.086567763407977e+00
5145 5 -1.000000000000000e+00
5145 286 -1.443872011457962e-02
5145 2626 -2.793468262943539e-02
5145 4614 -1.520989760588598e-02
5145 4753 -1.000000000000000e+00
5145 5145 2.057583300349901e+00
5146 2719 -1.701861387743376e-02
5146 3182 -3.301566520330225e-02
5146 3869 -1.000000000000000e+00
5146 4202 -1.000000000000000e+00
5146 5146 2.050034279080736e+00
5147 452 -1.206595944350005e-02
5147 1053 -1.000000000000000e+00
5147 1225 -1.000000000000000e+00
5147 3152 -1.730931934755153e-02
5147 5147 2.029375278791052e+00
5148 1736 -1.000000000000000e+00
5148 1861 -1.000000000000000e+00
5148 3361 -1.251853227086976e-02
5148 3516 -6.051899359059931e-03
5148 4514 -5.095431854765261e-03
5148 5148 2.023665863484695e+00
5149 662 -1.000000000000000e+00
5149 1699 -2.702115327620449e-02
5149 3889 -1.000000000000000e+00
5149 4711 -3.000334949262201e-02
5149 5149 2.057024502768826e+00
5150 1917 -1.000000000000000e+00
5150 4228 -1.011556420227149e+00
5150 5150 2.011556420227149e+00
5151 1309 -2.170582400700249e-03
5151 1976 -9.733156752355386e-03
5151 2108 -5.495890036007872e-03
5151 2147 -1.000000000000000e+00
5151 2380 -5.084508413879236e-03
5151 3558 -2.023278171712623e-03
5151 4124 -4.005632787322524e-03
5151 4530 -1.948729488009972e-02
5151 4811 -1.000000000000000e+00
5151 5151 2.048000343442077e+00
5152 473 -9.886404374499990e-03
5152 1216 -1.005364841605809e+00
5152 3782 -1.000000000000000e+00
5152 3842 -1.000000000000000e+00
5152 4608 -7.355842920297921e-03
5152 5152 3.022607088900608e+00
5153 149 -1.019677435473830e+00
5153 706 -1.208531263206154e-02
5153 2716 -1.453666414683432e-02
5153 2793 -1.009967842153478e+00
5153 4744 -1.107147879339920e-03
5153 5153 2.057374402285544e+00
5154 1541 -1.007058764641768e+00
5154 2567 -1.000000000000000e+00
5154 5154 2.007058764641768e+00
5155 2444 -5.336927638032855e-03
5155 3424 -1.000000000000000e+00
5155 3515 -1.000000000000000e+00
5155 3636 -1.003867143744611e+00
5155 5155 3.009204071382644e+00
5156 1719 -1.014649785912048e+00
5156 1845 -1.610535636941826e-02
5156 3596 -1.000000000000000e+00
5156 4058 -1.218028096146390e-02
5156 4897 -2.148369523975463e-02
5156 5156 2.064419118482685e+00
5157 1711 -1.010909442173942e+00
5157 3689 -3.018292647408622e-03
5157 4577 -1.000000000000000e+00
5157 5157 2.013927734821350e+00
5158 249 -1.000000000000000e+00
5158 3072 -1.000000000000000e+00
5158 4260 -6.137653494081558e-03
5158 4791 -2.163049163423762e-02
5158 5158 2.027768145128319e+00
5159 397 -3.000539113806404e-02
5159 908 -1.000000000000000e+00
5159 2420 -3.098274555202324e-02
5159 3406 -2.629384096119180e-02
5159 4733 -1.000000000000000e+00
5159 5159 2.087281977651279e+00
5160 1 -1.000000000000000e+00
5160 11 -1.000000000000000e+00
5160 2495 -2.114901509000211e-02
5160 3424 -1.123610637321634e-02
5160 5160 2.032385121463218e+00
5161 18 -2.390793638195130e-03
5161 38 -1.000000000000000e+00
5161 2006 -1.000000000000000e+00
5161 2140 -2.205825937784723e-03
5161 3315 -3.948707973366322e-03
5161 3740 -1.011954361879029e-02
5161 4097 -5.969131016715417e-03
5161 4155 -1.469636392487209e-02
5161 5161 2.039330366109724e+00
5162 343 -1.014697369464352e+00
5162 1574 -1.689549223225063e-02
5162 2786 -1.000000000000000e+00
5162 3144 -1.867132796875350e-02
5162 5162 3.050264189665356e+00
5163 49 -1.000000000000000e+00
5163 1522 -1.794725037274635e-03
5163 1697 -4.634891093255605e-04
5163 1702 -1.700813424358834e-03
5163 2151 -1.036098939819358e-03
5163 3436 -1.000000000000000e+00
5163 5163 2.004995126510778e+00
5164 210 -1.193679136151254e-03
5164 216 -1.339105724629609e-02
5164 427 -1.000000000000000e+00
5164 458 -1.002267246453690e+00
5164 3214 -1.303950986818075e-02
5164 4108 -1.484264709610132e-02
5164 4980 -5.965890625593931e-03
5164 5164 2.050700030426014e+00
5165 772 -1.000000000000000e+00
5165 1358 -1.284421622255833e-02
5165 1427 -9.664450718453078e-03
5165 2199 -2.013292897143134e-02
5165 2457 -1.025400396893209e+00
5165 3138 -1.629512458842943e-02
5165 3290 -6.651214595610921e-03
5165 5165 2.090988331989692e+00
5166 2 -1.000000000000000e+00
5166 1137 -2.447989633793935e-02
5166 2669 -2.688250281061277e-02
5166 3752 -1.000000000000000e+00
5166 5166 2.051362399148552e+00
5167 5 -1.000000000000000e+00
5167 2068 -3.594931101100365e-02
5167 2649 -2.572695267221703e-02
5167 4652 -1.000000000000000e+00
5167 5167 2.061676263683221e+00
5168 266 -1.000000000000000e+00
5168 875 -1.053249352594817e-02
5168 1142 -1.000000000000000e+00
5168 3309 -1.556231699419619e-02
5168 5168 2.026094810520144e+00
5169 30 -1.028553410775588e+00
5169 290 -1.000000000000000e+00
5169 1186 -1.159070764403133e-02
5169 2080 -2.485186179542823e-02
5169 2354 -8.383325990800331e-03
5169 4568 -1.327107316494506e-02
5169 5169 2.086650379370793e+00
5170 29 -1.050722664361179e-03
5170 4657 -1.000000000000000e+00
5170 4843 -1.849146686962437e-02
5170 5162 -1.000000000000000e+00
5170 5170 2.019542189533985e+00
5171 1615 -1.000000000000000e+00
5171 4942 -1.000000000000000e+00
5171 5171 2.000000000000000e+00
5172 304 -3.498407367673653e-03
5172 820 -1.000000000000000e+00
5172 1806 -5.944936984856176e-03
5172 2490 -1.000000000000000e+00
5172 5172 2.009443344352530e+00
5173 1675 -1.000000000000000e+00
5173 1739 -1.118487436131734e-02
5173 2407 -3.747304851795431e-03
5173 3126 -1.000000000000000e+00
5173 5173 2.014932179213113e+00
5174 524 -1.000000000000000e+00
5174 1537 -2.178420893510561e-02
5174 2555 -1.000000000000000e+00
5174 3704 -2.126731366657947e-02
5174 5174 2.043051522601685e+00
5175 178 -8.736553668559865e-03
5175 1269 -1.285664375716416e-03
5175 1489 -1.384492212666016e-02
5175 3168 -1.000000000000000e+00
5175 4157 -6.882342311261434e-03
5175 4381 -1.000000000000000e+00
5175 5175 2.030749482482198e+00
5176 623 -1.000000000000000e+00
5176 1545 -1.000000000000000e+00
5176 2109 -2.612752388557741e-02
5176 2133 -7.182937128548493e-03
5176 4602 -1.680150421346494e-02
5176 5176 2.050111965227591e+00
5177 892 -1.000000000000000e+00
5177 2696 -1.000000000000000e+00
5177 3447 -2.630170192111790e-02
5177 4871 -2.553433047187955e-02
5177 5177 2.051836032392997e+00
5178 1251 -1.000000000000000e+00
5178 1701 -9.530991476177891e-03
5178 3701 -1.000000000000000e+00
5178 4123 -5.483388818958857e-03
5178 5178 2.015014380295137e+00
5179 766 -1.000000000000000e+00
5179 1162 -4.286908022664641e-05
5179 1426 -5.840786557402645e-03
5179 2498 -1.000000000000000e+00
5179 5179 2.005883655637629e+00
5180 857 -1.012294465487573e+00
5180 1007 -1.000000000000000e+00
5180 2347 -5.718853892377578e-03
5180 5180 2.018013319379950e+00
5181 265 -1.000000000000000e+00
5181 1163 -1.015930160157723e+00
5181 2265 -7.395144328126482e-04
5181 5181 2.016669674590535e+00
5182 4005 -1.011088074081775e+00
5182 4945 -1.000000000000000e+00
5182 5182 2.011088074081775e+00
5183 17 -1.000000000000000e+00
5183 222 -1.000000000000000e+00
5183 1959 -1.442406014062569e-02
5183 3409 -2.469154341186330e-02
5183 5183 2.039115603552489e+00
5184 356 -3.208466923533638e-03
5184 422 -1.000000000000000e+00
5184 1083 -1.000000000000000e+00
5184 2465 -5.930867680012697e-04
5184 4866 -1.416350656486345e-02
5184 5184 2.017965060256398e+00
5185 50 -1.000000000000000e+00
5185 1718 -1.000000000000000e+00
5185 1792 -1.873778498902754e-02
5185 2986 -1.451726309367587e-02
5185 5185 2.033255048082704e+00
5186 369 -1.000000000000000e+00
5186 1411 -7.534249036710289e-03
5186 1689 -1.000000000000000e+00
5186 2932 -1.166983266805518e-02
5186 3016 -4.899200443838156e-03
5186 5186 2.024103282148604e+00
5187 2387 -1.000000000000000e+00
5187 3290 -2.568283517291239e-02
5187 4298 -1.000000000000000e+00
5187 5033 -7.718477600546349e-03
5187 5187 2.033401312773459e+00
5188 175 -1.000000000000000e+00
5188 3727 -1.000000000000000e+00
5188 3931 -1.028929296021574e-02
5188 4318 -2.461919158344624e-02
5188 4432 -1.141335498653111e-02
5188 5188 2.046321839530193e+00
5189 473 -1.000000000000000e+00
5189 1323 -1.863196472908197e-02
5189 1814 -2.550314104970397e-02
5189 3022 -1.000000000000000e+00
5189 5189 2.044135105778786e+00
5190 80 -1.000000000000000e+00
5190 202 -2.338308287159684e-02
5190 3283 -1.000000000000000e+00
5190 3898 -1.377190817674537e-02
5190 4250 -1.000000000000000e+00
5190 5190 3.037154991048342e+00
5191 1410 -1.000000000000000e+00
5191 2287 -2.724686901612797e-02
5191 2679 -1.000000000000000e+00
5191 4342 -9.076450271268443e-03
5191 4492 -1.462879872885996e-02
5191 5191 2.050952118016256e+00
5192 1657 -7.307197257552530e-03
5192 3206 -1.010499099332875e+00
5192 3368 -1.000000000000000e+00
5192 4046 -3.223623438660896e-03
5192 4280 -1.539342167449708e-02
5192 5192 2.036423341703585e+00
5193 14 -1.000000000000000e+00
5193 106 -1.000000000000000e+00
5193 2021 -1.105283973263578e-02
5193 3153 -1.792980449614838e-02
5193 5193 2.028982644228784e+00
5194 1060 -1.000000000000000e+00
5194 3544 -6.280219887342834e-03
5194 4397 -1.007972718484687e+00
5194 5194 2.014252938372029e+00
5195 3430 -1.011538530308165e+00
5195 3920 -1.000000000000000e+00
5195 5195 2.011538530308166e+00
5196 158 -1.000000000000000e+00
5196 601 -2.064941232268106e-02
5196 3189 -1.000000000000000e+00
5196 3237 -1.808637775967334e-02
5196 4839 -1.976151495258930e-02
5196 5196 2.058497305034944e+00
