%%MatrixMarket matrix coordinate integer symmetric
%
1500 1500 7088
1 1 7
2 2 7
3 3 6
4 4 8
5 5 4
6 6 7
7 7 4
8 4 -1
8 8 5
9 9 6
10 10 13
11 11 6
12 12 7
13 13 9
14 14 9
15 15 10
16 16 13
17 17 8
18 18 6
19 19 13
20 20 6
21 21 7
22 22 5
23 23 11
24 24 7
25 25 8
26 26 5
27 27 8
28 28 12
29 29 13
30 30 11
31 31 9
32 32 8
33 33 7
34 34 6
35 35 9
36 36 6
37 37 2
38 38 9
39 39 9
40 24 -1
40 40 9
41 16 -1
41 41 1
42 42 10
43 43 3
44 44 5
45 45 3
46 46 12
47 30 -1
47 47 6
48 48 11
49 49 6
50 23 -1
50 48 -1
50 50 9
51 51 9
52 35 -1
52 52 8
53 53 6
54 54 9
55 10 -1
55 55 10
56 56 8
57 57 3
58 58 7
59 59 5
60 44 -1
60 60 10
61 61 6
62 62 10
63 63 4
64 64 7
65 65 4
66 66 11
67 55 -1
67 66 -1
67 67 12
68 66 -1
68 68 4
69 39 -1
69 69 5
70 70 10
71 70 -1
71 71 6
72 20 -1
72 72 5
73 35 -1
73 73 4
74 74 3
75 75 8
76 76 9
77 59 -1
77 77 3
78 78 10
79 79 8
80 80 7
81 81 5
82 11 -1
82 82 6
83 83 6
84 84 8
85 85 4
86 23 -1
86 86 8
87 66 -1
87 87 5
88 88 8
89 89 6
90 54 -1
90 90 6
91 91 10
92 22 -1
92 92 11
93 93 5
94 94 5
95 25 -1
95 43 -1
95 95 9
96 96 10
97 97 11
98 98 6
99 99 9
100 17 -1
100 100 10
101 101 9
102 102 5
103 103 9
104 95 -1
104 104 7
105 105 9
106 106 9
107 28 -1
107 107 6
108 108 6
109 85 -1
109 98 -1
109 109 9
110 60 -1
110 110 7
111 111 6
112 112 8
113 113 11
114 48 -1
114 114 9
115 115 8
116 116 4
117 97 -1
117 117 6
118 32 -1
118 67 -1
118 71 -1
118 114 -1
118 118 12
119 119 4
120 120 8
121 121 12
122 122 9
123 123 5
124 124 5
125 125 7
126 1 -1
126 126 7
127 64 -1
127 127 8
128 119 -1
128 128 5
129 11 -1
129 129 6
130 130 5
131 26 -1
131 131 4
132 132 3
133 133 7
134 134 6
135 135 6
136 136 5
137 137 9
138 138 8
139 139 5
140 140 6
141 141 10
142 142 14
143 143 2
144 144 9
145 74 -1
145 145 4
146 17 -1
146 68 -1
146 70 -1
146 146 6
147 70 -1
147 143 -1
147 147 7
148 148 5
149 149 5
150 150 9
151 40 -1
151 115 -1
151 140 -1
151 151 13
152 152 6
153 153 5
154 154 8
155 50 -1
155 155 9
156 17 -1
156 156 15
157 121 -1
157 157 10
158 16 -1
158 111 -1
158 158 10
159 22 -1
159 122 -1
159 159 8
160 160 9
161 25 -1
161 125 -1
161 148 -1
161 161 9
162 162 9
163 163 8
164 164 2
165 55 -1
165 165 13
166 166 1
167 47 -1
167 62 -1
167 167 7
168 168 7
169 165 -1
169 169 9
170 170 10
171 171 7
172 172 8
173 173 10
174 147 -1
174 148 -1
174 174 12
175 175 5
176 176 6
177 177 13
178 28 -1
178 50 -1
178 116 -1
178 178 5
179 130 -1
179 179 6
180 180 5
181 96 -1
181 181 7
182 182 14
183 59 -1
183 183 9
184 184 12
185 157 -1
185 185 4
186 186 5
187 15 -1
187 30 -1
187 151 -1
187 187 12
188 55 -1
188 150 -1
188 188 14
189 144 -1
189 189 7
190 190 8
191 165 -1
191 191 8
192 78 -1
192 192 10
193 76 -1
193 159 -1
193 193 6
194 7 -1
194 32 -1
194 76 -1
194 194 11
195 140 -1
195 195 7
196 38 -1
196 196 6
197 99 -1
197 100 -1
197 197 9
198 106 -1
198 174 -1
198 198 11
199 90 -1
199 95 -1
199 199 9
200 108 -1
200 158 -1
200 200 10
201 165 -1
201 170 -1
201 201 9
202 67 -1
202 202 7
203 86 -1
203 151 -1
203 203 10
204 46 -1
204 204 12
205 205 6
206 142 -1
206 206 12
207 124 -1
207 207 7
208 206 -1
208 208 5
209 158 -1
209 209 10
210 210 8
211 204 -1
211 211 5
212 51 -1
212 106 -1
212 207 -1
212 212 11
213 213 5
214 214 4
215 215 4
216 98 -1
216 216 7
217 217 9
218 194 -1
218 218 6
219 165 -1
219 219 4
220 220 7
221 187 -1
221 221 7
222 15 -1
222 125 -1
222 222 6
223 223 9
224 26 -1
224 224 5
225 203 -1
225 225 9
226 103 -1
226 118 -1
226 171 -1
226 226 11
227 136 -1
227 148 -1
227 227 6
228 186 -1
228 228 7
229 34 -1
229 172 -1
229 229 9
230 184 -1
230 230 4
231 62 -1
231 66 -1
231 231 7
232 155 -1
232 174 -1
232 232 6
233 37 -1
233 193 -1
233 233 13
234 234 9
235 79 -1
235 188 -1
235 235 5
236 39 -1
236 206 -1
236 236 8
237 184 -1
237 237 9
238 238 5
239 79 -1
239 239 10
240 23 -1
240 219 -1
240 240 6
241 122 -1
241 137 -1
241 241 7
242 242 4
243 110 -1
243 211 -1
243 243 13
244 122 -1
244 244 4
245 187 -1
245 203 -1
245 245 4
246 48 -1
246 246 7
247 14 -1
247 64 -1
247 247 6
248 57 -1
248 105 -1
248 248 9
249 10 -1
249 249 6
250 140 -1
250 176 -1
250 250 8
251 141 -1
251 210 -1
251 251 5
252 25 -1
252 252 5
253 253 7
254 254 10
255 19 -1
255 255 7
256 179 -1
256 256 11
257 255 -1
257 257 9
258 258 10
259 19 -1
259 259 11
260 260 9
261 67 -1
261 261 7
262 39 -1
262 96 -1
262 262 10
263 96 -1
263 263 14
264 264 3
265 265 5
266 58 -1
266 138 -1
266 165 -1
266 266 6
267 207 -1
267 263 -1
267 267 10
268 182 -1
268 223 -1
268 268 6
269 48 -1
269 194 -1
269 269 9
270 174 -1
270 270 6
271 6 -1
271 42 -1
271 84 -1
271 271 6
272 272 3
273 273 4
274 167 -1
274 274 5
275 117 -1
275 275 6
276 109 -1
276 157 -1
276 276 7
277 9 -1
277 277 5
278 278 4
279 279 7
280 114 -1
280 280 8
281 36 -1
281 70 -1
281 281 6
282 14 -1
282 101 -1
282 256 -1
282 282 10
283 218 -1
283 283 8
284 13 -1
284 205 -1
284 222 -1
284 284 13
285 225 -1
285 258 -1
285 285 10
286 156 -1
286 202 -1
286 209 -1
286 217 -1
286 286 14
287 184 -1
287 287 6
288 233 -1
288 288 12
289 289 4
290 133 -1
290 158 -1
290 222 -1
290 290 7
291 199 -1
291 290 -1
291 291 6
292 1 -1
292 19 -1
292 292 7
293 42 -1
293 151 -1
293 155 -1
293 292 -1
293 293 12
294 294 10
295 162 -1
295 286 -1
295 295 10
296 121 -1
296 296 8
297 102 -1
297 115 -1
297 297 6
298 229 -1
298 283 -1
298 298 9
299 200 -1
299 282 -1
299 299 5
300 144 -1
300 257 -1
300 300 4
301 11 -1
301 301 4
302 144 -1
302 302 7
303 113 -1
303 303 7
304 170 -1
304 304 11
305 171 -1
305 305 8
306 111 -1
306 306 4
307 307 7
308 162 -1
308 308 6
309 206 -1
309 309 6
310 136 -1
310 247 -1
310 310 7
311 221 -1
311 311 7
312 16 -1
312 97 -1
312 268 -1
312 312 5
313 48 -1
313 204 -1
313 285 -1
313 313 7
314 314 8
315 65 -1
315 262 -1
315 302 -1
315 315 12
316 243 -1
316 316 9
317 317 11
318 198 -1
318 263 -1
318 318 8
319 49 -1
319 105 -1
319 168 -1
319 201 -1
319 319 10
320 3 -1
320 141 -1
320 174 -1
320 258 -1
320 279 -1
320 309 -1
320 320 13
321 254 -1
321 321 6
322 322 3
323 323 12
324 52 -1
324 67 -1
324 142 -1
324 316 -1
324 324 10
325 123 -1
325 125 -1
325 325 5
326 251 -1
326 326 3
327 91 -1
327 272 -1
327 327 5
328 102 -1
328 328 4
329 104 -1
329 191 -1
329 329 8
330 197 -1
330 240 -1
330 294 -1
330 330 8
331 331 1
332 97 -1
332 246 -1
332 332 7
333 265 -1
333 305 -1
333 333 5
334 56 -1
334 144 -1
334 334 7
335 40 -1
335 54 -1
335 97 -1
335 112 -1
335 162 -1
335 335 10
336 151 -1
336 263 -1
336 336 13
337 187 -1
337 304 -1
337 337 8
338 238 -1
338 304 -1
338 338 8
339 92 -1
339 339 5
340 340 5
341 156 -1
341 169 -1
341 341 10
342 144 -1
342 165 -1
342 342 7
343 101 -1
343 343 5
344 80 -1
344 84 -1
344 344 9
345 14 -1
345 284 -1
345 345 6
346 305 -1
346 346 7
347 324 -1
347 347 4
348 255 -1
348 348 7
349 144 -1
349 187 -1
349 349 7
350 350 9
351 351 7
352 158 -1
352 328 -1
352 352 4
353 353 6
354 76 -1
354 121 -1
354 304 -1
354 309 -1
354 354 9
355 134 -1
355 269 -1
355 355 8
356 356 3
357 17 -1
357 117 -1
357 277 -1
357 357 8
358 60 -1
358 259 -1
358 358 12
359 359 7
360 40 -1
360 60 -1
360 173 -1
360 360 8
361 227 -1
361 361 5
362 144 -1
362 192 -1
362 362 8
363 104 -1
363 363 5
364 170 -1
364 364 13
365 365 4
366 10 -1
366 25 -1
366 160 -1
366 366 11
367 261 -1
367 367 5
368 54 -1
368 70 -1
368 125 -1
368 194 -1
368 368 6
369 106 -1
369 212 -1
369 244 -1
369 369 6
370 1 -1
370 65 -1
370 101 -1
370 370 10
371 46 -1
371 267 -1
371 357 -1
371 371 8
372 29 -1
372 34 -1
372 236 -1
372 372 9
373 176 -1
373 254 -1
373 373 9
374 8 -1
374 78 -1
374 142 -1
374 374 16
375 194 -1
375 375 6
376 104 -1
376 376 5
377 127 -1
377 357 -1
377 377 4
378 239 -1
378 378 5
379 285 -1
379 336 -1
379 379 8
380 96 -1
380 380 7
381 113 -1
381 381 7
382 382 4
383 350 -1
383 383 11
384 34 -1
384 147 -1
384 191 -1
384 363 -1
384 384 9
385 54 -1
385 151 -1
385 233 -1
385 385 9
386 170 -1
386 288 -1
386 294 -1
386 386 9
387 28 -1
387 137 -1
387 259 -1
387 387 6
388 53 -1
388 243 -1
388 388 4
389 389 3
390 161 -1
390 354 -1
390 390 11
391 374 -1
391 391 6
392 279 -1
392 304 -1
392 392 8
393 128 -1
393 133 -1
393 393 7
394 42 -1
394 148 -1
394 161 -1
394 241 -1
394 321 -1
394 394 11
395 336 -1
395 395 6
396 1 -1
396 68 -1
396 396 6
397 9 -1
397 397 6
398 99 -1
398 120 -1
398 383 -1
398 398 7
399 11 -1
399 65 -1
399 237 -1
399 399 9
400 56 -1
400 123 -1
400 174 -1
400 400 9
401 13 -1
401 56 -1
401 82 -1
401 243 -1
401 401 7
402 46 -1
402 256 -1
402 394 -1
402 402 6
403 31 -1
403 403 9
404 254 -1
404 350 -1
404 404 6
405 159 -1
405 405 11
406 119 -1
406 123 -1
406 260 -1
406 389 -1
406 406 5
407 50 -1
407 108 -1
407 407 11
408 332 -1
408 408 6
409 384 -1
409 409 12
410 120 -1
410 126 -1
410 360 -1
410 410 5
411 239 -1
411 250 -1
411 380 -1
411 411 14
412 264 -1
412 412 9
413 3 -1
413 38 -1
413 133 -1
413 275 -1
413 413 13
414 152 -1
414 414 7
415 380 -1
415 415 9
416 343 -1
416 405 -1
416 416 9
417 242 -1
417 417 10
418 142 -1
418 165 -1
418 320 -1
418 418 9
419 156 -1
419 419 3
420 420 6
421 14 -1
421 289 -1
421 421 5
422 91 -1
422 422 8
423 198 -1
423 256 -1
423 340 -1
423 423 8
424 221 -1
424 424 5
425 16 -1
425 161 -1
425 358 -1
425 387 -1
425 425 7
426 94 -1
426 141 -1
426 323 -1
426 392 -1
426 426 13
427 427 7
428 66 -1
428 225 -1
428 263 -1
428 428 5
429 226 -1
429 429 5
430 80 -1
430 163 -1
430 430 7
431 119 -1
431 182 -1
431 246 -1
431 431 7
432 38 -1
432 392 -1
432 432 9
433 203 -1
433 433 7
434 33 -1
434 211 -1
434 372 -1
434 434 10
435 435 4
436 374 -1
436 436 5
437 86 -1
437 158 -1
437 413 -1
437 437 9
438 32 -1
438 33 -1
438 36 -1
438 244 -1
438 380 -1
438 408 -1
438 438 13
439 124 -1
439 140 -1
439 163 -1
439 439 8
440 227 -1
440 440 7
441 175 -1
441 192 -1
441 285 -1
441 305 -1
441 343 -1
441 441 8
442 88 -1
442 257 -1
442 424 -1
442 442 4
443 80 -1
443 323 -1
443 412 -1
443 422 -1
443 443 9
444 276 -1
444 444 7
445 58 -1
445 189 -1
445 280 -1
445 369 -1
445 424 -1
445 445 10
446 379 -1
446 446 9
447 447 3
448 296 -1
448 448 5
449 33 -1
449 100 -1
449 449 10
450 293 -1
450 450 7
451 451 3
452 260 -1
452 273 -1
452 296 -1
452 352 -1
452 383 -1
452 422 -1
452 452 12
453 135 -1
453 225 -1
453 305 -1
453 424 -1
453 453 10
454 220 -1
454 254 -1
454 454 6
455 338 -1
455 455 7
456 400 -1
456 443 -1
456 456 3
457 116 -1
457 371 -1
457 391 -1
457 457 8
458 196 -1
458 205 -1
458 256 -1
458 458 6
459 10 -1
459 182 -1
459 243 -1
459 395 -1
459 459 12
460 55 -1
460 140 -1
460 183 -1
460 460 5
461 54 -1
461 152 -1
461 155 -1
461 260 -1
461 279 -1
461 364 -1
461 461 15
462 13 -1
462 30 -1
462 462 7
463 27 -1
463 463 5
464 78 -1
464 255 -1
464 464 9
465 2 -1
465 294 -1
465 465 8
466 83 -1
466 420 -1
466 466 11
467 371 -1
467 388 -1
467 467 7
468 307 -1
468 468 6
469 469 10
470 13 -1
470 470 7
471 96 -1
471 112 -1
471 118 -1
471 453 -1
471 471 10
472 395 -1
472 472 5
473 19 -1
473 74 -1
473 405 -1
473 473 9
474 40 -1
474 110 -1
474 256 -1
474 474 10
475 475 3
476 161 -1
476 278 -1
476 476 10
477 329 -1
477 405 -1
477 477 4
478 137 -1
478 478 4
479 440 -1
479 479 4
480 15 -1
480 95 -1
480 480 10
481 74 -1
481 96 -1
481 146 -1
481 481 11
482 22 -1
482 277 -1
482 482 9
483 375 -1
483 483 4
484 260 -1
484 276 -1
484 437 -1
484 484 9
485 94 -1
485 254 -1
485 485 4
486 82 -1
486 421 -1
486 445 -1
486 486 7
487 62 -1
487 381 -1
487 487 9
488 240 -1
488 488 7
489 37 -1
489 108 -1
489 262 -1
489 489 6
490 490 3
491 60 -1
491 329 -1
491 466 -1
491 491 4
492 205 -1
492 213 -1
492 290 -1
492 492 7
493 33 -1
493 493 2
494 88 -1
494 204 -1
494 238 -1
494 361 -1
494 494 10
495 114 -1
495 315 -1
495 495 12
496 163 -1
496 197 -1
496 411 -1
496 496 9
497 29 -1
497 53 -1
497 313 -1
497 497 6
498 280 -1
498 412 -1
498 498 8
499 8 -1
499 91 -1
499 210 -1
499 364 -1
499 499 10
500 204 -1
500 400 -1
500 465 -1
500 500 6
501 91 -1
501 501 5
502 502 3
503 30 -1
503 152 -1
503 177 -1
503 196 -1
503 462 -1
503 503 10
504 6 -1
504 286 -1
504 504 7
505 55 -1
505 199 -1
505 505 11
506 85 -1
506 350 -1
506 380 -1
506 503 -1
506 506 9
507 29 -1
507 92 -1
507 427 -1
507 490 -1
507 507 10
508 329 -1
508 479 -1
508 508 8
509 27 -1
509 53 -1
509 84 -1
509 107 -1
509 182 -1
509 509 11
510 50 -1
510 114 -1
510 190 -1
510 302 -1
510 345 -1
510 510 9
511 23 -1
511 33 -1
511 127 -1
511 366 -1
511 511 9
512 317 -1
512 358 -1
512 405 -1
512 512 8
513 141 -1
513 300 -1
513 313 -1
513 374 -1
513 513 8
514 151 -1
514 287 -1
514 432 -1
514 449 -1
514 514 10
515 362 -1
515 419 -1
515 507 -1
515 515 8
516 274 -1
516 385 -1
516 390 -1
516 516 7
517 121 -1
517 466 -1
517 488 -1
517 517 6
518 177 -1
518 436 -1
518 518 8
519 413 -1
519 519 5
520 4 -1
520 201 -1
520 417 -1
520 498 -1
520 520 8
521 21 -1
521 42 -1
521 149 -1
521 263 -1
521 314 -1
521 469 -1
521 508 -1
521 521 11
522 34 -1
522 63 -1
522 83 -1
522 167 -1
522 174 -1
522 285 -1
522 438 -1
522 522 12
523 72 -1
523 142 -1
523 258 -1
523 505 -1
523 523 10
524 3 -1
524 81 -1
524 178 -1
524 179 -1
524 319 -1
524 521 -1
524 524 14
525 146 -1
525 267 -1
525 429 -1
525 525 10
526 33 -1
526 237 -1
526 249 -1
526 526 7
527 196 -1
527 247 -1
527 504 -1
527 527 8
528 409 -1
528 433 -1
528 528 7
529 69 -1
529 178 -1
529 529 7
530 322 -1
530 462 -1
530 495 -1
530 514 -1
530 530 6
531 22 -1
531 86 -1
531 336 -1
531 531 7
532 209 -1
532 488 -1
532 532 7
533 87 -1
533 158 -1
533 189 -1
533 349 -1
533 533 7
534 295 -1
534 452 -1
534 480 -1
534 534 10
535 382 -1
535 390 -1
535 535 7
536 234 -1
536 536 2
537 24 -1
537 91 -1
537 132 -1
537 175 -1
537 374 -1
537 537 13
538 105 -1
538 142 -1
538 176 -1
538 204 -1
538 376 -1
538 538 10
539 237 -1
539 509 -1
539 539 5
540 204 -1
540 326 -1
540 540 5
541 60 -1
541 433 -1
541 524 -1
541 541 8
542 35 -1
542 542 5
543 138 -1
543 308 -1
543 337 -1
543 445 -1
543 543 6
544 193 -1
544 199 -1
544 544 7
545 60 -1
545 409 -1
545 481 -1
545 545 11
546 230 -1
546 546 5
547 424 -1
547 431 -1
547 547 7
548 548 5
549 87 -1
549 549 5
550 200 -1
550 338 -1
550 550 4
551 52 -1
551 134 -1
551 299 -1
551 398 -1
551 434 -1
551 551 8
552 177 -1
552 200 -1
552 229 -1
552 492 -1
552 537 -1
552 552 11
553 553 3
554 157 -1
554 353 -1
554 354 -1
554 554 8
555 12 -1
555 105 -1
555 442 -1
555 555 8
556 556 7
557 44 -1
557 136 -1
557 451 -1
557 557 7
558 351 -1
558 548 -1
558 558 4
559 204 -1
559 262 -1
559 279 -1
559 388 -1
559 554 -1
559 559 13
560 415 -1
560 560 6
561 133 -1
561 137 -1
561 248 -1
561 276 -1
561 466 -1
561 494 -1
561 561 16
562 170 -1
562 267 -1
562 562 4
563 222 -1
563 363 -1
563 518 -1
563 563 8
564 66 -1
564 143 -1
564 304 -1
564 564 7
565 296 -1
565 565 5
566 103 -1
566 566 2
567 173 -1
567 537 -1
567 567 7
568 58 -1
568 158 -1
568 163 -1
568 493 -1
568 568 7
569 114 -1
569 235 -1
569 365 -1
569 446 -1
569 495 -1
569 569 8
570 51 -1
570 71 -1
570 181 -1
570 286 -1
570 570 10
571 26 -1
571 206 -1
571 370 -1
571 483 -1
571 552 -1
571 571 11
572 10 -1
572 572 5
573 174 -1
573 374 -1
573 573 5
574 235 -1
574 267 -1
574 574 8
575 48 -1
575 288 -1
575 518 -1
575 540 -1
575 575 8
576 203 -1
576 318 -1
576 339 -1
576 407 -1
576 452 -1
576 461 -1
576 576 10
577 246 -1
577 415 -1
577 489 -1
577 577 10
578 167 -1
578 457 -1
578 578 5
579 71 -1
579 293 -1
579 524 -1
579 579 7
580 216 -1
580 232 -1
580 319 -1
580 347 -1
580 580 13
581 118 -1
581 308 -1
581 357 -1
581 392 -1
581 418 -1
581 496 -1
581 570 -1
581 581 11
582 358 -1
582 582 8
583 549 -1
583 583 7
584 358 -1
584 362 -1
584 574 -1
584 584 5
585 97 -1
585 287 -1
585 403 -1
585 557 -1
585 585 8
586 204 -1
586 586 3
587 23 -1
587 231 -1
587 434 -1
587 587 10
588 91 -1
588 355 -1
588 588 5
589 316 -1
589 462 -1
589 466 -1
589 589 12
590 108 -1
590 262 -1
590 304 -1
590 473 -1
590 590 8
591 165 -1
591 591 4
592 113 -1
592 122 -1
592 185 -1
592 190 -1
592 283 -1
592 298 -1
592 366 -1
592 592 14
593 80 -1
593 154 -1
593 191 -1
593 552 -1
593 593 8
594 594 5
595 595 4
596 112 -1
596 292 -1
596 481 -1
596 596 5
597 362 -1
597 369 -1
597 567 -1
597 597 7
598 63 -1
598 320 -1
598 598 5
599 88 -1
599 117 -1
599 167 -1
599 440 -1
599 538 -1
599 599 6
600 248 -1
600 600 6
601 16 -1
601 121 -1
601 601 6
602 106 -1
602 135 -1
602 320 -1
602 602 4
603 168 -1
603 503 -1
603 548 -1
603 603 8
604 195 -1
604 241 -1
604 454 -1
604 604 7
605 526 -1
605 605 7
606 12 -1
606 107 -1
606 396 -1
606 410 -1
606 606 7
607 28 -1
607 607 6
608 123 -1
608 229 -1
608 430 -1
608 507 -1
608 568 -1
608 608 10
609 350 -1
609 467 -1
609 477 -1
609 609 6
610 127 -1
610 205 -1
610 487 -1
610 610 7
611 56 -1
611 150 -1
611 288 -1
611 611 7
612 190 -1
612 436 -1
612 526 -1
612 612 11
613 4 -1
613 59 -1
613 328 -1
613 613 9
614 15 -1
614 220 -1
614 324 -1
614 614 5
615 349 -1
615 512 -1
615 615 12
616 198 -1
616 216 -1
616 355 -1
616 616 7
617 142 -1
617 273 -1
617 617 12
618 75 -1
618 170 -1
618 198 -1
618 416 -1
618 548 -1
618 575 -1
618 596 -1
618 618 13
619 212 -1
619 215 -1
619 523 -1
619 619 8
620 525 -1
620 620 5
621 621 3
622 96 -1
622 299 -1
622 348 -1
622 440 -1
622 622 8
623 30 -1
623 308 -1
623 310 -1
623 383 -1
623 596 -1
623 623 7
624 186 -1
624 221 -1
624 312 -1
624 427 -1
624 525 -1
624 603 -1
624 624 9
625 111 -1
625 498 -1
625 625 8
626 288 -1
626 475 -1
626 626 5
627 49 -1
627 217 -1
627 536 -1
627 627 6
628 63 -1
628 422 -1
628 507 -1
628 522 -1
628 628 9
629 200 -1
629 386 -1
629 455 -1
629 531 -1
629 629 12
630 269 -1
630 630 2
631 156 -1
631 475 -1
631 631 8
632 360 -1
632 431 -1
632 632 10
633 461 -1
633 633 8
634 190 -1
634 311 -1
634 634 11
635 52 -1
635 124 -1
635 635 8
636 114 -1
636 249 -1
636 462 -1
636 545 -1
636 636 7
637 96 -1
637 150 -1
637 589 -1
637 637 4
638 15 -1
638 173 -1
638 593 -1
638 638 7
639 94 -1
639 281 -1
639 314 -1
639 370 -1
639 639 10
640 582 -1
640 640 10
641 330 -1
641 587 -1
641 641 8
642 94 -1
642 198 -1
642 463 -1
642 642 5
643 188 -1
643 301 -1
643 643 2
644 211 -1
644 212 -1
644 293 -1
644 516 -1
644 644 10
645 186 -1
645 362 -1
645 645 4
646 61 -1
646 453 -1
646 457 -1
646 646 9
647 294 -1
647 332 -1
647 567 -1
647 647 5
648 28 -1
648 373 -1
648 499 -1
648 648 9
649 97 -1
649 300 -1
649 607 -1
649 639 -1
649 649 8
650 307 -1
650 414 -1
650 650 4
651 45 -1
651 55 -1
651 398 -1
651 598 -1
651 651 7
652 79 -1
652 197 -1
652 652 6
653 92 -1
653 371 -1
653 433 -1
653 450 -1
653 496 -1
653 567 -1
653 653 11
654 68 -1
654 115 -1
654 173 -1
654 256 -1
654 323 -1
654 336 -1
654 578 -1
654 654 10
655 62 -1
655 184 -1
655 191 -1
655 655 8
656 627 -1
656 656 5
657 145 -1
657 403 -1
657 409 -1
657 657 3
658 256 -1
658 541 -1
658 658 12
659 188 -1
659 298 -1
659 367 -1
659 449 -1
659 659 7
660 12 -1
660 271 -1
660 391 -1
660 583 -1
660 660 8
661 13 -1
661 116 -1
661 251 -1
661 661 7
662 6 -1
662 139 -1
662 561 -1
662 639 -1
662 662 9
663 16 -1
663 107 -1
663 408 -1
663 565 -1
663 645 -1
663 663 7
664 420 -1
664 511 -1
664 540 -1
664 664 9
665 407 -1
665 509 -1
665 634 -1
665 665 5
666 62 -1
666 66 -1
666 666 8
667 66 -1
667 191 -1
667 268 -1
667 378 -1
667 455 -1
667 667 10
668 10 -1
668 280 -1
668 302 -1
668 412 -1
668 449 -1
668 639 -1
668 668 7
669 73 -1
669 182 -1
669 669 7
670 112 -1
670 670 3
671 552 -1
671 671 9
672 139 -1
672 672 5
673 339 -1
673 458 -1
673 673 6
674 338 -1
674 347 -1
674 381 -1
674 674 5
675 641 -1
675 675 1
676 80 -1
676 206 -1
676 232 -1
676 403 -1
676 615 -1
676 676 10
677 113 -1
677 169 -1
677 591 -1
677 677 7
678 23 -1
678 232 -1
678 298 -1
678 541 -1
678 559 -1
678 678 7
679 317 -1
679 336 -1
679 464 -1
679 617 -1
679 679 5
680 455 -1
680 560 -1
680 680 6
681 681 1
682 204 -1
682 682 4
683 39 -1
683 350 -1
683 683 5
684 116 -1
684 127 -1
684 393 -1
684 496 -1
684 669 -1
684 684 7
685 262 -1
685 685 4
686 1 -1
686 160 -1
686 226 -1
686 340 -1
686 355 -1
686 441 -1
686 570 -1
686 686 14
687 16 -1
687 35 -1
687 685 -1
687 687 7
688 90 -1
688 452 -1
688 473 -1
688 486 -1
688 650 -1
688 671 -1
688 688 8
689 294 -1
689 334 -1
689 350 -1
689 591 -1
689 689 8
690 225 -1
690 599 -1
690 690 5
691 215 -1
691 528 -1
691 594 -1
691 673 -1
691 691 7
692 118 -1
692 134 -1
692 187 -1
692 373 -1
692 455 -1
692 570 -1
692 692 10
693 150 -1
693 311 -1
693 325 -1
693 693 7
694 229 -1
694 694 4
695 98 -1
695 256 -1
695 409 -1
695 579 -1
695 640 -1
695 695 9
696 171 -1
696 197 -1
696 288 -1
696 619 -1
696 672 -1
696 696 8
697 204 -1
697 556 -1
697 595 -1
697 697 7
698 358 -1
698 698 5
699 154 -1
699 399 -1
699 605 -1
699 699 4
700 84 -1
700 505 -1
700 700 6
701 107 -1
701 209 -1
701 364 -1
701 439 -1
701 496 -1
701 701 7
702 64 -1
702 405 -1
702 450 -1
702 673 -1
702 702 6
703 24 -1
703 72 -1
703 688 -1
703 703 5
704 32 -1
704 184 -1
704 704 8
705 121 -1
705 164 -1
705 485 -1
705 617 -1
705 691 -1
705 705 11
706 135 -1
706 337 -1
706 706 4
707 261 -1
707 616 -1
707 646 -1
707 704 -1
707 707 7
708 18 -1
708 259 -1
708 307 -1
708 360 -1
708 697 -1
708 708 10
709 136 -1
709 213 -1
709 709 7
710 97 -1
710 110 -1
710 112 -1
710 219 -1
710 346 -1
710 351 -1
710 561 -1
710 710 9
711 711 1
712 177 -1
712 256 -1
712 295 -1
712 298 -1
712 335 -1
712 400 -1
712 494 -1
712 712 8
713 55 -1
713 112 -1
713 113 -1
713 329 -1
713 382 -1
713 553 -1
713 713 11
714 155 -1
714 304 -1
714 417 -1
714 714 6
715 46 -1
715 432 -1
715 555 -1
715 563 -1
715 601 -1
715 655 -1
715 715 8
716 139 -1
716 207 -1
716 507 -1
716 590 -1
716 716 7
717 467 -1
717 717 6
718 83 -1
718 373 -1
718 412 -1
718 718 6
719 62 -1
719 104 -1
719 358 -1
719 534 -1
719 679 -1
719 719 8
720 113 -1
720 608 -1
720 720 9
721 21 -1
721 49 -1
721 187 -1
721 188 -1
721 226 -1
721 373 -1
721 535 -1
721 619 -1
721 721 10
722 58 -1
722 198 -1
722 356 -1
722 441 -1
722 551 -1
722 722 8
723 157 -1
723 603 -1
723 723 10
724 416 -1
724 595 -1
724 666 -1
724 724 8
725 261 -1
725 353 -1
725 450 -1
725 725 8
726 10 -1
726 47 -1
726 181 -1
726 334 -1
726 671 -1
726 726 10
727 53 -1
727 217 -1
727 354 -1
727 475 -1
727 727 10
728 24 -1
728 276 -1
728 303 -1
728 411 -1
728 728 6
729 31 -1
729 101 -1
729 192 -1
729 252 -1
729 729 6
730 366 -1
730 641 -1
730 730 5
731 43 -1
731 528 -1
731 731 6
732 217 -1
732 632 -1
732 724 -1
732 732 4
733 46 -1
733 159 -1
733 162 -1
733 342 -1
733 733 15
734 280 -1
734 413 -1
734 652 -1
734 734 4
735 138 -1
735 495 -1
735 648 -1
735 735 12
736 128 -1
736 384 -1
736 518 -1
736 736 5
737 103 -1
737 379 -1
737 583 -1
737 632 -1
737 683 -1
737 737 12
738 88 -1
738 267 -1
738 672 -1
738 738 8
739 4 -1
739 12 -1
739 31 -1
739 318 -1
739 464 -1
739 527 -1
739 654 -1
739 739 11
740 7 -1
740 126 -1
740 238 -1
740 487 -1
740 740 9
741 238 -1
741 264 -1
741 288 -1
741 520 -1
741 741 9
742 290 -1
742 346 -1
742 391 -1
742 742 9
743 14 -1
743 115 -1
743 262 -1
743 283 -1
743 505 -1
743 580 -1
743 676 -1
743 691 -1
743 743 13
744 616 -1
744 744 5
745 101 -1
745 102 -1
745 745 9
746 189 -1
746 447 -1
746 746 6
747 110 -1
747 227 -1
747 524 -1
747 735 -1
747 747 11
748 184 -1
748 381 -1
748 533 -1
748 748 5
749 27 -1
749 49 -1
749 157 -1
749 204 -1
749 268 -1
749 286 -1
749 575 -1
749 615 -1
749 749 13
750 64 -1
750 217 -1
750 465 -1
750 556 -1
750 636 -1
750 669 -1
750 750 10
751 106 -1
751 142 -1
751 182 -1
751 323 -1
751 483 -1
751 489 -1
751 633 -1
751 717 -1
751 728 -1
751 751 15
752 84 -1
752 113 -1
752 469 -1
752 752 7
753 139 -1
753 173 -1
753 377 -1
753 389 -1
753 464 -1
753 484 -1
753 507 -1
753 560 -1
753 753 9
754 31 -1
754 628 -1
754 754 4
755 142 -1
755 338 -1
755 351 -1
755 364 -1
755 484 -1
755 572 -1
755 755 12
756 728 -1
756 756 4
757 280 -1
757 439 -1
757 711 -1
757 739 -1
757 757 8
758 9 -1
758 51 -1
758 100 -1
758 428 -1
758 758 11
759 311 -1
759 584 -1
759 677 -1
759 759 4
760 568 -1
760 760 7
761 286 -1
761 720 -1
761 722 -1
761 761 7
762 685 -1
762 750 -1
762 762 7
763 78 -1
763 92 -1
763 159 -1
763 277 -1
763 439 -1
763 519 -1
763 532 -1
763 683 -1
763 763 13
764 48 -1
764 78 -1
764 113 -1
764 286 -1
764 305 -1
764 409 -1
764 656 -1
764 764 7
765 358 -1
765 529 -1
765 749 -1
765 765 5
766 19 -1
766 181 -1
766 289 -1
766 411 -1
766 659 -1
766 766 7
767 176 -1
767 288 -1
767 418 -1
767 767 6
768 25 -1
768 100 -1
768 366 -1
768 404 -1
768 412 -1
768 433 -1
768 768 8
769 50 -1
769 188 -1
769 480 -1
769 498 -1
769 661 -1
769 698 -1
769 769 10
770 221 -1
770 237 -1
770 430 -1
770 466 -1
770 528 -1
770 583 -1
770 716 -1
770 770 13
771 121 -1
771 199 -1
771 435 -1
771 771 11
772 18 -1
772 173 -1
772 735 -1
772 772 5
773 42 -1
773 145 -1
773 270 -1
773 546 -1
773 773 8
774 367 -1
774 774 5
775 36 -1
775 198 -1
775 409 -1
775 446 -1
775 646 -1
775 754 -1
775 775 8
776 46 -1
776 183 -1
776 186 -1
776 393 -1
776 525 -1
776 776 7
777 169 -1
777 274 -1
777 597 -1
777 653 -1
777 777 10
778 36 -1
778 297 -1
778 349 -1
778 423 -1
778 612 -1
778 778 9
779 95 -1
779 417 -1
779 609 -1
779 729 -1
779 779 10
780 46 -1
780 160 -1
780 671 -1
780 780 7
781 56 -1
781 673 -1
781 676 -1
781 740 -1
781 781 8
782 394 -1
782 405 -1
782 438 -1
782 680 -1
782 738 -1
782 782 13
783 506 -1
783 545 -1
783 742 -1
783 783 8
784 152 -1
784 394 -1
784 458 -1
784 469 -1
784 471 -1
784 544 -1
784 718 -1
784 784 10
785 99 -1
785 126 -1
785 187 -1
785 191 -1
785 200 -1
785 214 -1
785 785 10
786 15 -1
786 786 5
787 309 -1
787 694 -1
787 787 5
788 390 -1
788 495 -1
788 539 -1
788 788 4
789 208 -1
789 213 -1
789 414 -1
789 698 -1
789 789 7
790 171 -1
790 285 -1
790 790 5
791 731 -1
791 791 4
792 378 -1
792 402 -1
792 508 -1
792 792 7
793 290 -1
793 399 -1
793 474 -1
793 570 -1
793 609 -1
793 629 -1
793 723 -1
793 793 10
794 219 -1
794 478 -1
794 544 -1
794 592 -1
794 628 -1
794 782 -1
794 794 12
795 22 -1
795 40 -1
795 75 -1
795 593 -1
795 714 -1
795 795 9
796 293 -1
796 723 -1
796 796 6
797 69 -1
797 207 -1
797 381 -1
797 448 -1
797 797 9
798 223 -1
798 579 -1
798 798 7
799 214 -1
799 218 -1
799 267 -1
799 608 -1
799 799 13
800 49 -1
800 229 -1
800 528 -1
800 739 -1
800 800 10
801 127 -1
801 354 -1
801 686 -1
801 737 -1
801 801 6
802 26 -1
802 79 -1
802 245 -1
802 366 -1
802 612 -1
802 802 9
803 803 5
804 50 -1
804 100 -1
804 405 -1
804 700 -1
804 804 5
805 115 -1
805 172 -1
805 494 -1
805 614 -1
805 805 7
806 248 -1
806 282 -1
806 560 -1
806 576 -1
806 644 -1
806 742 -1
806 806 8
807 473 -1
807 494 -1
807 542 -1
807 558 -1
807 632 -1
807 652 -1
807 740 -1
807 807 8
808 484 -1
808 652 -1
808 808 3
809 126 -1
809 296 -1
809 695 -1
809 809 5
810 192 -1
810 379 -1
810 496 -1
810 521 -1
810 634 -1
810 810 5
811 146 -1
811 422 -1
811 726 -1
811 811 6
812 154 -1
812 287 -1
812 317 -1
812 426 -1
812 589 -1
812 802 -1
812 812 7
813 133 -1
813 555 -1
813 639 -1
813 689 -1
813 741 -1
813 813 11
814 48 -1
814 93 -1
814 564 -1
814 760 -1
814 814 7
815 19 -1
815 259 -1
815 471 -1
815 528 -1
815 815 6
816 84 -1
816 137 -1
816 390 -1
816 588 -1
816 816 9
817 11 -1
817 349 -1
817 406 -1
817 455 -1
817 561 -1
817 817 9
818 119 -1
818 529 -1
818 818 4
819 819 6
820 820 4
821 21 -1
821 115 -1
821 374 -1
821 534 -1
821 689 -1
821 782 -1
821 787 -1
821 821 11
822 147 -1
822 332 -1
822 589 -1
822 822 6
823 216 -1
823 421 -1
823 460 -1
823 481 -1
823 638 -1
823 659 -1
823 752 -1
823 779 -1
823 823 9
824 371 -1
824 524 -1
824 590 -1
824 824 5
825 118 -1
825 346 -1
825 615 -1
825 618 -1
825 666 -1
825 708 -1
825 825 10
826 39 -1
826 148 -1
826 775 -1
826 826 5
827 165 -1
827 250 -1
827 476 -1
827 690 -1
827 821 -1
827 827 10
828 66 -1
828 277 -1
828 294 -1
828 464 -1
828 561 -1
828 634 -1
828 808 -1
828 823 -1
828 828 11
829 175 -1
829 330 -1
829 829 3
830 6 -1
830 75 -1
830 188 -1
830 474 -1
830 830 12
831 365 -1
831 547 -1
831 723 -1
831 831 10
832 206 -1
832 524 -1
832 704 -1
832 751 -1
832 832 5
833 281 -1
833 284 -1
833 346 -1
833 422 -1
833 488 -1
833 611 -1
833 833 8
834 88 -1
834 689 -1
834 725 -1
834 834 8
835 69 -1
835 686 -1
835 786 -1
835 825 -1
835 835 8
836 29 -1
836 61 -1
836 315 -1
836 324 -1
836 347 -1
836 449 -1
836 733 -1
836 789 -1
836 836 10
837 101 -1
837 511 -1
837 733 -1
837 837 4
838 7 -1
838 58 -1
838 604 -1
838 838 7
839 172 -1
839 613 -1
839 835 -1
839 839 6
840 80 -1
840 120 -1
840 130 -1
840 239 -1
840 242 -1
840 419 -1
840 727 -1
840 824 -1
840 840 11
841 103 -1
841 232 -1
841 281 -1
841 677 -1
841 740 -1
841 822 -1
841 841 7
842 441 -1
842 763 -1
842 842 6
843 226 -1
843 286 -1
843 323 -1
843 465 -1
843 508 -1
843 746 -1
843 843 10
844 29 -1
844 361 -1
844 411 -1
844 647 -1
844 844 6
845 166 -1
845 170 -1
845 344 -1
845 638 -1
845 737 -1
845 799 -1
845 827 -1
845 845 12
846 631 -1
846 846 1
847 372 -1
847 561 -1
847 589 -1
847 664 -1
847 762 -1
847 831 -1
847 847 7
848 30 -1
848 177 -1
848 400 -1
848 604 -1
848 635 -1
848 780 -1
848 848 11
849 228 -1
849 284 -1
849 353 -1
849 849 4
850 231 -1
850 364 -1
850 850 5
851 3 -1
851 39 -1
851 64 -1
851 97 -1
851 230 -1
851 464 -1
851 819 -1
851 851 13
852 38 -1
852 59 -1
852 852 3
853 161 -1
853 162 -1
853 195 -1
853 466 -1
853 626 -1
853 853 8
854 23 -1
854 70 -1
854 415 -1
854 457 -1
854 561 -1
854 738 -1
854 756 -1
854 854 11
855 201 -1
855 351 -1
855 387 -1
855 440 -1
855 720 -1
855 855 8
856 42 -1
856 107 -1
856 681 -1
856 856 5
857 415 -1
857 611 -1
857 678 -1
857 857 5
858 32 -1
858 341 -1
858 377 -1
858 658 -1
858 858 6
859 103 -1
859 531 -1
859 708 -1
859 745 -1
859 791 -1
859 859 6
860 294 -1
860 474 -1
860 492 -1
860 735 -1
860 780 -1
860 860 9
861 819 -1
861 861 4
862 366 -1
862 862 9
863 34 -1
863 225 -1
863 733 -1
863 863 6
864 251 -1
864 375 -1
864 416 -1
864 515 -1
864 864 6
865 286 -1
865 319 -1
865 615 -1
865 635 -1
865 725 -1
865 844 -1
865 865 9
866 233 -1
866 253 -1
866 512 -1
866 603 -1
866 696 -1
866 866 9
867 325 -1
867 480 -1
867 515 -1
867 612 -1
867 671 -1
867 800 -1
867 862 -1
867 867 8
868 138 -1
868 180 -1
868 587 -1
868 772 -1
868 859 -1
868 868 8
869 76 -1
869 234 -1
869 285 -1
869 443 -1
869 458 -1
869 869 10
870 218 -1
870 254 -1
870 469 -1
870 576 -1
870 619 -1
870 714 -1
870 792 -1
870 870 14
871 209 -1
871 297 -1
871 366 -1
871 871 8
872 190 -1
872 258 -1
872 486 -1
872 499 -1
872 578 -1
872 872 7
873 320 -1
873 575 -1
873 873 4
874 476 -1
874 551 -1
874 628 -1
874 662 -1
874 751 -1
874 777 -1
874 831 -1
874 874 12
875 463 -1
875 781 -1
875 811 -1
875 828 -1
875 875 7
876 17 -1
876 205 -1
876 292 -1
876 314 -1
876 590 -1
876 616 -1
876 850 -1
876 876 7
877 462 -1
877 592 -1
877 652 -1
877 761 -1
877 877 4
878 408 -1
878 587 -1
878 595 -1
878 649 -1
878 878 9
879 721 -1
879 807 -1
879 879 4
880 444 -1
880 870 -1
880 880 4
881 342 -1
881 540 -1
881 816 -1
881 854 -1
881 881 8
882 353 -1
882 641 -1
882 703 -1
882 827 -1
882 882 9
883 137 -1
883 479 -1
883 883 5
884 132 -1
884 212 -1
884 461 -1
884 505 -1
884 633 -1
884 884 8
885 29 -1
885 34 -1
885 482 -1
885 580 -1
885 885 7
886 537 -1
886 795 -1
886 886 6
887 217 -1
887 413 -1
887 459 -1
887 551 -1
887 617 -1
887 693 -1
887 763 -1
887 887 10
888 322 -1
888 439 -1
888 627 -1
888 888 6
889 54 -1
889 257 -1
889 302 -1
889 341 -1
889 426 -1
889 444 -1
889 622 -1
889 677 -1
889 801 -1
889 822 -1
889 889 10
890 306 -1
890 422 -1
890 560 -1
890 750 -1
890 758 -1
890 881 -1
890 890 9
891 323 -1
891 466 -1
891 495 -1
891 605 -1
891 640 -1
891 860 -1
891 891 8
892 345 -1
892 439 -1
892 446 -1
892 504 -1
892 533 -1
892 713 -1
892 726 -1
892 733 -1
892 761 -1
892 892 9
893 411 -1
893 854 -1
893 893 5
894 284 -1
894 374 -1
894 782 -1
894 894 3
895 210 -1
895 212 -1
895 426 -1
895 895 7
896 142 -1
896 150 -1
896 482 -1
896 831 -1
896 896 5
897 100 -1
897 173 -1
897 207 -1
897 227 -1
897 228 -1
897 315 -1
897 547 -1
897 661 -1
897 897 11
898 108 -1
898 169 -1
898 370 -1
898 426 -1
898 480 -1
898 538 -1
898 705 -1
898 762 -1
898 898 18
899 289 -1
899 737 -1
899 899 5
900 327 -1
900 538 -1
900 862 -1
900 900 6
901 149 -1
901 297 -1
901 659 -1
901 793 -1
901 901 7
902 62 -1
902 348 -1
902 629 -1
902 663 -1
902 758 -1
902 860 -1
902 902 10
903 511 -1
903 607 -1
903 687 -1
903 774 -1
903 777 -1
903 830 -1
903 903 8
904 199 -1
904 321 -1
904 670 -1
904 730 -1
904 887 -1
904 904 7
905 135 -1
905 697 -1
905 745 -1
905 794 -1
905 870 -1
905 905 7
906 75 -1
906 317 -1
906 356 -1
906 559 -1
906 615 -1
906 906 7
907 100 -1
907 182 -1
907 418 -1
907 472 -1
907 500 -1
907 748 -1
907 907 9
908 339 -1
908 908 5
909 27 -1
909 335 -1
909 376 -1
909 534 -1
909 671 -1
909 909 10
910 177 -1
910 181 -1
910 201 -1
910 381 -1
910 671 -1
910 840 -1
910 910 7
911 97 -1
911 355 -1
911 396 -1
911 773 -1
911 868 -1
911 911 8
912 38 -1
912 87 -1
912 147 -1
912 298 -1
912 359 -1
912 480 -1
912 662 -1
912 912 9
913 255 -1
913 465 -1
913 664 -1
913 802 -1
913 821 -1
913 913 9
914 177 -1
914 373 -1
914 662 -1
914 914 3
915 762 -1
915 794 -1
915 915 8
916 177 -1
916 322 -1
916 345 -1
916 620 -1
916 625 -1
916 916 6
917 150 -1
917 157 -1
917 717 -1
917 908 -1
917 917 7
918 177 -1
918 194 -1
918 202 -1
918 234 -1
918 250 -1
918 304 -1
918 511 -1
918 755 -1
918 798 -1
918 918 12
919 92 -1
919 104 -1
919 157 -1
919 481 -1
919 793 -1
919 863 -1
919 919 9
920 206 -1
920 469 -1
920 646 -1
920 820 -1
920 920 6
921 176 -1
921 275 -1
921 320 -1
921 337 -1
921 341 -1
921 620 -1
921 921 9
922 280 -1
922 314 -1
922 922 2
923 405 -1
923 615 -1
923 640 -1
923 786 -1
923 802 -1
923 835 -1
923 923 10
924 31 -1
924 306 -1
924 337 -1
924 580 -1
924 782 -1
924 825 -1
924 898 -1
924 908 -1
924 924 11
925 87 -1
925 311 -1
925 318 -1
925 699 -1
925 801 -1
925 925 7
926 48 -1
926 523 -1
926 836 -1
926 926 5
927 249 -1
927 451 -1
927 550 -1
927 561 -1
927 800 -1
927 844 -1
927 927 8
928 426 -1
928 591 -1
928 928 4
929 141 -1
929 259 -1
929 486 -1
929 640 -1
929 885 -1
929 929 9
930 930 4
931 626 -1
931 655 -1
931 686 -1
931 931 5
932 297 -1
932 453 -1
932 518 -1
932 527 -1
932 932 5
933 294 -1
933 546 -1
933 646 -1
933 655 -1
933 750 -1
933 930 -1
933 933 8
934 16 -1
934 182 -1
934 259 -1
934 407 -1
934 430 -1
934 610 -1
934 612 -1
934 623 -1
934 890 -1
934 934 11
935 98 -1
935 680 -1
935 788 -1
935 897 -1
935 935 9
936 17 -1
936 77 -1
936 84 -1
936 265 -1
936 606 -1
936 936 5
937 92 -1
937 132 -1
937 357 -1
937 423 -1
937 542 -1
937 688 -1
937 708 -1
937 937 9
938 177 -1
938 296 -1
938 351 -1
938 778 -1
938 860 -1
938 938 6
939 79 -1
939 341 -1
939 368 -1
939 537 -1
939 939 4
940 141 -1
940 163 -1
940 782 -1
940 842 -1
940 940 5
941 78 -1
941 210 -1
941 262 -1
941 336 -1
941 446 -1
941 529 -1
941 585 -1
941 851 -1
941 941 12
942 198 -1
942 446 -1
942 495 -1
942 758 -1
942 942 8
943 236 -1
943 943 2
944 15 -1
944 35 -1
944 46 -1
944 209 -1
944 210 -1
944 270 -1
944 487 -1
944 689 -1
944 944 10
945 70 -1
945 443 -1
945 787 -1
945 797 -1
945 945 9
946 260 -1
946 431 -1
946 587 -1
946 946 6
947 46 -1
947 258 -1
947 532 -1
947 947 7
948 51 -1
948 472 -1
948 604 -1
948 617 -1
948 694 -1
948 948 7
949 52 -1
949 459 -1
949 838 -1
949 949 4
950 170 -1
950 370 -1
950 437 -1
950 582 -1
950 686 -1
950 782 -1
950 950 10
951 501 -1
951 731 -1
951 951 7
952 35 -1
952 188 -1
952 305 -1
952 467 -1
952 468 -1
952 773 -1
952 809 -1
952 952 10
953 10 -1
953 32 -1
953 348 -1
953 705 -1
953 777 -1
953 953 6
954 52 -1
954 383 -1
954 721 -1
954 848 -1
954 871 -1
954 954 7
955 67 -1
955 206 -1
955 557 -1
955 714 -1
955 750 -1
955 955 7
956 97 -1
956 98 -1
956 172 -1
956 383 -1
956 525 -1
956 549 -1
956 956 7
957 156 -1
957 397 -1
957 554 -1
957 885 -1
957 957 7
958 171 -1
958 671 -1
958 727 -1
958 958 4
959 10 -1
959 563 -1
959 779 -1
959 959 4
960 57 -1
960 125 -1
960 827 -1
960 960 5
961 20 -1
961 66 -1
961 201 -1
961 270 -1
961 733 -1
961 961 8
962 168 -1
962 282 -1
962 318 -1
962 704 -1
962 760 -1
962 962 10
963 184 -1
963 191 -1
963 661 -1
963 907 -1
963 963 8
964 918 -1
964 955 -1
964 964 7
965 386 -1
965 607 -1
965 965 4
966 122 -1
966 156 -1
966 317 -1
966 702 -1
966 716 -1
966 870 -1
966 966 7
967 259 -1
967 403 -1
967 785 -1
967 813 -1
967 967 6
968 31 -1
968 111 -1
968 121 -1
968 138 -1
968 571 -1
968 669 -1
968 827 -1
968 968 10
969 55 -1
969 464 -1
969 724 -1
969 743 -1
969 752 -1
969 800 -1
969 969 6
970 32 -1
970 88 -1
970 267 -1
970 574 -1
970 763 -1
970 771 -1
970 862 -1
970 970 10
971 206 -1
971 971 1
972 221 -1
972 348 -1
972 401 -1
972 625 -1
972 676 -1
972 771 -1
972 972 8
973 99 -1
973 472 -1
973 973 8
974 83 -1
974 538 -1
974 631 -1
974 974 10
975 385 -1
975 399 -1
975 612 -1
975 975 4
976 23 -1
976 779 -1
976 951 -1
976 976 6
977 38 -1
977 202 -1
977 226 -1
977 768 -1
977 799 -1
977 830 -1
977 951 -1
977 968 -1
977 977 10
978 48 -1
978 168 -1
978 805 -1
978 978 6
979 138 -1
979 151 -1
979 446 -1
979 784 -1
979 979 7
980 410 -1
980 469 -1
980 484 -1
980 872 -1
980 911 -1
980 980 10
981 8 -1
981 353 -1
981 981 4
982 114 -1
982 243 -1
982 813 -1
982 973 -1
982 982 7
983 383 -1
983 577 -1
983 791 -1
983 983 4
984 533 -1
984 563 -1
984 984 7
985 157 -1
985 461 -1
985 799 -1
985 919 -1
985 985 5
986 195 -1
986 752 -1
986 753 -1
986 879 -1
986 986 5
987 193 -1
987 402 -1
987 640 -1
987 720 -1
987 848 -1
987 987 9
988 16 -1
988 407 -1
988 851 -1
988 853 -1
988 988 8
989 122 -1
989 174 -1
989 409 -1
989 649 -1
989 716 -1
989 989 8
990 169 -1
990 192 -1
990 339 -1
990 382 -1
990 619 -1
990 629 -1
990 719 -1
990 918 -1
990 990 14
991 19 -1
991 56 -1
991 429 -1
991 968 -1
991 991 6
992 35 -1
992 331 -1
992 476 -1
992 571 -1
992 664 -1
992 992 8
993 93 -1
993 336 -1
993 498 -1
993 993 5
994 461 -1
994 505 -1
994 518 -1
994 994 5
995 67 -1
995 160 -1
995 344 -1
995 527 -1
995 629 -1
995 790 -1
995 935 -1
995 995 10
996 609 -1
996 996 5
997 40 -1
997 90 -1
997 243 -1
997 795 -1
997 856 -1
997 997 6
998 282 -1
998 371 -1
998 413 -1
998 416 -1
998 434 -1
998 453 -1
998 547 -1
998 649 -1
998 871 -1
998 998 11
999 170 -1
999 404 -1
999 592 -1
999 634 -1
999 964 -1
999 999 6
1000 203 -1
1000 418 -1
1000 506 -1
1000 522 -1
1000 709 -1
1000 831 -1
1000 993 -1
1000 1000 8
1001 51 -1
1001 179 -1
1001 848 -1
1001 853 -1
1001 1001 5
1002 142 -1
1002 589 -1
1002 756 -1
1002 1002 9
1003 104 -1
1003 153 -1
1003 421 -1
1003 472 -1
1003 1003 5
1004 28 -1
1004 313 -1
1004 833 -1
1004 1004 6
1005 1005 1
1006 275 -1
1006 316 -1
1006 324 -1
1006 430 -1
1006 468 -1
1006 499 -1
1006 747 -1
1006 1006 11
1007 383 -1
1007 677 -1
1007 773 -1
1007 1007 6
1008 257 -1
1008 362 -1
1008 372 -1
1008 568 -1
1008 583 -1
1008 612 -1
1008 646 -1
1008 779 -1
1008 1008 12
1009 655 -1
1009 982 -1
1009 1009 6
1010 137 -1
1010 329 -1
1010 484 -1
1010 492 -1
1010 920 -1
1010 961 -1
1010 1010 6
1011 4 -1
1011 449 -1
1011 676 -1
1011 861 -1
1011 1011 6
1012 61 -1
1012 169 -1
1012 172 -1
1012 234 -1
1012 310 -1
1012 429 -1
1012 574 -1
1012 742 -1
1012 757 -1
1012 798 -1
1012 881 -1
1012 898 -1
1012 991 -1
1012 1012 15
1013 106 -1
1013 222 -1
1013 340 -1
1013 474 -1
1013 625 -1
1013 1013 6
1014 65 -1
1014 417 -1
1014 605 -1
1014 757 -1
1014 1014 6
1015 233 -1
1015 336 -1
1015 775 -1
1015 865 -1
1015 890 -1
1015 1011 -1
1015 1015 7
1016 187 -1
1016 342 -1
1016 504 -1
1016 633 -1
1016 654 -1
1016 1016 5
1017 86 -1
1017 234 -1
1017 334 -1
1017 1017 9
1018 190 -1
1018 383 -1
1018 1018 5
1019 21 -1
1019 1019 4
1020 2 -1
1020 100 -1
1020 799 -1
1020 1020 4
1021 180 -1
1021 414 -1
1021 450 -1
1021 950 -1
1021 1021 5
1022 257 -1
1022 420 -1
1022 684 -1
1022 870 -1
1022 901 -1
1022 1022 8
1023 250 -1
1023 372 -1
1023 440 -1
1023 485 -1
1023 934 -1
1023 1023 9
1024 110 -1
1024 523 -1
1024 545 -1
1024 708 -1
1024 1024 7
1025 89 -1
1025 252 -1
1025 259 -1
1025 348 -1
1025 417 -1
1025 717 -1
1025 1013 -1
1025 1025 11
1026 718 -1
1026 758 -1
1026 975 -1
1026 1026 4
1027 105 -1
1027 123 -1
1027 321 -1
1027 664 -1
1027 888 -1
1027 1027 5
1028 1 -1
1028 454 -1
1028 481 -1
1028 594 -1
1028 931 -1
1028 1028 11
1029 10 -1
1029 183 -1
1029 253 -1
1029 459 -1
1029 523 -1
1029 830 -1
1029 1029 8
1030 42 -1
1030 225 -1
1030 374 -1
1030 408 -1
1030 717 -1
1030 733 -1
1030 738 -1
1030 992 -1
1030 1030 12
1031 40 -1
1031 413 -1
1031 658 -1
1031 1031 5
1032 395 -1
1032 505 -1
1032 878 -1
1032 1032 5
1033 44 -1
1033 169 -1
1033 720 -1
1033 909 -1
1033 915 -1
1033 1033 5
1034 18 -1
1034 95 -1
1034 356 -1
1034 375 -1
1034 397 -1
1034 465 -1
1034 658 -1
1034 692 -1
1034 695 -1
1034 800 -1
1034 893 -1
1034 926 -1
1034 1022 -1
1034 1034 14
1035 295 -1
1035 447 -1
1035 987 -1
1035 1035 5
1036 80 -1
1036 282 -1
1036 476 -1
1036 497 -1
1036 532 -1
1036 621 -1
1036 935 -1
1036 950 -1
1036 1036 11
1037 54 -1
1037 215 -1
1037 330 -1
1037 641 -1
1037 1037 8
1038 177 -1
1038 327 -1
1038 333 -1
1038 470 -1
1038 563 -1
1038 947 -1
1038 1038 8
1039 556 -1
1039 581 -1
1039 651 -1
1039 684 -1
1039 891 -1
1039 926 -1
1039 989 -1
1039 1039 10
1040 317 -1
1040 614 -1
1040 921 -1
1040 1040 6
1041 288 -1
1041 583 -1
1041 946 -1
1041 996 -1
1041 1030 -1
1041 1041 10
1042 181 -1
1042 239 -1
1042 291 -1
1042 882 -1
1042 910 -1
1042 984 -1
1042 1042 9
1043 147 -1
1043 281 -1
1043 338 -1
1043 693 -1
1043 893 -1
1043 965 -1
1043 1038 -1
1043 1043 7
1044 42 -1
1044 255 -1
1044 869 -1
1044 981 -1
1044 1044 5
1045 29 -1
1045 171 -1
1045 365 -1
1045 541 -1
1045 979 -1
1045 1006 -1
1045 1045 10
1046 105 -1
1046 527 -1
1046 634 -1
1046 685 -1
1046 869 -1
1046 915 -1
1046 1046 9
1047 2 -1
1047 257 -1
1047 278 -1
1047 385 -1
1047 415 -1
1047 701 -1
1047 861 -1
1047 990 -1
1047 1047 9
1048 43 -1
1048 141 -1
1048 165 -1
1048 209 -1
1048 316 -1
1048 495 -1
1048 553 -1
1048 558 -1
1048 902 -1
1048 1048 10
1049 114 -1
1049 422 -1
1049 580 -1
1049 1049 6
1050 156 -1
1050 259 -1
1050 286 -1
1050 344 -1
1050 517 -1
1050 526 -1
1050 855 -1
1050 979 -1
1050 1050 10
1051 357 -1
1051 481 -1
1051 745 -1
1051 851 -1
1051 1051 6
1052 291 -1
1052 409 -1
1052 700 -1
1052 924 -1
1052 1052 6
1053 430 -1
1053 974 -1
1053 988 -1
1053 1037 -1
1053 1053 6
1054 120 -1
1054 223 -1
1054 336 -1
1054 373 -1
1054 737 -1
1054 758 -1
1054 1054 10
1055 25 -1
1055 45 -1
1055 73 -1
1055 330 -1
1055 443 -1
1055 855 -1
1055 1055 9
1056 237 -1
1056 411 -1
1056 525 -1
1056 531 -1
1056 792 -1
1056 825 -1
1056 1056 10
1057 288 -1
1057 607 -1
1057 1034 -1
1057 1057 6
1058 29 -1
1058 88 -1
1058 621 -1
1058 692 -1
1058 902 -1
1058 908 -1
1058 929 -1
1058 1058 9
1059 17 -1
1059 151 -1
1059 200 -1
1059 1037 -1
1059 1059 5
1060 172 -1
1060 256 -1
1060 272 -1
1060 487 -1
1060 488 -1
1060 607 -1
1060 980 -1
1060 1060 10
1061 390 -1
1061 488 -1
1061 931 -1
1061 1045 -1
1061 1061 4
1062 296 -1
1062 323 -1
1062 589 -1
1062 696 -1
1062 796 -1
1062 981 -1
1062 1062 7
1063 92 -1
1063 160 -1
1063 293 -1
1063 315 -1
1063 316 -1
1063 769 -1
1063 821 -1
1063 874 -1
1063 1063 8
1064 131 -1
1064 319 -1
1064 414 -1
1064 445 -1
1064 589 -1
1064 843 -1
1064 1017 -1
1064 1064 8
1065 11 -1
1065 173 -1
1065 571 -1
1065 785 -1
1065 1014 -1
1065 1065 6
1066 187 -1
1066 217 -1
1066 359 -1
1066 662 -1
1066 770 -1
1066 1066 9
1067 2 -1
1067 19 -1
1067 301 -1
1067 394 -1
1067 433 -1
1067 476 -1
1067 1067 8
1068 279 -1
1068 930 -1
1068 1068 5
1069 67 -1
1069 212 -1
1069 243 -1
1069 275 -1
1069 726 -1
1069 739 -1
1069 930 -1
1069 1069 8
1070 594 -1
1070 932 -1
1070 1019 -1
1070 1070 5
1071 129 -1
1071 225 -1
1071 415 -1
1071 509 -1
1071 577 -1
1071 615 -1
1071 617 -1
1071 1028 -1
1071 1071 9
1072 564 -1
1072 698 -1
1072 1009 -1
1072 1017 -1
1072 1072 5
1073 56 -1
1073 70 -1
1073 111 -1
1073 153 -1
1073 201 -1
1073 355 -1
1073 384 -1
1073 625 -1
1073 752 -1
1073 1057 -1
1073 1073 11
1074 163 -1
1074 268 -1
1074 503 -1
1074 662 -1
1074 809 -1
1074 1004 -1
1074 1074 10
1075 223 -1
1075 238 -1
1075 821 -1
1075 845 -1
1075 1075 5
1076 315 -1
1076 862 -1
1076 1056 -1
1076 1076 3
1077 364 -1
1077 434 -1
1077 487 -1
1077 573 -1
1077 660 -1
1077 669 -1
1077 697 -1
1077 749 -1
1077 755 -1
1077 1077 10
1078 44 -1
1078 252 -1
1078 436 -1
1078 761 -1
1078 980 -1
1078 1036 -1
1078 1078 8
1079 93 -1
1079 169 -1
1079 799 -1
1079 1079 5
1080 723 -1
1080 1080 3
1081 220 -1
1081 240 -1
1081 280 -1
1081 470 -1
1081 537 -1
1081 769 -1
1081 1057 -1
1081 1081 10
1082 24 -1
1082 574 -1
1082 656 -1
1082 795 -1
1082 888 -1
1082 1082 9
1083 131 -1
1083 1083 3
1084 667 -1
1084 726 -1
1084 976 -1
1084 1084 3
1085 393 -1
1085 555 -1
1085 667 -1
1085 950 -1
1085 1085 6
1086 73 -1
1086 395 -1
1086 521 -1
1086 553 -1
1086 615 -1
1086 776 -1
1086 1008 -1
1086 1086 8
1087 293 -1
1087 511 -1
1087 515 -1
1087 729 -1
1087 1087 6
1088 156 -1
1088 597 -1
1088 756 -1
1088 874 -1
1088 1024 -1
1088 1028 -1
1088 1088 8
1089 110 -1
1089 287 -1
1089 432 -1
1089 767 -1
1089 1082 -1
1089 1089 10
1090 248 -1
1090 449 -1
1090 1070 -1
1090 1090 6
1091 76 -1
1091 333 -1
1091 470 -1
1091 623 -1
1091 748 -1
1091 850 -1
1091 974 -1
1091 1021 -1
1091 1032 -1
1091 1091 11
1092 845 -1
1092 913 -1
1092 944 -1
1092 1092 5
1093 109 -1
1093 552 -1
1093 687 -1
1093 1093 6
1094 66 -1
1094 133 -1
1094 342 -1
1094 372 -1
1094 399 -1
1094 794 -1
1094 895 -1
1094 1094 13
1095 580 -1
1095 648 -1
1095 701 -1
1095 747 -1
1095 1095 9
1096 368 -1
1096 870 -1
1096 1096 4
1097 76 -1
1097 411 -1
1097 666 -1
1097 790 -1
1097 792 -1
1097 1096 -1
1097 1097 8
1098 162 -1
1098 344 -1
1098 616 -1
1098 713 -1
1098 717 -1
1098 742 -1
1098 1098 6
1099 202 -1
1099 229 -1
1099 239 -1
1099 893 -1
1099 1099 7
1100 13 -1
1100 518 -1
1100 874 -1
1100 1100 4
1101 246 -1
1101 393 -1
1101 694 -1
1101 816 -1
1101 891 -1
1101 1101 6
1102 93 -1
1102 253 -1
1102 797 -1
1102 906 -1
1102 1007 -1
1102 1102 7
1103 31 -1
1103 118 -1
1103 263 -1
1103 336 -1
1103 380 -1
1103 831 -1
1103 970 -1
1103 1103 11
1104 188 -1
1104 951 -1
1104 1104 5
1105 25 -1
1105 126 -1
1105 142 -1
1105 252 -1
1105 745 -1
1105 963 -1
1105 1099 -1
1105 1105 10
1106 234 -1
1106 656 -1
1106 898 -1
1106 1018 -1
1106 1106 5
1107 62 -1
1107 261 -1
1107 403 -1
1107 467 -1
1107 806 -1
1107 967 -1
1107 1107 8
1108 3 -1
1108 224 -1
1108 414 -1
1108 608 -1
1108 617 -1
1108 625 -1
1108 742 -1
1108 819 -1
1108 1108 8
1109 161 -1
1109 208 -1
1109 394 -1
1109 524 -1
1109 525 -1
1109 924 -1
1109 1109 10
1110 18 -1
1110 120 -1
1110 134 -1
1110 165 -1
1110 224 -1
1110 415 -1
1110 639 -1
1110 1014 -1
1110 1110 12
1111 122 -1
1111 315 -1
1111 487 -1
1111 538 -1
1111 550 -1
1111 882 -1
1111 886 -1
1111 1111 12
1112 177 -1
1112 218 -1
1112 539 -1
1112 737 -1
1112 771 -1
1112 780 -1
1112 1112 10
1113 28 -1
1113 197 -1
1113 254 -1
1113 386 -1
1113 700 -1
1113 952 -1
1113 1113 10
1114 117 -1
1114 196 -1
1114 784 -1
1114 856 -1
1114 992 -1
1114 1114 8
1115 9 -1
1115 183 -1
1115 397 -1
1115 923 -1
1115 967 -1
1115 1096 -1
1115 1115 10
1116 499 -1
1116 620 -1
1116 783 -1
1116 1116 5
1117 126 -1
1117 333 -1
1117 514 -1
1117 828 -1
1117 1117 5
1118 213 -1
1118 913 -1
1118 1118 4
1119 835 -1
1119 848 -1
1119 1089 -1
1119 1119 6
1120 9 -1
1120 514 -1
1120 525 -1
1120 631 -1
1120 735 -1
1120 999 -1
1120 1020 -1
1120 1120 7
1121 14 -1
1121 724 -1
1121 1121 3
1122 120 -1
1122 154 -1
1122 192 -1
1122 335 -1
1122 468 -1
1122 499 -1
1122 526 -1
1122 911 -1
1122 917 -1
1122 1023 -1
1122 1024 -1
1122 1122 12
1123 334 -1
1123 474 -1
1123 913 -1
1123 978 -1
1123 1123 8
1124 130 -1
1124 474 -1
1124 982 -1
1124 1124 5
1125 265 -1
1125 293 -1
1125 632 -1
1125 633 -1
1125 831 -1
1125 1125 7
1126 367 -1
1126 615 -1
1126 762 -1
1126 904 -1
1126 909 -1
1126 1126 6
1127 64 -1
1127 323 -1
1127 654 -1
1127 733 -1
1127 1005 -1
1127 1127 6
1128 738 -1
1128 1066 -1
1128 1094 -1
1128 1128 5
1129 99 -1
1129 247 -1
1129 263 -1
1129 452 -1
1129 499 -1
1129 637 -1
1129 644 -1
1129 767 -1
1129 1129 9
1130 47 -1
1130 244 -1
1130 669 -1
1130 735 -1
1130 755 -1
1130 900 -1
1130 1023 -1
1130 1130 7
1131 431 -1
1131 573 -1
1131 884 -1
1131 1131 7
1132 185 -1
1132 453 -1
1132 571 -1
1132 789 -1
1132 852 -1
1132 1045 -1
1132 1053 -1
1132 1132 9
1133 99 -1
1133 502 -1
1133 508 -1
1133 883 -1
1133 890 -1
1133 1133 6
1134 197 -1
1134 243 -1
1134 706 -1
1134 715 -1
1134 746 -1
1134 845 -1
1134 903 -1
1134 1134 8
1135 4 -1
1135 555 -1
1135 641 -1
1135 962 -1
1135 1031 -1
1135 1037 -1
1135 1078 -1
1135 1123 -1
1135 1135 9
1136 39 -1
1136 155 -1
1136 570 -1
1136 868 -1
1136 995 -1
1136 1136 7
1137 262 -1
1137 418 -1
1137 549 -1
1137 935 -1
1137 1102 -1
1137 1137 5
1138 75 -1
1138 295 -1
1138 1138 2
1139 301 -1
1139 321 -1
1139 399 -1
1139 546 -1
1139 1139 9
1140 82 -1
1140 91 -1
1140 432 -1
1140 437 -1
1140 693 -1
1140 1049 -1
1140 1140 9
1141 67 -1
1141 70 -1
1141 159 -1
1141 188 -1
1141 228 -1
1141 505 -1
1141 618 -1
1141 644 -1
1141 762 -1
1141 1074 -1
1141 1141 12
1142 134 -1
1142 265 -1
1142 399 -1
1142 564 -1
1142 778 -1
1142 819 -1
1142 1142 8
1143 84 -1
1143 350 -1
1143 412 -1
1143 580 -1
1143 784 -1
1143 941 -1
1143 974 -1
1143 1143 11
1144 183 -1
1144 359 -1
1144 579 -1
1144 726 -1
1144 989 -1
1144 1046 -1
1144 1085 -1
1144 1144 7
1145 45 -1
1145 839 -1
1145 907 -1
1145 951 -1
1145 1025 -1
1145 1145 5
1146 142 -1
1146 250 -1
1146 271 -1
1146 337 -1
1146 585 -1
1146 642 -1
1146 722 -1
1146 747 -1
1146 863 -1
1146 978 -1
1146 1029 -1
1146 1146 12
1147 269 -1
1147 1147 3
1148 234 -1
1148 600 -1
1148 695 -1
1148 1148 5
1149 179 -1
1149 184 -1
1149 613 -1
1149 1149 3
1150 92 -1
1150 206 -1
1150 291 -1
1150 491 -1
1150 644 -1
1150 1111 -1
1150 1150 6
1151 184 -1
1151 260 -1
1151 269 -1
1151 488 -1
1151 938 -1
1151 954 -1
1151 1113 -1
1151 1151 8
1152 19 -1
1152 589 -1
1152 629 -1
1152 740 -1
1152 786 -1
1152 805 -1
1152 843 -1
1152 965 -1
1152 966 -1
1152 1085 -1
1152 1152 11
1153 13 -1
1153 182 -1
1153 228 -1
1153 923 -1
1153 998 -1
1153 1153 7
1154 156 -1
1154 608 -1
1154 634 -1
1154 707 -1
1154 1154 5
1155 56 -1
1155 319 -1
1155 407 -1
1155 686 -1
1155 1042 -1
1155 1155 8
1156 83 -1
1156 416 -1
1156 434 -1
1156 513 -1
1156 1006 -1
1156 1156 7
1157 336 -1
1157 520 -1
1157 765 -1
1157 820 -1
1157 1065 -1
1157 1125 -1
1157 1157 7
1158 367 -1
1158 417 -1
1158 585 -1
1158 984 -1
1158 1009 -1
1158 1052 -1
1158 1158 7
1159 683 -1
1159 727 -1
1159 972 -1
1159 1159 4
1160 61 -1
1160 545 -1
1160 574 -1
1160 774 -1
1160 984 -1
1160 1094 -1
1160 1160 8
1161 412 -1
1161 501 -1
1161 917 -1
1161 1044 -1
1161 1139 -1
1161 1161 8
1162 47 -1
1162 60 -1
1162 99 -1
1162 170 -1
1162 352 -1
1162 874 -1
1162 927 -1
1162 1011 -1
1162 1162 8
1163 40 -1
1163 159 -1
1163 224 -1
1163 258 -1
1163 473 -1
1163 498 -1
1163 667 -1
1163 988 -1
1163 1163 11
1164 233 -1
1164 276 -1
1164 341 -1
1164 400 -1
1164 755 -1
1164 1164 6
1165 60 -1
1165 155 -1
1165 366 -1
1165 490 -1
1165 611 -1
1165 676 -1
1165 1018 -1
1165 1089 -1
1165 1109 -1
1165 1165 9
1166 78 -1
1166 374 -1
1166 471 -1
1166 719 -1
1166 747 -1
1166 942 -1
1166 1166 10
1167 273 -1
1167 279 -1
1167 390 -1
1167 411 -1
1167 436 -1
1167 478 -1
1167 483 -1
1167 730 -1
1167 822 -1
1167 942 -1
1167 1167 11
1168 573 -1
1168 682 -1
1168 732 -1
1168 766 -1
1168 1168 6
1169 341 -1
1169 487 -1
1169 509 -1
1169 531 -1
1169 631 -1
1169 896 -1
1169 942 -1
1169 996 -1
1169 1066 -1
1169 1169 10
1170 71 -1
1170 163 -1
1170 254 -1
1170 258 -1
1170 353 -1
1170 363 -1
1170 365 -1
1170 864 -1
1170 1170 9
1171 112 -1
1171 190 -1
1171 354 -1
1171 446 -1
1171 463 -1
1171 522 -1
1171 523 -1
1171 1082 -1
1171 1086 -1
1171 1171 12
1172 182 -1
1172 215 -1
1172 319 -1
1172 428 -1
1172 469 -1
1172 537 -1
1172 572 -1
1172 600 -1
1172 851 -1
1172 1172 14
1173 67 -1
1173 135 -1
1173 383 -1
1173 593 -1
1173 613 -1
1173 1173 8
1174 324 -1
1174 562 -1
1174 565 -1
1174 678 -1
1174 875 -1
1174 882 -1
1174 1174 8
1175 390 -1
1175 1095 -1
1175 1175 2
1176 12 -1
1176 506 -1
1176 559 -1
1176 680 -1
1176 928 -1
1176 941 -1
1176 1042 -1
1176 1176 9
1177 150 -1
1177 160 -1
1177 218 -1
1177 239 -1
1177 467 -1
1177 519 -1
1177 663 -1
1177 690 -1
1177 831 -1
1177 1147 -1
1177 1177 12
1178 193 -1
1178 575 -1
1178 1161 -1
1178 1178 6
1179 202 -1
1179 261 -1
1179 334 -1
1179 448 -1
1179 495 -1
1179 820 -1
1179 1007 -1
1179 1025 -1
1179 1029 -1
1179 1179 12
1180 270 -1
1180 335 -1
1180 625 -1
1180 796 -1
1180 845 -1
1180 1110 -1
1180 1153 -1
1180 1163 -1
1180 1180 11
1181 103 -1
1181 127 -1
1181 211 -1
1181 214 -1
1181 476 -1
1181 522 -1
1181 723 -1
1181 741 -1
1181 813 -1
1181 1035 -1
1181 1181 11
1182 557 -1
1182 838 -1
1182 1182 3
1183 55 -1
1183 203 -1
1183 565 -1
1183 571 -1
1183 993 -1
1183 1141 -1
1183 1183 6
1184 234 -1
1184 1184 3
1185 24 -1
1185 265 -1
1185 1185 3
1186 184 -1
1186 522 -1
1186 704 -1
1186 862 -1
1186 1186 6
1187 70 -1
1187 103 -1
1187 151 -1
1187 433 -1
1187 505 -1
1187 696 -1
1187 720 -1
1187 1127 -1
1187 1187 10
1188 330 -1
1188 989 -1
1188 1030 -1
1188 1055 -1
1188 1188 6
1189 28 -1
1189 220 -1
1189 233 -1
1189 514 -1
1189 640 -1
1189 658 -1
1189 686 -1
1189 1189 10
1190 5 -1
1190 36 -1
1190 141 -1
1190 546 -1
1190 744 -1
1190 783 -1
1190 854 -1
1190 1190 12
1191 69 -1
1191 220 -1
1191 909 -1
1191 1191 4
1192 44 -1
1192 121 -1
1192 417 -1
1192 1192 5
1193 390 -1
1193 411 -1
1193 435 -1
1193 561 -1
1193 1041 -1
1193 1072 -1
1193 1193 7
1194 10 -1
1194 51 -1
1194 156 -1
1194 267 -1
1194 635 -1
1194 744 -1
1194 1111 -1
1194 1194 8
1195 5 -1
1195 81 -1
1195 283 -1
1195 620 -1
1195 813 -1
1195 1195 7
1196 29 -1
1196 124 -1
1196 217 -1
1196 378 -1
1196 570 -1
1196 1131 -1
1196 1196 9
1197 237 -1
1197 449 -1
1197 941 -1
1197 968 -1
1197 1197 8
1198 707 -1
1198 751 -1
1198 1082 -1
1198 1198 4
1199 53 -1
1199 698 -1
1199 723 -1
1199 802 -1
1199 1179 -1
1199 1199 7
1200 482 -1
1200 559 -1
1200 627 -1
1200 760 -1
1200 783 -1
1200 1126 -1
1200 1200 7
1201 329 -1
1201 848 -1
1201 849 -1
1201 1201 4
1202 48 -1
1202 210 -1
1202 359 -1
1202 452 -1
1202 508 -1
1202 653 -1
1202 964 -1
1202 1202 8
1203 318 -1
1203 416 -1
1203 640 -1
1203 1203 4
1204 28 -1
1204 106 -1
1204 501 -1
1204 897 -1
1204 990 -1
1204 992 -1
1204 1125 -1
1204 1204 8
1205 340 -1
1205 720 -1
1205 792 -1
1205 1062 -1
1205 1205 4
1206 51 -1
1206 263 -1
1206 284 -1
1206 359 -1
1206 559 -1
1206 772 -1
1206 1054 -1
1206 1068 -1
1206 1111 -1
1206 1148 -1
1206 1166 -1
1206 1206 11
1207 328 -1
1207 335 -1
1207 358 -1
1207 391 -1
1207 592 -1
1207 1055 -1
1207 1207 7
1208 413 -1
1208 512 -1
1208 774 -1
1208 1208 3
1209 152 -1
1209 320 -1
1209 1209 2
1210 444 -1
1210 651 -1
1210 933 -1
1210 1210 5
1211 184 -1
1211 230 -1
1211 799 -1
1211 1006 -1
1211 1060 -1
1211 1211 6
1212 81 -1
1212 217 -1
1212 243 -1
1212 292 -1
1212 705 -1
1212 1212 5
1213 385 -1
1213 425 -1
1213 503 -1
1213 883 -1
1213 1050 -1
1213 1109 -1
1213 1213 8
1214 426 -1
1214 432 -1
1214 435 -1
1214 535 -1
1214 911 -1
1214 1109 -1
1214 1197 -1
1214 1214 7
1215 363 -1
1215 794 -1
1215 1002 -1
1215 1047 -1
1215 1213 -1
1215 1215 6
1216 133 -1
1216 209 -1
1216 260 -1
1216 282 -1
1216 735 -1
1216 1216 7
1217 299 -1
1217 471 -1
1217 577 -1
1217 734 -1
1217 751 -1
1217 794 -1
1217 1147 -1
1217 1217 7
1218 595 -1
1218 858 -1
1218 1112 -1
1218 1218 5
1219 121 -1
1219 346 -1
1219 358 -1
1219 470 -1
1219 970 -1
1219 1219 7
1220 72 -1
1220 376 -1
1220 382 -1
1220 438 -1
1220 743 -1
1220 1174 -1
1220 1220 6
1221 398 -1
1221 465 -1
1221 564 -1
1221 631 -1
1221 984 -1
1221 1221 6
1222 203 -1
1222 212 -1
1222 278 -1
1222 548 -1
1222 839 -1
1222 1222 8
1223 33 -1
1223 803 -1
1223 1119 -1
1223 1223 6
1224 121 -1
1224 506 -1
1224 545 -1
1224 586 -1
1224 814 -1
1224 1045 -1
1224 1091 -1
1224 1171 -1
1224 1222 -1
1224 1224 9
1225 6 -1
1225 295 -1
1225 445 -1
1225 590 -1
1225 608 -1
1225 834 -1
1225 1041 -1
1225 1225 8
1226 404 -1
1226 618 -1
1226 902 -1
1226 1074 -1
1226 1119 -1
1226 1226 6
1227 23 -1
1227 89 -1
1227 349 -1
1227 386 -1
1227 504 -1
1227 670 -1
1227 672 -1
1227 724 -1
1227 738 -1
1227 869 -1
1227 1227 10
1228 137 -1
1228 171 -1
1228 373 -1
1228 601 -1
1228 905 -1
1228 1161 -1
1228 1228 7
1229 99 -1
1229 172 -1
1229 205 -1
1229 394 -1
1229 737 -1
1229 912 -1
1229 1229 8
1230 88 -1
1230 92 -1
1230 236 -1
1230 266 -1
1230 374 -1
1230 454 -1
1230 580 -1
1230 1030 -1
1230 1230 9
1231 5 -1
1231 28 -1
1231 253 -1
1231 534 -1
1231 743 -1
1231 929 -1
1231 977 -1
1231 1229 -1
1231 1231 9
1232 42 -1
1232 1006 -1
1232 1232 3
1233 149 -1
1233 593 -1
1233 612 -1
1233 777 -1
1233 883 -1
1233 1187 -1
1233 1233 7
1234 30 -1
1234 134 -1
1234 404 -1
1234 482 -1
1234 708 -1
1234 1234 6
1235 269 -1
1235 945 -1
1235 952 -1
1235 1058 -1
1235 1118 -1
1235 1235 6
1236 135 -1
1236 904 -1
1236 1236 5
1237 17 -1
1237 138 -1
1237 480 -1
1237 610 -1
1237 713 -1
1237 871 -1
1237 1114 -1
1237 1237 7
1238 128 -1
1238 142 -1
1238 408 -1
1238 426 -1
1238 554 -1
1238 851 -1
1238 853 -1
1238 978 -1
1238 1087 -1
1238 1131 -1
1238 1157 -1
1238 1238 12
1239 10 -1
1239 413 -1
1239 416 -1
1239 479 -1
1239 517 -1
1239 600 -1
1239 818 -1
1239 987 -1
1239 1239 8
1240 144 -1
1240 298 -1
1240 425 -1
1240 494 -1
1240 556 -1
1240 581 -1
1240 610 -1
1240 1002 -1
1240 1240 10
1241 121 -1
1241 122 -1
1241 307 -1
1241 407 -1
1241 622 -1
1241 771 -1
1241 990 -1
1241 1000 -1
1241 1115 -1
1241 1197 -1
1241 1241 14
1242 220 -1
1242 1030 -1
1242 1054 -1
1242 1067 -1
1242 1242 6
1243 46 -1
1243 130 -1
1243 200 -1
1243 242 -1
1243 310 -1
1243 443 -1
1243 516 -1
1243 580 -1
1243 1025 -1
1243 1094 -1
1243 1243 10
1244 206 -1
1244 378 -1
1244 866 -1
1244 901 -1
1244 1019 -1
1244 1026 -1
1244 1082 -1
1244 1172 -1
1244 1241 -1
1244 1244 10
1245 325 -1
1245 611 -1
1245 898 -1
1245 1122 -1
1245 1245 5
1246 67 -1
1246 71 -1
1246 1180 -1
1246 1190 -1
1246 1230 -1
1246 1246 7
1247 42 -1
1247 91 -1
1247 749 -1
1247 830 -1
1247 871 -1
1247 895 -1
1247 1054 -1
1247 1161 -1
1247 1247 8
1248 122 -1
1248 296 -1
1248 302 -1
1248 509 -1
1248 1248 6
1249 1110 -1
1249 1249 2
1250 101 -1
1250 359 -1
1250 469 -1
1250 541 -1
1250 561 -1
1250 585 -1
1250 937 -1
1250 1022 -1
1250 1092 -1
1250 1171 -1
1250 1250 10
1251 209 -1
1251 589 -1
1251 658 -1
1251 687 -1
1251 769 -1
1251 778 -1
1251 1154 -1
1251 1251 9
1252 77 -1
1252 82 -1
1252 85 -1
1252 189 -1
1252 225 -1
1252 264 -1
1252 369 -1
1252 556 -1
1252 765 -1
1252 882 -1
1252 1252 12
1253 79 -1
1253 115 -1
1253 129 -1
1253 261 -1
1253 364 -1
1253 409 -1
1253 770 -1
1253 1106 -1
1253 1253 10
1254 344 -1
1254 461 -1
1254 667 -1
1254 749 -1
1254 1002 -1
1254 1041 -1
1254 1222 -1
1254 1254 7
1255 57 -1
1255 785 -1
1255 878 -1
1255 886 -1
1255 1040 -1
1255 1229 -1
1255 1255 7
1256 167 -1
1256 477 -1
1256 961 -1
1256 1039 -1
1256 1079 -1
1256 1166 -1
1256 1256 7
1257 27 -1
1257 75 -1
1257 175 -1
1257 358 -1
1257 661 -1
1257 725 -1
1257 857 -1
1257 974 -1
1257 1142 -1
1257 1155 -1
1257 1257 12
1258 456 -1
1258 862 -1
1258 1258 3
1259 2 -1
1259 28 -1
1259 106 -1
1259 577 -1
1259 649 -1
1259 779 -1
1259 923 -1
1259 1204 -1
1259 1259 9
1260 9 -1
1260 180 -1
1260 228 -1
1260 313 -1
1260 411 -1
1260 720 -1
1260 866 -1
1260 1260 7
1261 93 -1
1261 151 -1
1261 318 -1
1261 459 -1
1261 1192 -1
1261 1261 6
1262 156 -1
1262 438 -1
1262 1262 3
1263 437 -1
1263 631 -1
1263 951 -1
1263 1012 -1
1263 1081 -1
1263 1263 6
1264 469 -1
1264 542 -1
1264 674 -1
1264 763 -1
1264 957 -1
1264 1036 -1
1264 1231 -1
1264 1264 8
1265 199 -1
1265 263 -1
1265 582 -1
1265 855 -1
1265 1223 -1
1265 1236 -1
1265 1251 -1
1265 1265 8
1266 149 -1
1266 665 -1
1266 1036 -1
1266 1197 -1
1266 1258 -1
1266 1266 8
1267 27 -1
1267 648 -1
1267 761 -1
1267 767 -1
1267 1040 -1
1267 1088 -1
1267 1112 -1
1267 1115 -1
1267 1167 -1
1267 1178 -1
1267 1267 12
1268 345 -1
1268 389 -1
1268 650 -1
1268 713 -1
1268 783 -1
1268 1268 8
1269 392 -1
1269 486 -1
1269 502 -1
1269 700 -1
1269 803 -1
1269 1269 5
1270 129 -1
1270 530 -1
1270 537 -1
1270 569 -1
1270 1270 6
1271 195 -1
1271 791 -1
1271 958 -1
1271 1271 4
1272 185 -1
1272 461 -1
1272 490 -1
1272 582 -1
1272 945 -1
1272 1095 -1
1272 1272 7
1273 182 -1
1273 332 -1
1273 644 -1
1273 757 -1
1273 811 -1
1273 898 -1
1273 1273 7
1274 343 -1
1274 512 -1
1274 515 -1
1274 605 -1
1274 639 -1
1274 680 -1
1274 778 -1
1274 873 -1
1274 995 -1
1274 1274 10
1275 16 -1
1275 246 -1
1275 327 -1
1275 799 -1
1275 1166 -1
1275 1176 -1
1275 1257 -1
1275 1275 7
1276 20 -1
1276 52 -1
1276 236 -1
1276 613 -1
1276 634 -1
1276 735 -1
1276 758 -1
1276 771 -1
1276 1080 -1
1276 1089 -1
1276 1160 -1
1276 1276 11
1277 221 -1
1277 482 -1
1277 545 -1
1277 658 -1
1277 692 -1
1277 733 -1
1277 1103 -1
1277 1139 -1
1277 1277 9
1278 432 -1
1278 455 -1
1278 798 -1
1278 886 -1
1278 1278 8
1279 234 -1
1279 1196 -1
1279 1279 3
1280 190 -1
1280 565 -1
1280 1155 -1
1280 1242 -1
1280 1277 -1
1280 1280 7
1281 255 -1
1281 314 -1
1281 375 -1
1281 520 -1
1281 633 -1
1281 640 -1
1281 923 -1
1281 964 -1
1281 1172 -1
1281 1281 10
1282 168 -1
1282 239 -1
1282 298 -1
1282 990 -1
1282 1179 -1
1282 1193 -1
1282 1282 7
1283 120 -1
1283 248 -1
1283 401 -1
1283 830 -1
1283 857 -1
1283 1115 -1
1283 1283 7
1284 338 -1
1284 592 -1
1284 606 -1
1284 741 -1
1284 770 -1
1284 838 -1
1284 1284 7
1285 21 -1
1285 117 -1
1285 139 -1
1285 174 -1
1285 309 -1
1285 592 -1
1285 829 -1
1285 875 -1
1285 909 -1
1285 962 -1
1285 1136 -1
1285 1172 -1
1285 1285 12
1286 62 -1
1286 89 -1
1286 379 -1
1286 621 -1
1286 899 -1
1286 1012 -1
1286 1146 -1
1286 1278 -1
1286 1286 10
1287 374 -1
1287 417 -1
1287 842 -1
1287 874 -1
1287 1045 -1
1287 1287 6
1288 38 -1
1288 189 -1
1288 195 -1
1288 379 -1
1288 622 -1
1288 798 -1
1288 815 -1
1288 1093 -1
1288 1278 -1
1288 1288 11
1289 112 -1
1289 173 -1
1289 226 -1
1289 400 -1
1289 500 -1
1289 905 -1
1289 1115 -1
1289 1281 -1
1289 1289 9
1290 323 -1
1290 459 -1
1290 581 -1
1290 777 -1
1290 943 -1
1290 1080 -1
1290 1290 6
1291 109 -1
1291 635 -1
1291 638 -1
1291 725 -1
1291 1053 -1
1291 1256 -1
1291 1257 -1
1291 1291 7
1292 23 -1
1292 75 -1
1292 105 -1
1292 928 -1
1292 1103 -1
1292 1236 -1
1292 1292 8
1293 162 -1
1293 248 -1
1293 409 -1
1293 1070 -1
1293 1089 -1
1293 1293 5
1294 233 -1
1294 405 -1
1294 470 -1
1294 988 -1
1294 1009 -1
1294 1074 -1
1294 1186 -1
1294 1294 8
1295 374 -1
1295 813 -1
1295 1128 -1
1295 1295 5
1296 285 -1
1296 603 -1
1296 947 -1
1296 1296 4
1297 90 -1
1297 210 -1
1297 287 -1
1297 450 -1
1297 494 -1
1297 648 -1
1297 880 -1
1297 927 -1
1297 1039 -1
1297 1135 -1
1297 1297 10
1298 15 -1
1298 306 -1
1298 1124 -1
1298 1298 6
1299 274 -1
1299 567 -1
1299 686 -1
1299 725 -1
1299 727 -1
1299 940 -1
1299 1093 -1
1299 1246 -1
1299 1271 -1
1299 1299 9
1300 46 -1
1300 495 -1
1300 510 -1
1300 774 -1
1300 783 -1
1300 900 -1
1300 1022 -1
1300 1268 -1
1300 1300 8
1301 229 -1
1301 618 -1
1301 634 -1
1301 803 -1
1301 1104 -1
1301 1301 5
1302 163 -1
1302 201 -1
1302 332 -1
1302 515 -1
1302 569 -1
1302 800 -1
1302 1302 6
1303 617 -1
1303 687 -1
1303 707 -1
1303 847 -1
1303 1303 6
1304 31 -1
1304 141 -1
1304 601 -1
1304 814 -1
1304 878 -1
1304 947 -1
1304 1095 -1
1304 1111 -1
1304 1304 8
1305 395 -1
1305 597 -1
1305 660 -1
1305 921 -1
1305 1140 -1
1305 1143 -1
1305 1305 7
1306 98 -1
1306 393 -1
1306 556 -1
1306 1163 -1
1306 1264 -1
1306 1292 -1
1306 1306 6
1307 61 -1
1307 398 -1
1307 423 -1
1307 777 -1
1307 1099 -1
1307 1169 -1
1307 1307 6
1308 109 -1
1308 183 -1
1308 184 -1
1308 311 -1
1308 457 -1
1308 502 -1
1308 517 -1
1308 863 -1
1308 974 -1
1308 1191 -1
1308 1308 13
1309 875 -1
1309 973 -1
1309 1025 -1
1309 1113 -1
1309 1308 -1
1309 1309 5
1310 165 -1
1310 364 -1
1310 812 -1
1310 817 -1
1310 1194 -1
1310 1240 -1
1310 1298 -1
1310 1310 7
1311 29 -1
1311 96 -1
1311 177 -1
1311 316 -1
1311 343 -1
1311 513 -1
1311 1092 -1
1311 1311 9
1312 14 -1
1312 925 -1
1312 1312 2
1313 115 -1
1313 223 -1
1313 403 -1
1313 427 -1
1313 902 -1
1313 970 -1
1313 1313 6
1314 1118 -1
1314 1288 -1
1314 1314 4
1315 136 -1
1315 586 -1
1315 878 -1
1315 1078 -1
1315 1110 -1
1315 1315 5
1316 12 -1
1316 95 -1
1316 118 -1
1316 254 -1
1316 375 -1
1316 567 -1
1316 789 -1
1316 854 -1
1316 1316 8
1317 16 -1
1317 278 -1
1317 473 -1
1317 512 -1
1317 751 -1
1317 760 -1
1317 982 -1
1317 1317 9
1318 19 -1
1318 664 -1
1318 800 -1
1318 869 -1
1318 1318 5
1319 78 -1
1319 242 -1
1319 243 -1
1319 317 -1
1319 361 -1
1319 452 -1
1319 674 -1
1319 817 -1
1319 1174 -1
1319 1319 10
1320 188 -1
1320 391 -1
1320 459 -1
1320 489 -1
1320 817 -1
1320 903 -1
1320 1320 6
1321 79 -1
1321 314 -1
1321 403 -1
1321 464 -1
1321 503 -1
1321 552 -1
1321 743 -1
1321 1219 -1
1321 1321 8
1322 173 -1
1322 258 -1
1322 666 -1
1322 819 -1
1322 988 -1
1322 1060 -1
1322 1322 8
1323 30 -1
1323 128 -1
1323 210 -1
1323 223 -1
1323 284 -1
1323 292 -1
1323 495 -1
1323 727 -1
1323 806 -1
1323 945 -1
1323 1190 -1
1323 1323 12
1324 81 -1
1324 86 -1
1324 836 -1
1324 909 -1
1324 1311 -1
1324 1324 5
1325 103 -1
1325 655 -1
1325 658 -1
1325 1116 -1
1325 1268 -1
1325 1317 -1
1325 1325 7
1326 305 -1
1326 468 -1
1326 545 -1
1326 1087 -1
1326 1326 4
1327 285 -1
1327 309 -1
1327 816 -1
1327 1028 -1
1327 1182 -1
1327 1327 7
1328 288 -1
1328 304 -1
1328 693 -1
1328 723 -1
1328 1328 4
1329 131 -1
1329 223 -1
1329 386 -1
1329 457 -1
1329 653 -1
1329 987 -1
1329 1002 -1
1329 1329 7
1330 519 -1
1330 562 -1
1330 1330 3
1331 99 -1
1331 223 -1
1331 303 -1
1331 651 -1
1331 1331 6
1332 194 -1
1332 552 -1
1332 1179 -1
1332 1332 3
1333 78 -1
1333 208 -1
1333 266 -1
1333 397 -1
1333 413 -1
1333 582 -1
1333 587 -1
1333 1111 -1
1333 1323 -1
1333 1333 10
1334 192 -1
1334 869 -1
1334 1334 2
1335 54 -1
1335 213 -1
1335 226 -1
1335 317 -1
1335 915 -1
1335 930 -1
1335 1064 -1
1335 1083 -1
1335 1335 10
1336 1 -1
1336 1336 1
1337 303 -1
1337 381 -1
1337 1337 3
1338 155 -1
1338 236 -1
1338 411 -1
1338 577 -1
1338 598 -1
1338 865 -1
1338 961 -1
1338 1003 -1
1338 1338 8
1339 138 -1
1339 557 -1
1339 1274 -1
1339 1339 4
1340 113 -1
1340 144 -1
1340 248 -1
1340 269 -1
1340 303 -1
1340 610 -1
1340 617 -1
1340 1008 -1
1340 1295 -1
1340 1340 9
1341 435 -1
1341 463 -1
1341 705 -1
1341 715 -1
1341 768 -1
1341 1341 5
1342 96 -1
1342 109 -1
1342 291 -1
1342 295 -1
1342 440 -1
1342 534 -1
1342 697 -1
1342 741 -1
1342 834 -1
1342 917 -1
1342 953 -1
1342 1134 -1
1342 1166 -1
1342 1342 15
1343 156 -1
1343 759 -1
1343 781 -1
1343 782 -1
1343 1028 -1
1343 1343 5
1344 196 -1
1344 284 -1
1344 397 -1
1344 473 -1
1344 588 -1
1344 833 -1
1344 1180 -1
1344 1344 9
1345 25 -1
1345 125 -1
1345 321 -1
1345 480 -1
1345 632 -1
1345 735 -1
1345 736 -1
1345 1017 -1
1345 1245 -1
1345 1318 -1
1345 1345 10
1346 156 -1
1346 271 -1
1346 346 -1
1346 682 -1
1346 895 -1
1346 1168 -1
1346 1337 -1
1346 1346 9
1347 195 -1
1347 197 -1
1347 340 -1
1347 418 -1
1347 543 -1
1347 954 -1
1347 956 -1
1347 1081 -1
1347 1347 9
1348 137 -1
1348 275 -1
1348 878 -1
1348 1187 -1
1348 1348 5
1349 308 -1
1349 915 -1
1349 996 -1
1349 1223 -1
1349 1349 4
1350 315 -1
1350 980 -1
1350 1141 -1
1350 1202 -1
1350 1350 4
1351 109 -1
1351 216 -1
1351 1233 -1
1351 1314 -1
1351 1330 -1
1351 1351 6
1352 14 -1
1352 260 -1
1352 307 -1
1352 348 -1
1352 415 -1
1352 532 -1
1352 594 -1
1352 632 -1
1352 779 -1
1352 924 -1
1352 1128 -1
1352 1248 -1
1352 1352 12
1353 476 -1
1353 773 -1
1353 979 -1
1353 1004 -1
1353 1051 -1
1353 1136 -1
1353 1353 6
1354 129 -1
1354 510 -1
1354 900 -1
1354 1354 4
1355 282 -1
1355 880 -1
1355 1355 2
1356 101 -1
1356 1074 -1
1356 1236 -1
1356 1325 -1
1356 1356 4
1357 3 -1
1357 16 -1
1357 241 -1
1357 307 -1
1357 317 -1
1357 448 -1
1357 826 -1
1357 1172 -1
1357 1357 10
1358 141 -1
1358 524 -1
1358 656 -1
1358 658 -1
1358 1114 -1
1358 1173 -1
1358 1358 7
1359 303 -1
1359 323 -1
1359 731 -1
1359 1095 -1
1359 1112 -1
1359 1351 -1
1359 1359 7
1360 6 -1
1360 19 -1
1360 188 -1
1360 231 -1
1360 510 -1
1360 594 -1
1360 1253 -1
1360 1360 7
1361 27 -1
1361 426 -1
1361 633 -1
1361 1173 -1
1361 1361 5
1362 83 -1
1362 85 -1
1362 125 -1
1362 383 -1
1362 560 -1
1362 755 -1
1362 787 -1
1362 1362 7
1363 102 -1
1363 168 -1
1363 257 -1
1363 671 -1
1363 1363 4
1364 420 -1
1364 718 -1
1364 744 -1
1364 794 -1
1364 1056 -1
1364 1081 -1
1364 1298 -1
1364 1331 -1
1364 1364 8
1365 29 -1
1365 111 -1
1365 186 -1
1365 444 -1
1365 545 -1
1365 990 -1
1365 1109 -1
1365 1303 -1
1365 1365 8
1366 26 -1
1366 150 -1
1366 158 -1
1366 613 -1
1366 733 -1
1366 811 -1
1366 1366 7
1367 420 -1
1367 484 -1
1367 751 -1
1367 955 -1
1367 1101 -1
1367 1216 -1
1367 1222 -1
1367 1367 9
1368 51 -1
1368 76 -1
1368 253 -1
1368 461 -1
1368 588 -1
1368 727 -1
1368 898 -1
1368 964 -1
1368 1017 -1
1368 1032 -1
1368 1107 -1
1368 1284 -1
1368 1368 12
1369 23 -1
1369 310 -1
1369 444 -1
1369 634 -1
1369 949 -1
1369 1113 -1
1369 1189 -1
1369 1262 -1
1369 1369 9
1370 103 -1
1370 481 -1
1370 566 -1
1370 793 -1
1370 898 -1
1370 1060 -1
1370 1139 -1
1370 1370 7
1371 30 -1
1371 35 -1
1371 236 -1
1371 438 -1
1371 500 -1
1371 962 -1
1371 1223 -1
1371 1371 8
1372 223 -1
1372 341 -1
1372 396 -1
1372 1023 -1
1372 1041 -1
1372 1068 -1
1372 1173 -1
1372 1357 -1
1372 1372 9
1373 183 -1
1373 344 -1
1373 723 -1
1373 780 -1
1373 888 -1
1373 1102 -1
1373 1123 -1
1373 1189 -1
1373 1373 8
1374 337 -1
1374 1190 -1
1374 1374 3
1375 302 -1
1375 980 -1
1375 1158 -1
1375 1375 3
1376 24 -1
1376 175 -1
1376 644 -1
1376 850 -1
1376 991 -1
1376 1018 -1
1376 1308 -1
1376 1376 7
1377 76 -1
1377 79 -1
1377 294 -1
1377 1151 -1
1377 1377 7
1378 423 -1
1378 1031 -1
1378 1039 -1
1378 1079 -1
1378 1289 -1
1378 1378 6
1379 434 -1
1379 513 -1
1379 537 -1
1379 547 -1
1379 584 -1
1379 733 -1
1379 757 -1
1379 816 -1
1379 1017 -1
1379 1160 -1
1379 1232 -1
1379 1359 -1
1379 1379 12
1380 95 -1
1380 543 -1
1380 618 -1
1380 705 -1
1380 1124 -1
1380 1380 5
1381 72 -1
1381 237 -1
1381 403 -1
1381 468 -1
1381 516 -1
1381 709 -1
1381 830 -1
1381 1024 -1
1381 1048 -1
1381 1117 -1
1381 1381 10
1382 814 -1
1382 976 -1
1382 1090 -1
1382 1190 -1
1382 1382 4
1383 15 -1
1383 283 -1
1383 304 -1
1383 964 -1
1383 1156 -1
1383 1180 -1
1383 1248 -1
1383 1383 7
1384 10 -1
1384 89 -1
1384 231 -1
1384 504 -1
1384 613 -1
1384 744 -1
1384 815 -1
1384 929 -1
1384 947 -1
1384 1068 -1
1384 1197 -1
1384 1242 -1
1384 1384 13
1385 364 -1
1385 450 -1
1385 508 -1
1385 547 -1
1385 1059 -1
1385 1184 -1
1385 1186 -1
1385 1385 7
1386 312 -1
1386 390 -1
1386 476 -1
1386 598 -1
1386 739 -1
1386 935 -1
1386 977 -1
1386 1007 -1
1386 1139 -1
1386 1386 10
1387 660 -1
1387 1050 -1
1387 1075 -1
1387 1387 3
1388 12 -1
1388 19 -1
1388 288 -1
1388 466 -1
1388 919 -1
1388 946 -1
1388 1057 -1
1388 1184 -1
1388 1261 -1
1388 1388 9
1389 154 -1
1389 405 -1
1389 510 -1
1389 534 -1
1389 781 -1
1389 1170 -1
1389 1210 -1
1389 1389 7
1390 4 -1
1390 153 -1
1390 220 -1
1390 480 -1
1390 645 -1
1390 709 -1
1390 1093 -1
1390 1132 -1
1390 1159 -1
1390 1171 -1
1390 1390 11
1391 514 -1
1391 583 -1
1391 605 -1
1391 641 -1
1391 898 -1
1391 963 -1
1391 1037 -1
1391 1114 -1
1391 1391 8
1392 51 -1
1392 270 -1
1392 722 -1
1392 766 -1
1392 804 -1
1392 1107 -1
1392 1344 -1
1392 1392 8
1393 216 -1
1393 311 -1
1393 427 -1
1393 612 -1
1393 1083 -1
1393 1393 5
1394 140 -1
1394 258 -1
1394 745 -1
1394 860 -1
1394 1327 -1
1394 1394 5
1395 172 -1
1395 364 -1
1395 407 -1
1395 438 -1
1395 507 -1
1395 617 -1
1395 735 -1
1395 1211 -1
1395 1298 -1
1395 1395 9
1396 629 -1
1396 795 -1
1396 974 -1
1396 1040 -1
1396 1268 -1
1396 1396 5
1397 461 -1
1397 653 -1
1397 845 -1
1397 948 -1
1397 1241 -1
1397 1252 -1
1397 1397 9
1398 605 -1
1398 660 -1
1398 820 -1
1398 884 -1
1398 950 -1
1398 957 -1
1398 1163 -1
1398 1185 -1
1398 1201 -1
1398 1367 -1
1398 1398 10
1399 6 -1
1399 192 -1
1399 320 -1
1399 758 -1
1399 994 -1
1399 1399 6
1400 359 -1
1400 535 -1
1400 712 -1
1400 755 -1
1400 898 -1
1400 1292 -1
1400 1400 6
1401 91 -1
1401 130 -1
1401 154 -1
1401 618 -1
1401 827 -1
1401 1055 -1
1401 1213 -1
1401 1401 7
1402 29 -1
1402 50 -1
1402 58 -1
1402 152 -1
1402 628 -1
1402 1296 -1
1402 1303 -1
1402 1346 -1
1402 1402 8
1403 253 -1
1403 361 -1
1403 1196 -1
1403 1403 3
1404 471 -1
1404 544 -1
1404 781 -1
1404 886 -1
1404 1287 -1
1404 1404 6
1405 39 -1
1405 145 -1
1405 498 -1
1405 648 -1
1405 984 -1
1405 1066 -1
1405 1405 6
1406 532 -1
1406 805 -1
1406 842 -1
1406 1203 -1
1406 1406 5
1407 29 -1
1407 160 -1
1407 212 -1
1407 342 -1
1407 572 -1
1407 703 -1
1407 731 -1
1407 1042 -1
1407 1069 -1
1407 1407 9
1408 760 -1
1408 830 -1
1408 834 -1
1408 942 -1
1408 1397 -1
1408 1408 5
1409 417 -1
1409 496 -1
1409 549 -1
1409 602 -1
1409 786 -1
1409 973 -1
1409 1386 -1
1409 1409 7
1410 27 -1
1410 284 -1
1410 745 -1
1410 819 -1
1410 959 -1
1410 1221 -1
1410 1234 -1
1410 1339 -1
1410 1344 -1
1410 1410 10
1411 105 -1
1411 350 -1
1411 355 -1
1411 600 -1
1411 1131 -1
1411 1176 -1
1411 1181 -1
1411 1411 8
1412 118 -1
1412 754 -1
1412 1017 -1
1412 1252 -1
1412 1412 5
1413 266 -1
1413 350 -1
1413 434 -1
1413 530 -1
1413 624 -1
1413 873 -1
1413 973 -1
1413 1035 -1
1413 1244 -1
1413 1266 -1
1413 1372 -1
1413 1413 11
1414 21 -1
1414 523 -1
1414 851 -1
1414 960 -1
1414 1164 -1
1414 1317 -1
1414 1414 6
1415 89 -1
1415 239 -1
1415 303 -1
1415 624 -1
1415 1415 4
1416 182 -1
1416 539 -1
1416 658 -1
1416 747 -1
1416 785 -1
1416 1143 -1
1416 1416 7
1417 247 -1
1417 474 -1
1417 899 -1
1417 1188 -1
1417 1417 4
1418 18 -1
1418 208 -1
1418 214 -1
1418 385 -1
1418 673 -1
1418 799 -1
1418 840 -1
1418 1190 -1
1418 1392 -1
1418 1418 11
1419 86 -1
1419 162 -1
1419 174 -1
1419 263 -1
1419 478 -1
1419 985 -1
1419 1419 6
1420 46 -1
1420 181 -1
1420 344 -1
1420 384 -1
1420 556 -1
1420 826 -1
1420 1112 -1
1420 1251 -1
1420 1420 9
1421 58 -1
1421 59 -1
1421 157 -1
1421 574 -1
1421 933 -1
1421 1241 -1
1421 1421 7
1422 412 -1
1422 449 -1
1422 624 -1
1422 635 -1
1422 963 -1
1422 1404 -1
1422 1422 6
1423 263 -1
1423 617 -1
1423 709 -1
1423 746 -1
1423 906 -1
1423 980 -1
1423 1198 -1
1423 1423 7
1424 180 -1
1424 216 -1
1424 226 -1
1424 376 -1
1424 427 -1
1424 453 -1
1424 719 -1
1424 937 -1
1424 998 -1
1424 1091 -1
1424 1371 -1
1424 1397 -1
1424 1424 13
1425 429 -1
1425 445 -1
1425 691 -1
1425 770 -1
1425 1089 -1
1425 1266 -1
1425 1425 7
1426 97 -1
1426 154 -1
1426 180 -1
1426 308 -1
1426 870 -1
1426 899 -1
1426 997 -1
1426 1023 -1
1426 1119 -1
1426 1426 9
1427 168 -1
1427 887 -1
1427 952 -1
1427 1004 -1
1427 1094 -1
1427 1143 -1
1427 1286 -1
1427 1427 7
1428 2 -1
1428 16 -1
1428 54 -1
1428 102 -1
1428 521 -1
1428 695 -1
1428 986 -1
1428 1156 -1
1428 1348 -1
1428 1428 9
1429 233 -1
1429 454 -1
1429 709 -1
1429 1429 3
1430 53 -1
1430 127 -1
1430 228 -1
1430 1056 -1
1430 1199 -1
1430 1430 5
1431 249 -1
1431 561 -1
1431 884 -1
1431 1142 -1
1431 1155 -1
1431 1424 -1
1431 1431 6
1432 207 -1
1432 384 -1
1432 554 -1
1432 636 -1
1432 692 -1
1432 866 -1
1432 946 -1
1432 1019 -1
1432 1028 -1
1432 1132 -1
1432 1241 -1
1432 1432 12
1433 156 -1
1433 209 -1
1433 459 -1
1433 506 -1
1433 629 -1
1433 667 -1
1433 769 -1
1433 1105 -1
1433 1172 -1
1433 1215 -1
1433 1366 -1
1433 1433 11
1434 5 -1
1434 8 -1
1434 49 -1
1434 89 -1
1434 129 -1
1434 150 -1
1434 541 -1
1434 960 -1
1434 1218 -1
1434 1434 9
1435 109 -1
1435 559 -1
1435 597 -1
1435 882 -1
1435 1073 -1
1435 1267 -1
1435 1432 -1
1435 1435 7
1436 82 -1
1436 92 -1
1436 106 -1
1436 379 -1
1436 482 -1
1436 554 -1
1436 606 -1
1436 628 -1
1436 653 -1
1436 690 -1
1436 770 -1
1436 864 -1
1436 963 -1
1436 1280 -1
1436 1283 -1
1436 1436 16
1437 587 -1
1437 803 -1
1437 835 -1
1437 858 -1
1437 995 -1
1437 1437 5
1438 108 -1
1438 183 -1
1438 615 -1
1438 747 -1
1438 797 -1
1438 1110 -1
1438 1177 -1
1438 1267 -1
1438 1327 -1
1438 1438 9
1439 30 -1
1439 31 -1
1439 380 -1
1439 736 -1
1439 745 -1
1439 1105 -1
1439 1331 -1
1439 1439 7
1440 179 -1
1440 240 -1
1440 747 -1
1440 799 -1
1440 913 -1
1440 919 -1
1440 1148 -1
1440 1188 -1
1440 1314 -1
1440 1440 9
1441 47 -1
1441 155 -1
1441 1421 -1
1441 1441 3
1442 113 -1
1442 548 -1
1442 832 -1
1442 1278 -1
1442 1418 -1
1442 1442 5
1443 176 -1
1443 263 -1
1443 437 -1
1443 482 -1
1443 710 -1
1443 740 -1
1443 825 -1
1443 834 -1
1443 1049 -1
1443 1051 -1
1443 1399 -1
1443 1443 11
1444 15 -1
1444 20 -1
1444 94 -1
1444 469 -1
1444 603 -1
1444 638 -1
1444 996 -1
1444 1279 -1
1444 1358 -1
1444 1444 9
1445 283 -1
1445 571 -1
1445 862 -1
1445 945 -1
1445 1199 -1
1445 1436 -1
1445 1445 6
1446 233 -1
1446 246 -1
1446 387 -1
1446 542 -1
1446 544 -1
1446 743 -1
1446 1099 -1
1446 1103 -1
1446 1246 -1
1446 1446 9
1447 370 -1
1447 513 -1
1447 579 -1
1447 630 -1
1447 962 -1
1447 1041 -1
1447 1139 -1
1447 1195 -1
1447 1447 8
1448 14 -1
1448 286 -1
1448 315 -1
1448 881 -1
1448 1123 -1
1448 1448 5
1449 86 -1
1449 447 -1
1449 466 -1
1449 470 -1
1449 704 -1
1449 830 -1
1449 973 -1
1449 1046 -1
1449 1088 -1
1449 1143 -1
1449 1377 -1
1449 1449 11
1450 35 -1
1450 61 -1
1450 194 -1
1450 284 -1
1450 351 -1
1450 1046 -1
1450 1090 -1
1450 1249 -1
1450 1266 -1
1450 1342 -1
1450 1374 -1
1450 1450 11
1451 153 -1
1451 263 -1
1451 326 -1
1451 578 -1
1451 705 -1
1451 867 -1
1451 908 -1
1451 1008 -1
1451 1451 8
1452 258 -1
1452 742 -1
1452 957 -1
1452 1066 -1
1452 1178 -1
1452 1452 6
1453 62 -1
1453 224 -1
1453 576 -1
1453 1270 -1
1453 1333 -1
1453 1453 5
1454 272 -1
1454 668 -1
1454 842 -1
1454 907 -1
1454 945 -1
1454 1286 -1
1454 1454 7
1455 91 -1
1455 149 -1
1455 576 -1
1455 636 -1
1455 790 -1
1455 871 -1
1455 1357 -1
1455 1455 7
1456 13 -1
1456 36 -1
1456 182 -1
1456 199 -1
1456 259 -1
1456 274 -1
1456 317 -1
1456 392 -1
1456 648 -1
1456 746 -1
1456 881 -1
1456 1077 -1
1456 1094 -1
1456 1153 -1
1456 1319 -1
1456 1456 16
1457 52 -1
1457 385 -1
1457 682 -1
1457 776 -1
1457 1282 -1
1457 1397 -1
1457 1457 6
1458 203 -1
1458 233 -1
1458 569 -1
1458 816 -1
1458 861 -1
1458 879 -1
1458 1002 -1
1458 1458 7
1459 188 -1
1459 818 -1
1459 972 -1
1459 1002 -1
1459 1272 -1
1459 1278 -1
1459 1459 6
1460 19 -1
1460 63 -1
1460 249 -1
1460 324 -1
1460 364 -1
1460 459 -1
1460 1056 -1
1460 1335 -1
1460 1416 -1
1460 1460 9
1461 164 -1
1461 243 -1
1461 295 -1
1461 492 -1
1461 632 -1
1461 724 -1
1461 1311 -1
1461 1425 -1
1461 1461 8
1462 162 -1
1462 194 -1
1462 771 -1
1462 817 -1
1462 840 -1
1462 865 -1
1462 887 -1
1462 1121 -1
1462 1462 8
1463 828 -1
1463 838 -1
1463 1342 -1
1463 1463 3
1464 839 -1
1464 944 -1
1464 1116 -1
1464 1210 -1
1464 1288 -1
1464 1420 -1
1464 1464 6
1465 317 -1
1465 527 -1
1465 582 -1
1465 1100 -1
1465 1207 -1
1465 1347 -1
1465 1384 -1
1465 1465 7
1466 362 -1
1466 529 -1
1466 797 -1
1466 824 -1
1466 976 -1
1466 1466 5
1467 75 -1
1467 202 -1
1467 497 -1
1467 509 -1
1467 763 -1
1467 962 -1
1467 1129 -1
1467 1467 7
1468 13 -1
1468 658 -1
1468 710 -1
1468 1152 -1
1468 1168 -1
1468 1253 -1
1468 1377 -1
1468 1468 7
1469 76 -1
1469 314 -1
1469 364 -1
1469 524 -1
1469 572 -1
1469 632 -1
1469 633 -1
1469 664 -1
1469 713 -1
1469 782 -1
1469 813 -1
1469 1226 -1
1469 1469 12
1470 245 -1
1470 315 -1
1470 438 -1
1470 760 -1
1470 983 -1
1470 990 -1
1470 1090 -1
1470 1219 -1
1470 1265 -1
1470 1280 -1
1470 1470 10
1471 154 -1
1471 182 -1
1471 235 -1
1471 241 -1
1471 295 -1
1471 360 -1
1471 448 -1
1471 626 -1
1471 646 -1
1471 843 -1
1471 912 -1
1471 929 -1
1471 1471 12
1472 253 -1
1472 396 -1
1472 600 -1
1472 925 -1
1472 1104 -1
1472 1411 -1
1472 1472 6
1473 78 -1
1473 101 -1
1473 124 -1
1473 289 -1
1473 451 -1
1473 706 -1
1473 1097 -1
1473 1473 7
1474 39 -1
1474 471 -1
1474 592 -1
1474 1412 -1
1474 1474 4
1475 7 -1
1475 160 -1
1475 323 -1
1475 446 -1
1475 529 -1
1475 640 -1
1475 1218 -1
1475 1255 -1
1475 1263 -1
1475 1475 10
1476 28 -1
1476 105 -1
1476 241 -1
1476 426 -1
1476 563 -1
1476 1104 -1
1476 1140 -1
1476 1476 8
1477 21 -1
1477 81 -1
1477 120 -1
1477 250 -1
1477 622 -1
1477 642 -1
1477 666 -1
1477 796 -1
1477 915 -1
1477 1001 -1
1477 1196 -1
1477 1216 -1
1477 1477 12
1478 4 -1
1478 580 -1
1478 635 -1
1478 737 -1
1478 1008 -1
1478 1295 -1
1478 1390 -1
1478 1478 7
1479 402 -1
1479 629 -1
1479 920 -1
1479 1071 -1
1479 1189 -1
1479 1200 -1
1479 1346 -1
1479 1479 7
1480 316 -1
1480 425 -1
1480 544 -1
1480 577 -1
1480 582 -1
1480 666 -1
1480 870 -1
1480 895 -1
1480 994 -1
1480 1015 -1
1480 1097 -1
1480 1131 -1
1480 1270 -1
1480 1361 -1
1480 1480 14
1481 351 -1
1481 581 -1
1481 1095 -1
1481 1481 3
1482 18 -1
1482 20 -1
1482 273 -1
1482 323 -1
1482 414 -1
1482 427 -1
1482 534 -1
1482 535 -1
1482 770 -1
1482 862 -1
1482 1482 10
1483 64 -1
1483 577 -1
1483 771 -1
1483 868 -1
1483 935 -1
1483 1052 -1
1483 1228 -1
1483 1406 -1
1483 1483 8
1484 200 -1
1484 294 -1
1484 386 -1
1484 423 -1
1484 437 -1
1484 803 -1
1484 1067 -1
1484 1178 -1
1484 1484 8
1485 407 -1
1485 1009 -1
1485 1259 -1
1485 1308 -1
1485 1485 4
1486 20 -1
1486 100 -1
1486 374 -1
1486 460 -1
1486 647 -1
1486 837 -1
1486 1103 -1
1486 1105 -1
1486 1113 -1
1486 1133 -1
1486 1273 -1
1486 1486 11
1487 231 -1
1487 269 -1
1487 279 -1
1487 370 -1
1487 392 -1
1487 941 -1
1487 973 -1
1487 1225 -1
1487 1475 -1
1487 1476 -1
1487 1487 10
1488 260 -1
1488 284 -1
1488 293 -1
1488 314 -1
1488 401 -1
1488 505 -1
1488 514 -1
1488 1294 -1
1488 1378 -1
1488 1452 -1
1488 1488 10
1489 316 -1
1489 407 -1
1489 481 -1
1489 702 -1
1489 1140 -1
1489 1235 -1
1489 1240 -1
1489 1354 -1
1489 1377 -1
1489 1418 -1
1489 1489 10
1490 90 -1
1490 254 -1
1490 672 -1
1490 771 -1
1490 885 -1
1490 1490 5
1491 370 -1
1491 427 -1
1491 432 -1
1491 497 -1
1491 834 -1
1491 918 -1
1491 1028 -1
1491 1367 -1
1491 1369 -1
1491 1456 -1
1491 1491 10
1492 555 -1
1492 619 -1
1492 733 -1
1492 798 -1
1492 841 -1
1492 901 -1
1492 916 -1
1492 1038 -1
1492 1492 8
1493 198 -1
1493 233 -1
1493 237 -1
1493 257 -1
1493 283 -1
1493 307 -1
1493 409 -1
1493 601 -1
1493 665 -1
1493 730 -1
1493 897 -1
1493 1177 -1
1493 1238 -1
1493 1322 -1
1493 1493 14
1494 2 -1
1494 153 -1
1494 189 -1
1494 310 -1
1494 420 -1
1494 501 -1
1494 741 -1
1494 797 -1
1494 1454 -1
1494 1494 9
1495 372 -1
1495 516 -1
1495 519 -1
1495 520 -1
1495 843 -1
1495 1058 -1
1495 1410 -1
1495 1495 7
1496 38 -1
1496 921 -1
1496 1335 -1
1496 1496 3
1497 32 -1
1497 60 -1
1497 239 -1
1497 360 -1
1497 704 -1
1497 948 -1
1497 1195 -1
1497 1322 -1
1497 1497 8
1498 192 -1
1498 535 -1
1498 559 -1
1498 604 -1
1498 796 -1
1498 866 -1
1498 898 -1
1498 934 -1
1498 974 -1
1498 987 -1
1498 1094 -1
1498 1498 11
1499 38 -1
1499 160 -1
1499 444 -1
1499 559 -1
1499 587 -1
1499 749 -1
1499 1049 -1
1499 1054 -1
1499 1123 -1
1499 1305 -1
1499 1499 10
1500 30 -1
1500 113 -1
1500 341 -1
1500 872 -1
1500 915 -1
1500 1192 -1
1500 1500 6
