%%MatrixMarket matrix coordinate real symmetric
%
1500 1500 7454
1 1 1.100000000000000e+01
2 2 1.000000000000000e+01
3 3 6.000000000000000e+00
4 4 1.100000000000000e+01
5 5 8.000000000000000e+00
6 6 8.000000000000000e+00
7 7 5.000000000000000e+00
8 4 -1.000000000000000e+00
8 5 -1.000000000000000e+00
8 8 9.000000000000000e+00
9 9 6.000000000000000e+00
10 10 1.800000000000000e+01
11 11 6.000000000000000e+00
12 12 8.000000000000000e+00
13 13 1.100000000000000e+01
14 14 9.000000000000000e+00
15 15 1.100000000000000e+01
16 16 1.400000000000000e+01
17 17 1.100000000000000e+01
18 18 8.000000000000000e+00
19 19 1.400000000000000e+01
20 20 7.000000000000000e+00
21 21 1.100000000000000e+01
22 22 5.000000000000000e+00
23 23 1.300000000000000e+01
24 24 9.000000000000000e+00
25 25 1.100000000000000e+01
26 26 8.000000000000000e+00
27 27 9.000000000000000e+00
28 28 1.400000000000000e+01
29 29 1.400000000000000e+01
30 30 1.200000000000000e+01
31 31 1.300000000000000e+01
32 32 1.300000000000000e+01
33 32 -1.000000000000000e+00
33 33 1.200000000000000e+01
34 34 8.000000000000000e+00
35 35 1.100000000000000e+01
36 32 -1.000000000000000e+00
36 33 -1.000000000000000e+00
36 36 8.000000000000000e+00
37 37 3.000000000000000e+00
38 38 1.100000000000000e+01
39 39 9.000000000000000e+00
40 24 -1.000000000000000e+00
40 40 1.000000000000000e+01
41 16 -2.000000000000000e+00
41 41 2.000000000000000e+00
42 42 1.100000000000000e+01
43 43 3.000000000000000e+00
44 44 7.000000000000000e+00
45 45 6.000000000000000e+00
46 46 1.400000000000000e+01
47 30 -1.000000000000000e+00
47 47 7.000000000000000e+00
48 48 1.300000000000000e+01
49 49 9.000000000000000e+00
50 23 -1.000000000000000e+00
50 48 -1.000000000000000e+00
50 50 1.200000000000000e+01
51 51 1.000000000000000e+01
52 35 -2.000000000000000e+00
52 52 1.000000000000000e+01
53 53 7.000000000000000e+00
54 54 1.200000000000000e+01
55 10 -1.000000000000000e+00
55 55 1.200000000000000e+01
56 56 9.000000000000000e+00
57 57 3.000000000000000e+00
58 58 7.000000000000000e+00
59 59 6.000000000000000e+00
60 44 -1.000000000000000e+00
60 60 1.100000000000000e+01
61 61 8.000000000000000e+00
62 62 1.300000000000000e+01
63 63 6.000000000000000e+00
64 64 9.000000000000000e+00
65 65 5.000000000000000e+00
66 66 1.200000000000000e+01
67 55 -1.000000000000000e+00
67 66 -2.000000000000000e+00
67 67 1.300000000000000e+01
68 66 -1.000000000000000e+00
68 68 4.000000000000000e+00
69 39 -1.000000000000000e+00
69 69 5.000000000000000e+00
70 70 1.100000000000000e+01
71 70 -1.000000000000000e+00
71 71 7.000000000000000e+00
72 20 -1.000000000000000e+00
72 72 5.000000000000000e+00
73 35 -1.000000000000000e+00
73 73 6.000000000000000e+00
74 74 3.000000000000000e+00
75 75 1.000000000000000e+01
76 76 1.200000000000000e+01
77 59 -1.000000000000000e+00
77 77 3.000000000000000e+00
78 78 1.100000000000000e+01
79 79 1.100000000000000e+01
80 80 9.000000000000000e+00
81 81 6.000000000000000e+00
82 11 -1.000000000000000e+00
82 82 7.000000000000000e+00
83 83 8.000000000000000e+00
84 84 1.000000000000000e+01
85 85 4.000000000000000e+00
86 23 -1.000000000000000e+00
86 86 1.100000000000000e+01
87 66 -1.000000000000000e+00
87 87 6.000000000000000e+00
88 88 1.000000000000000e+01
89 89 7.000000000000000e+00
90 54 -1.000000000000000e+00
90 90 8.000000000000000e+00
91 91 1.200000000000000e+01
92 22 -1.000000000000000e+00
92 92 1.300000000000000e+01
93 93 7.000000000000000e+00
94 94 6.000000000000000e+00
95 25 -1.000000000000000e+00
95 43 -1.000000000000000e+00
95 95 1.100000000000000e+01
96 96 1.100000000000000e+01
97 97 1.400000000000000e+01
98 98 7.000000000000000e+00
99 99 1.000000000000000e+01
100 17 -1.000000000000000e+00
100 100 1.100000000000000e+01
101 101 1.200000000000000e+01
102 102 6.000000000000000e+00
103 103 1.100000000000000e+01
104 62 -1.000000000000000e+00
104 95 -1.000000000000000e+00
104 104 1.000000000000000e+01
105 105 1.000000000000000e+01
106 106 1.000000000000000e+01
107 28 -1.000000000000000e+00
107 107 7.000000000000000e+00
108 108 7.000000000000000e+00
109 85 -1.000000000000000e+00
109 98 -1.000000000000000e+00
109 109 1.000000000000000e+01
110 60 -1.000000000000000e+00
110 110 8.000000000000000e+00
111 111 7.000000000000000e+00
112 97 -1.000000000000000e+00
112 112 1.100000000000000e+01
113 113 1.300000000000000e+01
114 48 -1.000000000000000e+00
114 114 1.200000000000000e+01
115 115 9.000000000000000e+00
116 28 -1.000000000000000e+00
116 116 6.000000000000000e+00
117 97 -1.000000000000000e+00
117 117 9.000000000000000e+00
118 32 -1.000000000000000e+00
118 67 -1.000000000000000e+00
118 71 -1.000000000000000e+00
118 114 -1.000000000000000e+00
118 118 1.400000000000000e+01
119 119 4.000000000000000e+00
120 120 1.100000000000000e+01
121 121 1.300000000000000e+01
122 122 1.100000000000000e+01
123 123 6.000000000000000e+00
124 124 6.000000000000000e+00
125 125 8.000000000000000e+00
126 1 -1.000000000000000e+00
126 25 -1.000000000000000e+00
126 126 1.000000000000000e+01
127 64 -1.000000000000000e+00
127 127 1.000000000000000e+01
128 119 -1.000000000000000e+00
128 128 7.000000000000000e+00
129 11 -1.000000000000000e+00
129 129 7.000000000000000e+00
130 80 -1.000000000000000e+00
130 130 7.000000000000000e+00
131 26 -1.000000000000000e+00
131 131 5.000000000000000e+00
132 132 5.000000000000000e+00
133 133 8.000000000000000e+00
134 118 -1.000000000000000e+00
134 134 8.000000000000000e+00
135 135 7.000000000000000e+00
136 136 5.000000000000000e+00
137 137 1.000000000000000e+01
138 138 1.000000000000000e+01
139 139 7.000000000000000e+00
140 140 7.000000000000000e+00
141 141 1.100000000000000e+01
142 142 1.700000000000000e+01
143 143 2.000000000000000e+00
144 144 9.000000000000000e+00
145 74 -1.000000000000000e+00
145 145 6.000000000000000e+00
146 17 -1.000000000000000e+00
146 68 -1.000000000000000e+00
146 70 -1.000000000000000e+00
146 146 8.000000000000000e+00
147 70 -1.000000000000000e+00
147 143 -1.000000000000000e+00
147 147 8.000000000000000e+00
148 148 5.000000000000000e+00
149 149 7.000000000000000e+00
150 5 -1.000000000000000e+00
150 8 -1.000000000000000e+00
150 150 1.100000000000000e+01
151 40 -1.000000000000000e+00
151 115 -1.000000000000000e+00
151 140 -2.000000000000000e+00
151 151 1.400000000000000e+01
152 152 8.000000000000000e+00
153 153 6.000000000000000e+00
154 154 9.000000000000000e+00
155 50 -1.000000000000000e+00
155 155 1.200000000000000e+01
156 17 -1.000000000000000e+00
156 156 1.600000000000000e+01
157 49 -1.000000000000000e+00
157 121 -1.000000000000000e+00
157 157 1.300000000000000e+01
158 16 -1.000000000000000e+00
158 111 -1.000000000000000e+00
158 158 1.100000000000000e+01
159 22 -1.000000000000000e+00
159 122 -1.000000000000000e+00
159 159 9.000000000000000e+00
160 160 1.100000000000000e+01
161 25 -1.000000000000000e+00
161 125 -2.000000000000000e+00
161 148 -1.000000000000000e+00
161 161 1.000000000000000e+01
162 162 1.000000000000000e+01
163 163 9.000000000000000e+00
164 164 2.000000000000000e+00
165 55 -1.000000000000000e+00
165 165 1.400000000000000e+01
166 166 1.000000000000000e+00
167 47 -1.000000000000000e+00
167 62 -1.000000000000000e+00
167 83 -1.000000000000000e+00
167 167 9.000000000000000e+00
168 168 9.000000000000000e+00
169 165 -1.000000000000000e+00
169 169 1.100000000000000e+01
170 170 1.100000000000000e+01
171 171 8.000000000000000e+00
172 172 9.000000000000000e+00
173 173 1.000000000000000e+01
174 147 -1.000000000000000e+00
174 148 -1.000000000000000e+00
174 174 1.300000000000000e+01
175 175 7.000000000000000e+00
176 176 8.000000000000000e+00
177 177 1.400000000000000e+01
178 28 -2.000000000000000e+00
178 50 -1.000000000000000e+00
178 116 -2.000000000000000e+00
178 178 7.000000000000000e+00
179 130 -1.000000000000000e+00
179 179 7.000000000000000e+00
180 180 6.000000000000000e+00
181 96 -1.000000000000000e+00
181 181 9.000000000000000e+00
182 182 1.600000000000000e+01
183 59 -2.000000000000000e+00
183 183 1.000000000000000e+01
184 184 1.300000000000000e+01
185 157 -1.000000000000000e+00
185 185 5.000000000000000e+00
186 186 5.000000000000000e+00
187 15 -1.000000000000000e+00
187 30 -1.000000000000000e+00
187 151 -1.000000000000000e+00
187 187 1.300000000000000e+01
188 50 -1.000000000000000e+00
188 55 -1.000000000000000e+00
188 150 -1.000000000000000e+00
188 188 1.700000000000000e+01
189 144 -1.000000000000000e+00
189 189 8.000000000000000e+00
190 190 8.000000000000000e+00
191 165 -1.000000000000000e+00
191 191 1.100000000000000e+01
192 78 -1.000000000000000e+00
192 192 1.100000000000000e+01
193 76 -1.000000000000000e+00
193 159 -1.000000000000000e+00
193 193 7.000000000000000e+00
194 7 -1.000000000000000e+00
194 32 -1.000000000000000e+00
194 76 -1.000000000000000e+00
194 194 1.400000000000000e+01
195 140 -1.000000000000000e+00
195 195 1.000000000000000e+01
196 38 -1.000000000000000e+00
196 196 9.000000000000000e+00
197 99 -1.000000000000000e+00
197 100 -1.000000000000000e+00
197 197 1.100000000000000e+01
198 106 -1.000000000000000e+00
198 174 -1.000000000000000e+00
198 198 1.600000000000000e+01
199 90 -1.000000000000000e+00
199 95 -1.000000000000000e+00
199 199 1.000000000000000e+01
200 108 -1.000000000000000e+00
200 158 -1.000000000000000e+00
200 200 1.400000000000000e+01
201 165 -1.000000000000000e+00
201 170 -1.000000000000000e+00
201 201 1.000000000000000e+01
202 67 -1.000000000000000e+00
202 194 -1.000000000000000e+00
202 202 1.000000000000000e+01
203 86 -1.000000000000000e+00
203 151 -1.000000000000000e+00
203 203 1.100000000000000e+01
204 46 -1.000000000000000e+00
204 49 -1.000000000000000e+00
204 157 -1.000000000000000e+00
204 204 1.400000000000000e+01
205 17 -1.000000000000000e+00
205 205 9.000000000000000e+00
206 92 -1.000000000000000e+00
206 142 -1.000000000000000e+00
206 206 1.400000000000000e+01
207 124 -1.000000000000000e+00
207 207 1.100000000000000e+01
208 206 -1.000000000000000e+00
208 208 6.000000000000000e+00
209 158 -1.000000000000000e+00
209 209 1.300000000000000e+01
210 210 1.100000000000000e+01
211 204 -1.000000000000000e+00
211 211 8.000000000000000e+00
212 51 -1.000000000000000e+00
212 106 -1.000000000000000e+00
212 207 -1.000000000000000e+00
212 212 1.200000000000000e+01
213 213 6.000000000000000e+00
214 214 7.000000000000000e+00
215 215 5.000000000000000e+00
216 98 -2.000000000000000e+00
216 216 8.000000000000000e+00
217 217 1.000000000000000e+01
218 194 -1.000000000000000e+00
218 218 1.000000000000000e+01
219 165 -1.000000000000000e+00
219 219 6.000000000000000e+00
220 4 -1.000000000000000e+00
220 220 1.000000000000000e+01
221 187 -1.000000000000000e+00
221 221 9.000000000000000e+00
222 15 -1.000000000000000e+00
222 125 -1.000000000000000e+00
222 222 7.000000000000000e+00
223 210 -1.000000000000000e+00
223 223 1.200000000000000e+01
224 26 -1.000000000000000e+00
224 224 5.000000000000000e+00
225 203 -1.000000000000000e+00
225 225 9.000000000000000e+00
226 103 -1.000000000000000e+00
226 118 -1.000000000000000e+00
226 171 -1.000000000000000e+00
226 226 1.200000000000000e+01
227 136 -1.000000000000000e+00
227 148 -1.000000000000000e+00
227 227 7.000000000000000e+00
228 186 -1.000000000000000e+00
228 228 8.000000000000000e+00
229 34 -1.000000000000000e+00
229 172 -1.000000000000000e+00
229 229 1.100000000000000e+01
230 184 -1.000000000000000e+00
230 230 5.000000000000000e+00
231 62 -1.000000000000000e+00
231 66 -1.000000000000000e+00
231 231 9.000000000000000e+00
232 155 -1.000000000000000e+00
232 174 -1.000000000000000e+00
232 232 7.000000000000000e+00
233 37 -1.000000000000000e+00
233 193 -1.000000000000000e+00
233 198 -1.000000000000000e+00
233 233 1.800000000000000e+01
234 234 1.100000000000000e+01
235 79 -1.000000000000000e+00
235 188 -1.000000000000000e+00
235 235 6.000000000000000e+00
236 34 -1.000000000000000e+00
236 39 -1.000000000000000e+00
236 206 -1.000000000000000e+00
236 236 1.000000000000000e+01
237 184 -1.000000000000000e+00
237 237 1.000000000000000e+01
238 238 6.000000000000000e+00
239 79 -1.000000000000000e+00
239 239 1.100000000000000e+01
240 23 -1.000000000000000e+00
240 219 -1.000000000000000e+00
240 240 7.000000000000000e+00
241 122 -1.000000000000000e+00
241 137 -1.000000000000000e+00
241 241 9.000000000000000e+00
242 242 5.000000000000000e+00
243 110 -1.000000000000000e+00
243 211 -1.000000000000000e+00
243 243 1.600000000000000e+01
244 122 -1.000000000000000e+00
244 244 4.000000000000000e+00
245 187 -1.000000000000000e+00
245 203 -2.000000000000000e+00
245 245 5.000000000000000e+00
246 48 -1.000000000000000e+00
246 246 8.000000000000000e+00
247 14 -1.000000000000000e+00
247 64 -1.000000000000000e+00
247 247 7.000000000000000e+00
248 57 -1.000000000000000e+00
248 105 -1.000000000000000e+00
248 248 1.200000000000000e+01
249 10 -1.000000000000000e+00
249 249 6.000000000000000e+00
250 21 -1.000000000000000e+00
250 140 -1.000000000000000e+00
250 176 -1.000000000000000e+00
250 250 1.200000000000000e+01
251 141 -1.000000000000000e+00
251 210 -1.000000000000000e+00
251 251 5.000000000000000e+00
252 25 -2.000000000000000e+00
252 126 -1.000000000000000e+00
252 252 7.000000000000000e+00
253 76 -1.000000000000000e+00
253 253 1.000000000000000e+01
254 90 -1.000000000000000e+00
254 254 1.200000000000000e+01
255 19 -1.000000000000000e+00
255 255 8.000000000000000e+00
256 179 -1.000000000000000e+00
256 256 1.200000000000000e+01
257 255 -1.000000000000000e+00
257 257 1.000000000000000e+01
258 258 1.100000000000000e+01
259 19 -1.000000000000000e+00
259 259 1.200000000000000e+01
260 260 1.100000000000000e+01
261 67 -1.000000000000000e+00
261 261 9.000000000000000e+00
262 39 -1.000000000000000e+00
262 96 -1.000000000000000e+00
262 262 1.200000000000000e+01
263 96 -1.000000000000000e+00
263 263 1.500000000000000e+01
264 264 3.000000000000000e+00
265 24 -1.000000000000000e+00
265 265 7.000000000000000e+00
266 58 -1.000000000000000e+00
266 138 -1.000000000000000e+00
266 165 -1.000000000000000e+00
266 266 8.000000000000000e+00
267 146 -1.000000000000000e+00
267 207 -1.000000000000000e+00
267 263 -1.000000000000000e+00
267 267 1.200000000000000e+01
268 182 -1.000000000000000e+00
268 223 -1.000000000000000e+00
268 268 7.000000000000000e+00
269 48 -1.000000000000000e+00
269 194 -1.000000000000000e+00
269 231 -1.000000000000000e+00
269 269 1.100000000000000e+01
270 174 -1.000000000000000e+00
270 270 8.000000000000000e+00
271 6 -1.000000000000000e+00
271 42 -2.000000000000000e+00
271 84 -1.000000000000000e+00
271 271 7.000000000000000e+00
272 272 6.000000000000000e+00
273 18 -1.000000000000000e+00
273 273 6.000000000000000e+00
274 167 -1.000000000000000e+00
274 274 5.000000000000000e+00
275 117 -1.000000000000000e+00
275 275 9.000000000000000e+00
276 109 -1.000000000000000e+00
276 157 -1.000000000000000e+00
276 276 9.000000000000000e+00
277 9 -1.000000000000000e+00
277 277 6.000000000000000e+00
278 278 4.000000000000000e+00
279 279 8.000000000000000e+00
280 114 -1.000000000000000e+00
280 280 1.000000000000000e+01
281 36 -1.000000000000000e+00
281 70 -2.000000000000000e+00
281 281 7.000000000000000e+00
282 14 -1.000000000000000e+00
282 101 -1.000000000000000e+00
282 256 -1.000000000000000e+00
282 260 -1.000000000000000e+00
282 282 1.200000000000000e+01
283 113 -1.000000000000000e+00
283 218 -1.000000000000000e+00
283 283 1.000000000000000e+01
284 13 -1.000000000000000e+00
284 205 -1.000000000000000e+00
284 222 -1.000000000000000e+00
284 284 1.700000000000000e+01
285 225 -1.000000000000000e+00
285 258 -1.000000000000000e+00
285 285 1.100000000000000e+01
286 156 -1.000000000000000e+00
286 202 -1.000000000000000e+00
286 209 -2.000000000000000e+00
286 217 -1.000000000000000e+00
286 286 1.700000000000000e+01
287 184 -1.000000000000000e+00
287 287 7.000000000000000e+00
288 233 -1.000000000000000e+00
288 288 1.400000000000000e+01
289 289 4.000000000000000e+00
290 133 -2.000000000000000e+00
290 158 -1.000000000000000e+00
290 222 -1.000000000000000e+00
290 290 8.000000000000000e+00
291 199 -1.000000000000000e+00
291 290 -1.000000000000000e+00
291 291 6.000000000000000e+00
292 1 -1.000000000000000e+00
292 17 -1.000000000000000e+00
292 19 -1.000000000000000e+00
292 205 -1.000000000000000e+00
292 292 9.000000000000000e+00
293 42 -1.000000000000000e+00
293 151 -1.000000000000000e+00
293 155 -1.000000000000000e+00
293 292 -1.000000000000000e+00
293 293 1.500000000000000e+01
294 294 1.300000000000000e+01
295 162 -1.000000000000000e+00
295 286 -1.000000000000000e+00
295 295 1.400000000000000e+01
296 121 -1.000000000000000e+00
296 296 1.000000000000000e+01
297 102 -1.000000000000000e+00
297 115 -1.000000000000000e+00
297 297 6.000000000000000e+00
298 229 -1.000000000000000e+00
298 283 -1.000000000000000e+00
298 298 1.100000000000000e+01
299 200 -1.000000000000000e+00
299 282 -1.000000000000000e+00
299 299 6.000000000000000e+00
300 144 -1.000000000000000e+00
300 257 -1.000000000000000e+00
300 300 4.000000000000000e+00
301 11 -1.000000000000000e+00
301 301 4.000000000000000e+00
302 144 -1.000000000000000e+00
302 302 8.000000000000000e+00
303 113 -1.000000000000000e+00
303 303 8.000000000000000e+00
304 170 -1.000000000000000e+00
304 304 1.400000000000000e+01
305 171 -1.000000000000000e+00
305 305 9.000000000000000e+00
306 111 -1.000000000000000e+00
306 306 5.000000000000000e+00
307 198 -1.000000000000000e+00
307 233 -1.000000000000000e+00
307 307 9.000000000000000e+00
308 162 -1.000000000000000e+00
308 308 8.000000000000000e+00
309 117 -1.000000000000000e+00
309 206 -1.000000000000000e+00
309 309 9.000000000000000e+00
310 23 -1.000000000000000e+00
310 136 -1.000000000000000e+00
310 247 -1.000000000000000e+00
310 310 9.000000000000000e+00
311 221 -1.000000000000000e+00
311 311 8.000000000000000e+00
312 16 -1.000000000000000e+00
312 97 -1.000000000000000e+00
312 268 -2.000000000000000e+00
312 312 6.000000000000000e+00
313 48 -1.000000000000000e+00
313 204 -1.000000000000000e+00
313 285 -1.000000000000000e+00
313 313 8.000000000000000e+00
314 293 -1.000000000000000e+00
314 314 1.100000000000000e+01
315 65 -1.000000000000000e+00
315 262 -1.000000000000000e+00
315 302 -1.000000000000000e+00
315 315 1.600000000000000e+01
316 243 -1.000000000000000e+00
316 316 1.200000000000000e+01
317 317 1.200000000000000e+01
318 198 -1.000000000000000e+00
318 263 -1.000000000000000e+00
318 318 1.100000000000000e+01
319 49 -1.000000000000000e+00
319 105 -2.000000000000000e+00
319 168 -1.000000000000000e+00
319 201 -1.000000000000000e+00
319 319 1.100000000000000e+01
320 3 -1.000000000000000e+00
320 141 -1.000000000000000e+00
320 152 -1.000000000000000e+00
320 174 -1.000000000000000e+00
320 258 -1.000000000000000e+00
320 279 -1.000000000000000e+00
320 309 -1.000000000000000e+00
320 320 1.500000000000000e+01
321 254 -1.000000000000000e+00
321 321 6.000000000000000e+00
322 322 3.000000000000000e+00
323 323 1.300000000000000e+01
324 52 -1.000000000000000e+00
324 67 -1.000000000000000e+00
324 142 -2.000000000000000e+00
324 316 -1.000000000000000e+00
324 324 1.300000000000000e+01
325 123 -2.000000000000000e+00
325 125 -1.000000000000000e+00
325 325 6.000000000000000e+00
326 251 -1.000000000000000e+00
326 326 4.000000000000000e+00
327 91 -1.000000000000000e+00
327 272 -1.000000000000000e+00
327 327 5.000000000000000e+00
328 102 -1.000000000000000e+00
328 328 4.000000000000000e+00
329 104 -1.000000000000000e+00
329 191 -1.000000000000000e+00
329 329 9.000000000000000e+00
330 197 -1.000000000000000e+00
330 240 -1.000000000000000e+00
330 294 -1.000000000000000e+00
330 330 9.000000000000000e+00
331 331 1.000000000000000e+00
332 97 -1.000000000000000e+00
332 246 -1.000000000000000e+00
332 332 8.000000000000000e+00
333 265 -1.000000000000000e+00
333 305 -1.000000000000000e+00
333 333 6.000000000000000e+00
334 56 -1.000000000000000e+00
334 144 -1.000000000000000e+00
334 334 8.000000000000000e+00
335 40 -1.000000000000000e+00
335 54 -1.000000000000000e+00
335 97 -2.000000000000000e+00
335 112 -2.000000000000000e+00
335 162 -1.000000000000000e+00
335 335 1.200000000000000e+01
336 31 -1.000000000000000e+00
336 151 -1.000000000000000e+00
336 263 -1.000000000000000e+00
336 336 1.700000000000000e+01
337 187 -1.000000000000000e+00
337 304 -1.000000000000000e+00
337 337 1.200000000000000e+01
338 238 -1.000000000000000e+00
338 304 -1.000000000000000e+00
338 338 9.000000000000000e+00
339 92 -1.000000000000000e+00
339 318 -1.000000000000000e+00
339 339 8.000000000000000e+00
340 195 -1.000000000000000e+00
340 340 8.000000000000000e+00
341 79 -1.000000000000000e+00
341 156 -1.000000000000000e+00
341 169 -1.000000000000000e+00
341 341 1.300000000000000e+01
342 144 -1.000000000000000e+00
342 165 -2.000000000000000e+00
342 342 8.000000000000000e+00
343 101 -1.000000000000000e+00
343 175 -1.000000000000000e+00
343 343 7.000000000000000e+00
344 80 -1.000000000000000e+00
344 84 -1.000000000000000e+00
344 344 1.100000000000000e+01
345 14 -1.000000000000000e+00
345 284 -1.000000000000000e+00
345 345 8.000000000000000e+00
346 305 -2.000000000000000e+00
346 346 8.000000000000000e+00
347 142 -1.000000000000000e+00
347 324 -2.000000000000000e+00
347 347 6.000000000000000e+00
348 255 -2.000000000000000e+00
348 348 8.000000000000000e+00
349 144 -1.000000000000000e+00
349 187 -1.000000000000000e+00
349 349 8.000000000000000e+00
350 350 1.000000000000000e+01
351 296 -1.000000000000000e+00
351 351 9.000000000000000e+00
352 158 -1.000000000000000e+00
352 328 -1.000000000000000e+00
352 352 4.000000000000000e+00
353 353 7.000000000000000e+00
354 76 -1.000000000000000e+00
354 121 -1.000000000000000e+00
354 304 -1.000000000000000e+00
354 309 -1.000000000000000e+00
354 354 1.100000000000000e+01
355 134 -1.000000000000000e+00
355 269 -1.000000000000000e+00
355 355 9.000000000000000e+00
356 356 7.000000000000000e+00
357 17 -1.000000000000000e+00
357 117 -1.000000000000000e+00
357 277 -1.000000000000000e+00
357 357 9.000000000000000e+00
358 60 -1.000000000000000e+00
358 259 -1.000000000000000e+00
358 358 1.300000000000000e+01
359 359 8.000000000000000e+00
360 40 -1.000000000000000e+00
360 60 -1.000000000000000e+00
360 173 -1.000000000000000e+00
360 360 9.000000000000000e+00
361 227 -2.000000000000000e+00
361 361 6.000000000000000e+00
362 144 -1.000000000000000e+00
362 192 -1.000000000000000e+00
362 362 1.000000000000000e+01
363 104 -1.000000000000000e+00
363 363 6.000000000000000e+00
364 170 -1.000000000000000e+00
364 364 1.400000000000000e+01
365 365 6.000000000000000e+00
366 10 -1.000000000000000e+00
366 25 -1.000000000000000e+00
366 160 -1.000000000000000e+00
366 366 1.300000000000000e+01
367 261 -1.000000000000000e+00
367 367 6.000000000000000e+00
368 54 -1.000000000000000e+00
368 70 -1.000000000000000e+00
368 79 -1.000000000000000e+00
368 125 -1.000000000000000e+00
368 194 -1.000000000000000e+00
368 341 -1.000000000000000e+00
368 368 8.000000000000000e+00
369 106 -1.000000000000000e+00
369 212 -1.000000000000000e+00
369 244 -1.000000000000000e+00
369 280 -1.000000000000000e+00
369 369 8.000000000000000e+00
370 1 -1.000000000000000e+00
370 65 -2.000000000000000e+00
370 101 -1.000000000000000e+00
370 370 1.100000000000000e+01
371 46 -1.000000000000000e+00
371 267 -1.000000000000000e+00
371 357 -1.000000000000000e+00
371 371 1.000000000000000e+01
372 29 -1.000000000000000e+00
372 34 -2.000000000000000e+00
372 236 -2.000000000000000e+00
372 372 1.100000000000000e+01
373 176 -1.000000000000000e+00
373 254 -1.000000000000000e+00
373 373 1.100000000000000e+01
374 8 -1.000000000000000e+00
374 78 -1.000000000000000e+00
374 142 -1.000000000000000e+00
374 374 1.700000000000000e+01
375 194 -1.000000000000000e+00
375 375 8.000000000000000e+00
376 104 -1.000000000000000e+00
376 376 7.000000000000000e+00
377 127 -1.000000000000000e+00
377 357 -1.000000000000000e+00
377 377 4.000000000000000e+00
378 239 -1.000000000000000e+00
378 378 7.000000000000000e+00
379 285 -1.000000000000000e+00
379 336 -1.000000000000000e+00
379 379 1.000000000000000e+01
380 31 -1.000000000000000e+00
380 96 -1.000000000000000e+00
380 336 -1.000000000000000e+00
380 380 9.000000000000000e+00
381 113 -1.000000000000000e+00
381 181 -1.000000000000000e+00
381 381 9.000000000000000e+00
382 169 -1.000000000000000e+00
382 382 6.000000000000000e+00
383 350 -1.000000000000000e+00
383 383 1.200000000000000e+01
384 34 -1.000000000000000e+00
384 147 -1.000000000000000e+00
384 191 -1.000000000000000e+00
384 363 -2.000000000000000e+00
384 384 1.000000000000000e+01
385 54 -1.000000000000000e+00
385 151 -1.000000000000000e+00
385 214 -1.000000000000000e+00
385 233 -1.000000000000000e+00
385 385 1.200000000000000e+01
386 170 -1.000000000000000e+00
386 197 -1.000000000000000e+00
386 288 -1.000000000000000e+00
386 294 -1.000000000000000e+00
386 386 1.100000000000000e+01
387 28 -1.000000000000000e+00
387 137 -1.000000000000000e+00
387 259 -1.000000000000000e+00
387 387 8.000000000000000e+00
388 53 -1.000000000000000e+00
388 243 -1.000000000000000e+00
388 388 4.000000000000000e+00
389 389 3.000000000000000e+00
390 161 -1.000000000000000e+00
390 354 -2.000000000000000e+00
390 390 1.300000000000000e+01
391 374 -1.000000000000000e+00
391 391 8.000000000000000e+00
392 279 -2.000000000000000e+00
392 304 -1.000000000000000e+00
392 392 9.000000000000000e+00
393 128 -1.000000000000000e+00
393 133 -1.000000000000000e+00
393 393 8.000000000000000e+00
394 42 -1.000000000000000e+00
394 148 -1.000000000000000e+00
394 161 -1.000000000000000e+00
394 241 -1.000000000000000e+00
394 321 -1.000000000000000e+00
394 394 1.300000000000000e+01
395 336 -1.000000000000000e+00
395 395 7.000000000000000e+00
396 1 -1.000000000000000e+00
396 68 -1.000000000000000e+00
396 396 7.000000000000000e+00
397 9 -1.000000000000000e+00
397 356 -1.000000000000000e+00
397 397 1.000000000000000e+01
398 99 -1.000000000000000e+00
398 120 -1.000000000000000e+00
398 383 -1.000000000000000e+00
398 398 1.000000000000000e+01
399 11 -1.000000000000000e+00
399 65 -1.000000000000000e+00
399 237 -1.000000000000000e+00
399 399 1.100000000000000e+01
400 56 -1.000000000000000e+00
400 123 -1.000000000000000e+00
400 174 -1.000000000000000e+00
400 400 1.000000000000000e+01
401 13 -1.000000000000000e+00
401 56 -1.000000000000000e+00
401 82 -1.000000000000000e+00
401 243 -1.000000000000000e+00
401 248 -1.000000000000000e+00
401 401 1.000000000000000e+01
402 46 -1.000000000000000e+00
402 256 -1.000000000000000e+00
402 394 -1.000000000000000e+00
402 402 7.000000000000000e+00
403 31 -1.000000000000000e+00
403 403 1.000000000000000e+01
404 254 -1.000000000000000e+00
404 350 -1.000000000000000e+00
404 404 8.000000000000000e+00
405 159 -1.000000000000000e+00
405 405 1.400000000000000e+01
406 119 -1.000000000000000e+00
406 123 -1.000000000000000e+00
406 260 -1.000000000000000e+00
406 389 -1.000000000000000e+00
406 406 5.000000000000000e+00
407 50 -1.000000000000000e+00
407 108 -1.000000000000000e+00
407 407 1.300000000000000e+01
408 128 -1.000000000000000e+00
408 332 -1.000000000000000e+00
408 408 8.000000000000000e+00
409 145 -1.000000000000000e+00
409 384 -1.000000000000000e+00
409 409 1.400000000000000e+01
410 120 -1.000000000000000e+00
410 126 -1.000000000000000e+00
410 360 -2.000000000000000e+00
410 410 6.000000000000000e+00
411 239 -1.000000000000000e+00
411 250 -1.000000000000000e+00
411 380 -1.000000000000000e+00
411 411 1.500000000000000e+01
412 264 -1.000000000000000e+00
412 412 1.100000000000000e+01
413 3 -1.000000000000000e+00
413 38 -1.000000000000000e+00
413 133 -1.000000000000000e+00
413 275 -1.000000000000000e+00
413 413 1.400000000000000e+01
414 152 -1.000000000000000e+00
414 414 1.000000000000000e+01
415 380 -1.000000000000000e+00
415 415 1.000000000000000e+01
416 343 -1.000000000000000e+00
416 405 -1.000000000000000e+00
416 416 1.100000000000000e+01
417 242 -1.000000000000000e+00
417 417 1.100000000000000e+01
418 142 -1.000000000000000e+00
418 165 -1.000000000000000e+00
418 320 -1.000000000000000e+00
418 418 1.000000000000000e+01
419 156 -1.000000000000000e+00
419 419 3.000000000000000e+00
420 420 8.000000000000000e+00
421 14 -1.000000000000000e+00
421 289 -1.000000000000000e+00
421 421 5.000000000000000e+00
422 91 -1.000000000000000e+00
422 422 9.000000000000000e+00
423 198 -1.000000000000000e+00
423 256 -1.000000000000000e+00
423 340 -1.000000000000000e+00
423 398 -1.000000000000000e+00
423 423 1.100000000000000e+01
424 221 -1.000000000000000e+00
424 424 7.000000000000000e+00
425 16 -1.000000000000000e+00
425 161 -1.000000000000000e+00
425 358 -1.000000000000000e+00
425 387 -1.000000000000000e+00
425 425 8.000000000000000e+00
426 94 -1.000000000000000e+00
426 141 -1.000000000000000e+00
426 323 -1.000000000000000e+00
426 392 -1.000000000000000e+00
426 426 1.400000000000000e+01
427 376 -1.000000000000000e+00
427 427 9.000000000000000e+00
428 66 -1.000000000000000e+00
428 225 -1.000000000000000e+00
428 263 -1.000000000000000e+00
428 428 6.000000000000000e+00
429 226 -1.000000000000000e+00
429 429 6.000000000000000e+00
430 80 -1.000000000000000e+00
430 163 -2.000000000000000e+00
430 430 8.000000000000000e+00
431 119 -1.000000000000000e+00
431 182 -1.000000000000000e+00
431 246 -1.000000000000000e+00
431 431 8.000000000000000e+00
432 38 -2.000000000000000e+00
432 392 -1.000000000000000e+00
432 432 1.100000000000000e+01
433 2 -1.000000000000000e+00
433 203 -1.000000000000000e+00
433 433 1.000000000000000e+01
434 33 -1.000000000000000e+00
434 211 -2.000000000000000e+00
434 372 -1.000000000000000e+00
434 434 1.300000000000000e+01
435 435 5.000000000000000e+00
436 374 -1.000000000000000e+00
436 436 7.000000000000000e+00
437 86 -1.000000000000000e+00
437 158 -2.000000000000000e+00
437 413 -1.000000000000000e+00
437 437 1.000000000000000e+01
438 32 -2.000000000000000e+00
438 33 -2.000000000000000e+00
438 36 -1.000000000000000e+00
438 244 -1.000000000000000e+00
438 380 -1.000000000000000e+00
438 408 -1.000000000000000e+00
438 438 1.500000000000000e+01
439 124 -1.000000000000000e+00
439 140 -1.000000000000000e+00
439 163 -1.000000000000000e+00
439 439 8.000000000000000e+00
440 88 -1.000000000000000e+00
440 227 -1.000000000000000e+00
440 440 9.000000000000000e+00
441 175 -2.000000000000000e+00
441 192 -1.000000000000000e+00
441 285 -1.000000000000000e+00
441 305 -1.000000000000000e+00
441 343 -2.000000000000000e+00
441 441 1.000000000000000e+01
442 88 -1.000000000000000e+00
442 257 -1.000000000000000e+00
442 424 -1.000000000000000e+00
442 442 4.000000000000000e+00
443 80 -1.000000000000000e+00
443 323 -1.000000000000000e+00
443 412 -1.000000000000000e+00
443 422 -1.000000000000000e+00
443 443 1.000000000000000e+01
444 276 -1.000000000000000e+00
444 444 9.000000000000000e+00
445 58 -1.000000000000000e+00
445 189 -1.000000000000000e+00
445 280 -2.000000000000000e+00
445 369 -2.000000000000000e+00
445 424 -1.000000000000000e+00
445 445 1.200000000000000e+01
446 379 -1.000000000000000e+00
446 446 1.000000000000000e+01
447 447 3.000000000000000e+00
448 241 -1.000000000000000e+00
448 296 -1.000000000000000e+00
448 448 7.000000000000000e+00
449 33 -1.000000000000000e+00
449 100 -1.000000000000000e+00
449 449 1.100000000000000e+01
450 293 -1.000000000000000e+00
450 450 9.000000000000000e+00
451 451 3.000000000000000e+00
452 260 -1.000000000000000e+00
452 273 -1.000000000000000e+00
452 296 -1.000000000000000e+00
452 352 -1.000000000000000e+00
452 383 -1.000000000000000e+00
452 422 -1.000000000000000e+00
452 452 1.300000000000000e+01
453 135 -1.000000000000000e+00
453 225 -1.000000000000000e+00
453 305 -1.000000000000000e+00
453 424 -2.000000000000000e+00
453 453 1.200000000000000e+01
454 220 -1.000000000000000e+00
454 254 -1.000000000000000e+00
454 454 7.000000000000000e+00
455 191 -1.000000000000000e+00
455 338 -1.000000000000000e+00
455 455 1.000000000000000e+01
456 400 -1.000000000000000e+00
456 443 -1.000000000000000e+00
456 456 3.000000000000000e+00
457 116 -1.000000000000000e+00
457 371 -1.000000000000000e+00
457 391 -1.000000000000000e+00
457 457 1.000000000000000e+01
458 196 -1.000000000000000e+00
458 205 -1.000000000000000e+00
458 256 -1.000000000000000e+00
458 394 -1.000000000000000e+00
458 458 8.000000000000000e+00
459 10 -1.000000000000000e+00
459 182 -2.000000000000000e+00
459 243 -1.000000000000000e+00
459 395 -1.000000000000000e+00
459 459 1.400000000000000e+01
460 55 -2.000000000000000e+00
460 140 -1.000000000000000e+00
460 183 -1.000000000000000e+00
460 460 7.000000000000000e+00
461 54 -1.000000000000000e+00
461 152 -1.000000000000000e+00
461 155 -1.000000000000000e+00
461 260 -1.000000000000000e+00
461 279 -1.000000000000000e+00
461 364 -1.000000000000000e+00
461 461 1.600000000000000e+01
462 13 -1.000000000000000e+00
462 30 -1.000000000000000e+00
462 462 8.000000000000000e+00
463 27 -1.000000000000000e+00
463 463 5.000000000000000e+00
464 78 -1.000000000000000e+00
464 255 -1.000000000000000e+00
464 464 1.100000000000000e+01
465 2 -1.000000000000000e+00
465 294 -1.000000000000000e+00
465 356 -1.000000000000000e+00
465 397 -1.000000000000000e+00
465 465 1.000000000000000e+01
466 83 -1.000000000000000e+00
466 420 -2.000000000000000e+00
466 466 1.300000000000000e+01
467 371 -1.000000000000000e+00
467 388 -1.000000000000000e+00
467 467 8.000000000000000e+00
468 120 -1.000000000000000e+00
468 307 -1.000000000000000e+00
468 468 9.000000000000000e+00
469 469 1.200000000000000e+01
470 13 -1.000000000000000e+00
470 470 9.000000000000000e+00
471 96 -1.000000000000000e+00
471 112 -1.000000000000000e+00
471 118 -1.000000000000000e+00
471 453 -1.000000000000000e+00
471 471 1.200000000000000e+01
472 395 -1.000000000000000e+00
472 472 7.000000000000000e+00
473 19 -1.000000000000000e+00
473 74 -1.000000000000000e+00
473 304 -1.000000000000000e+00
473 405 -1.000000000000000e+00
473 473 1.200000000000000e+01
474 40 -1.000000000000000e+00
474 110 -1.000000000000000e+00
474 256 -2.000000000000000e+00
474 474 1.100000000000000e+01
475 475 3.000000000000000e+00
476 161 -1.000000000000000e+00
476 278 -1.000000000000000e+00
476 476 1.100000000000000e+01
477 329 -1.000000000000000e+00
477 405 -1.000000000000000e+00
477 477 5.000000000000000e+00
478 137 -1.000000000000000e+00
478 478 5.000000000000000e+00
479 440 -1.000000000000000e+00
479 479 4.000000000000000e+00
480 15 -1.000000000000000e+00
480 95 -2.000000000000000e+00
480 480 1.200000000000000e+01
481 74 -1.000000000000000e+00
481 96 -2.000000000000000e+00
481 146 -1.000000000000000e+00
481 481 1.200000000000000e+01
482 22 -1.000000000000000e+00
482 277 -2.000000000000000e+00
482 482 1.000000000000000e+01
483 375 -1.000000000000000e+00
483 483 4.000000000000000e+00
484 260 -1.000000000000000e+00
484 276 -2.000000000000000e+00
484 437 -1.000000000000000e+00
484 484 1.100000000000000e+01
485 94 -1.000000000000000e+00
485 254 -1.000000000000000e+00
485 485 4.000000000000000e+00
486 82 -1.000000000000000e+00
486 421 -1.000000000000000e+00
486 445 -1.000000000000000e+00
486 486 1.000000000000000e+01
487 62 -1.000000000000000e+00
487 381 -1.000000000000000e+00
487 487 1.100000000000000e+01
488 240 -2.000000000000000e+00
488 488 8.000000000000000e+00
489 37 -2.000000000000000e+00
489 108 -1.000000000000000e+00
489 262 -1.000000000000000e+00
489 489 7.000000000000000e+00
490 490 3.000000000000000e+00
491 60 -1.000000000000000e+00
491 329 -2.000000000000000e+00
491 466 -1.000000000000000e+00
491 491 5.000000000000000e+00
492 205 -1.000000000000000e+00
492 213 -1.000000000000000e+00
492 290 -1.000000000000000e+00
492 492 8.000000000000000e+00
493 33 -1.000000000000000e+00
493 493 2.000000000000000e+00
494 88 -1.000000000000000e+00
494 204 -1.000000000000000e+00
494 238 -1.000000000000000e+00
494 361 -1.000000000000000e+00
494 494 1.100000000000000e+01
495 114 -2.000000000000000e+00
495 315 -1.000000000000000e+00
495 495 1.500000000000000e+01
496 163 -1.000000000000000e+00
496 197 -1.000000000000000e+00
496 411 -1.000000000000000e+00
496 496 1.000000000000000e+01
497 29 -2.000000000000000e+00
497 53 -1.000000000000000e+00
497 313 -1.000000000000000e+00
497 497 7.000000000000000e+00
498 280 -1.000000000000000e+00
498 412 -1.000000000000000e+00
498 498 9.000000000000000e+00
499 8 -1.000000000000000e+00
499 91 -2.000000000000000e+00
499 210 -1.000000000000000e+00
499 364 -1.000000000000000e+00
499 499 1.200000000000000e+01
500 204 -1.000000000000000e+00
500 400 -1.000000000000000e+00
500 465 -1.000000000000000e+00
500 500 6.000000000000000e+00
501 91 -1.000000000000000e+00
501 501 5.000000000000000e+00
502 486 -1.000000000000000e+00
502 502 6.000000000000000e+00
503 30 -1.000000000000000e+00
503 152 -1.000000000000000e+00
503 177 -1.000000000000000e+00
503 196 -1.000000000000000e+00
503 462 -1.000000000000000e+00
503 503 1.200000000000000e+01
504 6 -1.000000000000000e+00
504 209 -1.000000000000000e+00
504 286 -2.000000000000000e+00
504 504 9.000000000000000e+00
505 55 -1.000000000000000e+00
505 199 -1.000000000000000e+00
505 505 1.200000000000000e+01
506 85 -1.000000000000000e+00
506 350 -1.000000000000000e+00
506 380 -1.000000000000000e+00
506 503 -1.000000000000000e+00
506 506 1.000000000000000e+01
507 29 -1.000000000000000e+00
507 92 -1.000000000000000e+00
507 427 -1.000000000000000e+00
507 490 -1.000000000000000e+00
507 507 1.100000000000000e+01
508 329 -1.000000000000000e+00
508 479 -1.000000000000000e+00
508 508 9.000000000000000e+00
509 27 -1.000000000000000e+00
509 53 -1.000000000000000e+00
509 84 -1.000000000000000e+00
509 107 -1.000000000000000e+00
509 182 -1.000000000000000e+00
509 509 1.300000000000000e+01
510 50 -1.000000000000000e+00
510 114 -1.000000000000000e+00
510 190 -1.000000000000000e+00
510 302 -1.000000000000000e+00
510 345 -1.000000000000000e+00
510 510 1.100000000000000e+01
511 23 -1.000000000000000e+00
511 33 -1.000000000000000e+00
511 101 -1.000000000000000e+00
511 127 -1.000000000000000e+00
511 366 -1.000000000000000e+00
511 511 1.200000000000000e+01
512 317 -1.000000000000000e+00
512 358 -1.000000000000000e+00
512 405 -1.000000000000000e+00
512 512 9.000000000000000e+00
513 141 -1.000000000000000e+00
513 300 -1.000000000000000e+00
513 313 -2.000000000000000e+00
513 374 -1.000000000000000e+00
513 513 9.000000000000000e+00
514 151 -1.000000000000000e+00
514 287 -1.000000000000000e+00
514 432 -1.000000000000000e+00
514 449 -2.000000000000000e+00
514 514 1.100000000000000e+01
515 362 -1.000000000000000e+00
515 419 -1.000000000000000e+00
515 507 -1.000000000000000e+00
515 515 1.000000000000000e+01
516 274 -1.000000000000000e+00
516 385 -1.000000000000000e+00
516 390 -1.000000000000000e+00
516 516 8.000000000000000e+00
517 121 -1.000000000000000e+00
517 416 -1.000000000000000e+00
517 466 -1.000000000000000e+00
517 488 -1.000000000000000e+00
517 517 8.000000000000000e+00
518 13 -1.000000000000000e+00
518 177 -1.000000000000000e+00
518 436 -1.000000000000000e+00
518 518 1.000000000000000e+01
519 413 -1.000000000000000e+00
519 519 5.000000000000000e+00
520 4 -1.000000000000000e+00
520 201 -1.000000000000000e+00
520 417 -1.000000000000000e+00
520 498 -1.000000000000000e+00
520 520 1.100000000000000e+01
521 21 -1.000000000000000e+00
521 42 -1.000000000000000e+00
521 149 -1.000000000000000e+00
521 263 -1.000000000000000e+00
521 314 -1.000000000000000e+00
521 469 -1.000000000000000e+00
521 508 -1.000000000000000e+00
521 521 1.200000000000000e+01
522 34 -1.000000000000000e+00
522 63 -1.000000000000000e+00
522 83 -2.000000000000000e+00
522 167 -2.000000000000000e+00
522 174 -1.000000000000000e+00
522 285 -1.000000000000000e+00
522 438 -1.000000000000000e+00
522 522 1.400000000000000e+01
523 72 -1.000000000000000e+00
523 142 -1.000000000000000e+00
523 258 -1.000000000000000e+00
523 505 -1.000000000000000e+00
523 523 1.100000000000000e+01
524 3 -1.000000000000000e+00
524 81 -2.000000000000000e+00
524 178 -1.000000000000000e+00
524 179 -1.000000000000000e+00
524 319 -1.000000000000000e+00
524 521 -1.000000000000000e+00
524 524 1.500000000000000e+01
525 146 -2.000000000000000e+00
525 267 -2.000000000000000e+00
525 429 -1.000000000000000e+00
525 525 1.200000000000000e+01
526 33 -1.000000000000000e+00
526 237 -1.000000000000000e+00
526 249 -1.000000000000000e+00
526 526 8.000000000000000e+00
527 196 -1.000000000000000e+00
527 247 -2.000000000000000e+00
527 504 -1.000000000000000e+00
527 527 9.000000000000000e+00
528 409 -1.000000000000000e+00
528 433 -1.000000000000000e+00
528 528 9.000000000000000e+00
529 69 -1.000000000000000e+00
529 178 -1.000000000000000e+00
529 529 7.000000000000000e+00
530 114 -1.000000000000000e+00
530 322 -1.000000000000000e+00
530 462 -1.000000000000000e+00
530 495 -2.000000000000000e+00
530 514 -1.000000000000000e+00
530 530 8.000000000000000e+00
531 22 -1.000000000000000e+00
531 86 -1.000000000000000e+00
531 336 -1.000000000000000e+00
531 531 8.000000000000000e+00
532 209 -1.000000000000000e+00
532 488 -1.000000000000000e+00
532 532 8.000000000000000e+00
533 87 -1.000000000000000e+00
533 158 -1.000000000000000e+00
533 189 -1.000000000000000e+00
533 349 -2.000000000000000e+00
533 533 8.000000000000000e+00
534 295 -2.000000000000000e+00
534 452 -1.000000000000000e+00
534 480 -1.000000000000000e+00
534 534 1.400000000000000e+01
535 382 -1.000000000000000e+00
535 390 -1.000000000000000e+00
535 535 1.000000000000000e+01
536 234 -1.000000000000000e+00
536 536 2.000000000000000e+00
537 24 -1.000000000000000e+00
537 91 -1.000000000000000e+00
537 132 -1.000000000000000e+00
537 175 -1.000000000000000e+00
537 374 -1.000000000000000e+00
537 537 1.500000000000000e+01
538 105 -1.000000000000000e+00
538 142 -1.000000000000000e+00
538 176 -1.000000000000000e+00
538 204 -1.000000000000000e+00
538 376 -1.000000000000000e+00
538 538 1.200000000000000e+01
539 237 -2.000000000000000e+00
539 509 -1.000000000000000e+00
539 539 6.000000000000000e+00
540 204 -1.000000000000000e+00
540 326 -1.000000000000000e+00
540 540 5.000000000000000e+00
541 60 -2.000000000000000e+00
541 433 -1.000000000000000e+00
541 524 -1.000000000000000e+00
541 541 9.000000000000000e+00
542 35 -1.000000000000000e+00
542 469 -1.000000000000000e+00
542 542 7.000000000000000e+00
543 138 -1.000000000000000e+00
543 308 -1.000000000000000e+00
543 337 -1.000000000000000e+00
543 445 -1.000000000000000e+00
543 543 9.000000000000000e+00
544 193 -1.000000000000000e+00
544 199 -1.000000000000000e+00
544 544 8.000000000000000e+00
545 60 -1.000000000000000e+00
545 221 -1.000000000000000e+00
545 409 -1.000000000000000e+00
545 481 -1.000000000000000e+00
545 545 1.300000000000000e+01
546 230 -1.000000000000000e+00
546 546 6.000000000000000e+00
547 371 -1.000000000000000e+00
547 424 -1.000000000000000e+00
547 431 -1.000000000000000e+00
547 547 9.000000000000000e+00
548 548 6.000000000000000e+00
549 87 -2.000000000000000e+00
549 549 6.000000000000000e+00
550 200 -1.000000000000000e+00
550 338 -1.000000000000000e+00
550 550 4.000000000000000e+00
551 52 -1.000000000000000e+00
551 134 -1.000000000000000e+00
551 211 -1.000000000000000e+00
551 299 -1.000000000000000e+00
551 398 -1.000000000000000e+00
551 434 -2.000000000000000e+00
551 551 1.000000000000000e+01
552 177 -1.000000000000000e+00
552 200 -1.000000000000000e+00
552 229 -2.000000000000000e+00
552 492 -1.000000000000000e+00
552 537 -1.000000000000000e+00
552 552 1.300000000000000e+01
553 553 3.000000000000000e+00
554 157 -1.000000000000000e+00
554 207 -1.000000000000000e+00
554 353 -1.000000000000000e+00
554 354 -1.000000000000000e+00
554 554 1.200000000000000e+01
555 12 -1.000000000000000e+00
555 105 -1.000000000000000e+00
555 442 -1.000000000000000e+00
555 555 1.000000000000000e+01
556 556 8.000000000000000e+00
557 44 -1.000000000000000e+00
557 136 -1.000000000000000e+00
557 451 -1.000000000000000e+00
557 557 8.000000000000000e+00
558 351 -1.000000000000000e+00
558 548 -1.000000000000000e+00
558 558 5.000000000000000e+00
559 204 -1.000000000000000e+00
559 262 -2.000000000000000e+00
559 279 -1.000000000000000e+00
559 388 -1.000000000000000e+00
559 554 -1.000000000000000e+00
559 559 1.500000000000000e+01
560 415 -1.000000000000000e+00
560 560 8.000000000000000e+00
561 133 -1.000000000000000e+00
561 137 -1.000000000000000e+00
561 248 -1.000000000000000e+00
561 276 -1.000000000000000e+00
561 466 -1.000000000000000e+00
561 494 -2.000000000000000e+00
561 561 1.700000000000000e+01
562 170 -1.000000000000000e+00
562 267 -1.000000000000000e+00
562 562 4.000000000000000e+00
563 222 -1.000000000000000e+00
563 363 -1.000000000000000e+00
563 518 -1.000000000000000e+00
563 563 9.000000000000000e+00
564 48 -1.000000000000000e+00
564 66 -1.000000000000000e+00
564 143 -1.000000000000000e+00
564 304 -1.000000000000000e+00
564 564 9.000000000000000e+00
565 296 -1.000000000000000e+00
565 565 6.000000000000000e+00
566 103 -1.000000000000000e+00
566 566 4.000000000000000e+00
567 173 -1.000000000000000e+00
567 375 -1.000000000000000e+00
567 537 -1.000000000000000e+00
567 567 9.000000000000000e+00
568 58 -1.000000000000000e+00
568 158 -1.000000000000000e+00
568 163 -1.000000000000000e+00
568 493 -1.000000000000000e+00
568 568 8.000000000000000e+00
569 114 -2.000000000000000e+00
569 235 -1.000000000000000e+00
569 365 -1.000000000000000e+00
569 446 -1.000000000000000e+00
569 495 -2.000000000000000e+00
569 569 1.000000000000000e+01
570 51 -2.000000000000000e+00
570 71 -1.000000000000000e+00
570 181 -1.000000000000000e+00
570 286 -1.000000000000000e+00
570 570 1.100000000000000e+01
571 26 -2.000000000000000e+00
571 206 -1.000000000000000e+00
571 370 -1.000000000000000e+00
571 483 -1.000000000000000e+00
571 552 -1.000000000000000e+00
571 571 1.400000000000000e+01
572 10 -1.000000000000000e+00
572 572 6.000000000000000e+00
573 174 -1.000000000000000e+00
573 374 -1.000000000000000e+00
573 573 6.000000000000000e+00
574 235 -1.000000000000000e+00
574 267 -1.000000000000000e+00
574 574 9.000000000000000e+00
575 48 -1.000000000000000e+00
575 288 -1.000000000000000e+00
575 518 -1.000000000000000e+00
575 540 -1.000000000000000e+00
575 575 1.000000000000000e+01
576 203 -1.000000000000000e+00
576 318 -2.000000000000000e+00
576 339 -2.000000000000000e+00
576 407 -1.000000000000000e+00
576 452 -1.000000000000000e+00
576 461 -1.000000000000000e+00
576 576 1.200000000000000e+01
577 246 -1.000000000000000e+00
577 415 -1.000000000000000e+00
577 489 -1.000000000000000e+00
577 577 1.200000000000000e+01
578 167 -1.000000000000000e+00
578 457 -1.000000000000000e+00
578 578 5.000000000000000e+00
579 71 -2.000000000000000e+00
579 293 -1.000000000000000e+00
579 524 -1.000000000000000e+00
579 579 8.000000000000000e+00
580 84 -1.000000000000000e+00
580 216 -1.000000000000000e+00
580 232 -1.000000000000000e+00
580 319 -1.000000000000000e+00
580 347 -1.000000000000000e+00
580 580 1.500000000000000e+01
581 118 -1.000000000000000e+00
581 308 -1.000000000000000e+00
581 357 -1.000000000000000e+00
581 392 -1.000000000000000e+00
581 418 -1.000000000000000e+00
581 496 -1.000000000000000e+00
581 570 -1.000000000000000e+00
581 581 1.200000000000000e+01
582 358 -2.000000000000000e+00
582 582 9.000000000000000e+00
583 549 -1.000000000000000e+00
583 583 1.000000000000000e+01
584 358 -1.000000000000000e+00
584 362 -1.000000000000000e+00
584 574 -1.000000000000000e+00
584 584 5.000000000000000e+00
585 97 -1.000000000000000e+00
585 287 -1.000000000000000e+00
585 403 -1.000000000000000e+00
585 557 -1.000000000000000e+00
585 585 9.000000000000000e+00
586 204 -1.000000000000000e+00
586 586 7.000000000000000e+00
587 23 -1.000000000000000e+00
587 211 -1.000000000000000e+00
587 231 -1.000000000000000e+00
587 434 -2.000000000000000e+00
587 587 1.200000000000000e+01
588 91 -1.000000000000000e+00
588 196 -1.000000000000000e+00
588 355 -1.000000000000000e+00
588 588 8.000000000000000e+00
589 316 -1.000000000000000e+00
589 462 -2.000000000000000e+00
589 466 -1.000000000000000e+00
589 589 1.300000000000000e+01
590 108 -1.000000000000000e+00
590 262 -1.000000000000000e+00
590 304 -2.000000000000000e+00
590 473 -2.000000000000000e+00
590 590 1.000000000000000e+01
591 165 -1.000000000000000e+00
591 591 5.000000000000000e+00
592 113 -2.000000000000000e+00
592 122 -1.000000000000000e+00
592 185 -1.000000000000000e+00
592 190 -1.000000000000000e+00
592 283 -2.000000000000000e+00
592 298 -1.000000000000000e+00
592 366 -1.000000000000000e+00
592 592 1.600000000000000e+01
593 80 -1.000000000000000e+00
593 154 -1.000000000000000e+00
593 191 -1.000000000000000e+00
593 229 -1.000000000000000e+00
593 552 -2.000000000000000e+00
593 593 1.000000000000000e+01
594 594 6.000000000000000e+00
595 595 5.000000000000000e+00
596 112 -1.000000000000000e+00
596 292 -1.000000000000000e+00
596 481 -1.000000000000000e+00
596 575 -1.000000000000000e+00
596 596 7.000000000000000e+00
597 362 -1.000000000000000e+00
597 369 -1.000000000000000e+00
597 567 -1.000000000000000e+00
597 597 9.000000000000000e+00
598 63 -1.000000000000000e+00
598 320 -1.000000000000000e+00
598 598 6.000000000000000e+00
599 88 -2.000000000000000e+00
599 117 -1.000000000000000e+00
599 167 -1.000000000000000e+00
599 440 -2.000000000000000e+00
599 538 -1.000000000000000e+00
599 599 8.000000000000000e+00
600 248 -1.000000000000000e+00
600 600 7.000000000000000e+00
601 16 -1.000000000000000e+00
601 121 -2.000000000000000e+00
601 601 7.000000000000000e+00
602 106 -1.000000000000000e+00
602 135 -2.000000000000000e+00
602 320 -1.000000000000000e+00
602 602 5.000000000000000e+00
603 168 -1.000000000000000e+00
603 503 -1.000000000000000e+00
603 548 -1.000000000000000e+00
603 603 9.000000000000000e+00
604 195 -1.000000000000000e+00
604 241 -1.000000000000000e+00
604 454 -1.000000000000000e+00
604 604 1.000000000000000e+01
605 526 -1.000000000000000e+00
605 605 9.000000000000000e+00
606 12 -1.000000000000000e+00
606 107 -2.000000000000000e+00
606 396 -1.000000000000000e+00
606 410 -1.000000000000000e+00
606 606 8.000000000000000e+00
607 28 -1.000000000000000e+00
607 607 8.000000000000000e+00
608 123 -1.000000000000000e+00
608 229 -1.000000000000000e+00
608 430 -1.000000000000000e+00
608 507 -1.000000000000000e+00
608 568 -2.000000000000000e+00
608 608 1.100000000000000e+01
609 350 -1.000000000000000e+00
609 467 -1.000000000000000e+00
609 477 -1.000000000000000e+00
609 609 7.000000000000000e+00
610 127 -1.000000000000000e+00
610 205 -1.000000000000000e+00
610 487 -1.000000000000000e+00
610 610 9.000000000000000e+00
611 56 -1.000000000000000e+00
611 150 -1.000000000000000e+00
611 155 -1.000000000000000e+00
611 288 -1.000000000000000e+00
611 611 1.000000000000000e+01
612 190 -1.000000000000000e+00
612 436 -1.000000000000000e+00
612 526 -2.000000000000000e+00
612 612 1.200000000000000e+01
613 4 -1.000000000000000e+00
613 59 -1.000000000000000e+00
613 328 -1.000000000000000e+00
613 613 1.100000000000000e+01
614 15 -2.000000000000000e+00
614 220 -1.000000000000000e+00
614 324 -1.000000000000000e+00
614 614 6.000000000000000e+00
615 349 -1.000000000000000e+00
615 512 -2.000000000000000e+00
615 615 1.300000000000000e+01
616 198 -1.000000000000000e+00
616 216 -1.000000000000000e+00
616 355 -2.000000000000000e+00
616 616 8.000000000000000e+00
617 142 -1.000000000000000e+00
617 273 -1.000000000000000e+00
617 414 -1.000000000000000e+00
617 617 1.500000000000000e+01
618 75 -1.000000000000000e+00
618 170 -1.000000000000000e+00
618 198 -1.000000000000000e+00
618 416 -1.000000000000000e+00
618 548 -1.000000000000000e+00
618 575 -2.000000000000000e+00
618 596 -2.000000000000000e+00
618 618 1.500000000000000e+01
619 212 -1.000000000000000e+00
619 215 -1.000000000000000e+00
619 523 -1.000000000000000e+00
619 619 9.000000000000000e+00
620 345 -1.000000000000000e+00
620 525 -1.000000000000000e+00
620 620 7.000000000000000e+00
621 621 5.000000000000000e+00
622 96 -1.000000000000000e+00
622 299 -2.000000000000000e+00
622 348 -1.000000000000000e+00
622 440 -1.000000000000000e+00
622 622 9.000000000000000e+00
623 30 -2.000000000000000e+00
623 308 -1.000000000000000e+00
623 310 -1.000000000000000e+00
623 383 -1.000000000000000e+00
623 596 -1.000000000000000e+00
623 623 8.000000000000000e+00
624 186 -1.000000000000000e+00
624 221 -1.000000000000000e+00
624 312 -1.000000000000000e+00
624 427 -1.000000000000000e+00
624 525 -1.000000000000000e+00
624 603 -1.000000000000000e+00
624 624 1.100000000000000e+01
625 111 -1.000000000000000e+00
625 498 -2.000000000000000e+00
625 625 9.000000000000000e+00
626 288 -1.000000000000000e+00
626 475 -1.000000000000000e+00
626 626 6.000000000000000e+00
627 49 -1.000000000000000e+00
627 217 -1.000000000000000e+00
627 536 -1.000000000000000e+00
627 627 6.000000000000000e+00
628 63 -2.000000000000000e+00
628 422 -1.000000000000000e+00
628 507 -1.000000000000000e+00
628 522 -1.000000000000000e+00
628 628 1.100000000000000e+01
629 200 -2.000000000000000e+00
629 386 -1.000000000000000e+00
629 455 -1.000000000000000e+00
629 531 -1.000000000000000e+00
629 629 1.600000000000000e+01
630 269 -1.000000000000000e+00
630 630 4.000000000000000e+00
631 156 -1.000000000000000e+00
631 475 -1.000000000000000e+00
631 631 9.000000000000000e+00
632 360 -1.000000000000000e+00
632 431 -1.000000000000000e+00
632 632 1.300000000000000e+01
633 461 -1.000000000000000e+00
633 633 9.000000000000000e+00
634 190 -1.000000000000000e+00
634 311 -1.000000000000000e+00
634 634 1.300000000000000e+01
635 52 -1.000000000000000e+00
635 124 -1.000000000000000e+00
635 635 9.000000000000000e+00
636 114 -1.000000000000000e+00
636 207 -1.000000000000000e+00
636 249 -1.000000000000000e+00
636 462 -1.000000000000000e+00
636 545 -1.000000000000000e+00
636 554 -1.000000000000000e+00
636 636 9.000000000000000e+00
637 96 -1.000000000000000e+00
637 150 -1.000000000000000e+00
637 589 -1.000000000000000e+00
637 637 4.000000000000000e+00
638 15 -1.000000000000000e+00
638 173 -1.000000000000000e+00
638 593 -1.000000000000000e+00
638 638 9.000000000000000e+00
639 94 -1.000000000000000e+00
639 281 -1.000000000000000e+00
639 314 -1.000000000000000e+00
639 370 -1.000000000000000e+00
639 639 1.300000000000000e+01
640 582 -1.000000000000000e+00
640 640 1.200000000000000e+01
641 330 -1.000000000000000e+00
641 587 -1.000000000000000e+00
641 641 9.000000000000000e+00
642 94 -2.000000000000000e+00
642 198 -1.000000000000000e+00
642 463 -1.000000000000000e+00
642 642 6.000000000000000e+00
643 188 -1.000000000000000e+00
643 301 -1.000000000000000e+00
643 643 2.000000000000000e+00
644 211 -1.000000000000000e+00
644 212 -1.000000000000000e+00
644 293 -1.000000000000000e+00
644 516 -1.000000000000000e+00
644 644 1.100000000000000e+01
645 186 -1.000000000000000e+00
645 362 -1.000000000000000e+00
645 645 4.000000000000000e+00
646 61 -1.000000000000000e+00
646 424 -1.000000000000000e+00
646 453 -2.000000000000000e+00
646 457 -1.000000000000000e+00
646 646 1.100000000000000e+01
647 294 -1.000000000000000e+00
647 332 -2.000000000000000e+00
647 567 -1.000000000000000e+00
647 647 6.000000000000000e+00
648 28 -1.000000000000000e+00
648 373 -1.000000000000000e+00
648 499 -1.000000000000000e+00
648 648 1.000000000000000e+01
649 97 -1.000000000000000e+00
649 300 -1.000000000000000e+00
649 607 -1.000000000000000e+00
649 639 -1.000000000000000e+00
649 649 9.000000000000000e+00
650 307 -1.000000000000000e+00
650 414 -1.000000000000000e+00
650 650 5.000000000000000e+00
651 45 -1.000000000000000e+00
651 55 -1.000000000000000e+00
651 398 -1.000000000000000e+00
651 598 -1.000000000000000e+00
651 651 7.000000000000000e+00
652 79 -1.000000000000000e+00
652 197 -1.000000000000000e+00
652 652 7.000000000000000e+00
653 92 -1.000000000000000e+00
653 371 -1.000000000000000e+00
653 379 -1.000000000000000e+00
653 433 -1.000000000000000e+00
653 450 -1.000000000000000e+00
653 496 -1.000000000000000e+00
653 567 -1.000000000000000e+00
653 653 1.300000000000000e+01
654 68 -1.000000000000000e+00
654 115 -1.000000000000000e+00
654 173 -1.000000000000000e+00
654 256 -1.000000000000000e+00
654 323 -1.000000000000000e+00
654 336 -1.000000000000000e+00
654 578 -1.000000000000000e+00
654 654 1.100000000000000e+01
655 62 -1.000000000000000e+00
655 103 -1.000000000000000e+00
655 184 -1.000000000000000e+00
655 191 -1.000000000000000e+00
655 655 1.000000000000000e+01
656 627 -1.000000000000000e+00
656 656 6.000000000000000e+00
657 145 -2.000000000000000e+00
657 403 -1.000000000000000e+00
657 409 -2.000000000000000e+00
657 657 5.000000000000000e+00
658 256 -1.000000000000000e+00
658 541 -1.000000000000000e+00
658 658 1.400000000000000e+01
659 149 -1.000000000000000e+00
659 188 -1.000000000000000e+00
659 298 -1.000000000000000e+00
659 367 -1.000000000000000e+00
659 449 -1.000000000000000e+00
659 659 9.000000000000000e+00
660 12 -1.000000000000000e+00
660 271 -1.000000000000000e+00
660 391 -1.000000000000000e+00
660 583 -1.000000000000000e+00
660 660 1.000000000000000e+01
661 13 -1.000000000000000e+00
661 50 -1.000000000000000e+00
661 116 -1.000000000000000e+00
661 188 -1.000000000000000e+00
661 251 -1.000000000000000e+00
661 661 9.000000000000000e+00
662 6 -2.000000000000000e+00
662 139 -1.000000000000000e+00
662 561 -1.000000000000000e+00
662 639 -1.000000000000000e+00
662 662 1.000000000000000e+01
663 16 -1.000000000000000e+00
663 107 -1.000000000000000e+00
663 408 -1.000000000000000e+00
663 565 -1.000000000000000e+00
663 645 -1.000000000000000e+00
663 663 9.000000000000000e+00
664 420 -1.000000000000000e+00
664 511 -1.000000000000000e+00
664 540 -1.000000000000000e+00
664 664 1.000000000000000e+01
665 198 -1.000000000000000e+00
665 233 -1.000000000000000e+00
665 407 -1.000000000000000e+00
665 509 -1.000000000000000e+00
665 634 -1.000000000000000e+00
665 665 7.000000000000000e+00
666 21 -1.000000000000000e+00
666 62 -1.000000000000000e+00
666 66 -1.000000000000000e+00
666 250 -1.000000000000000e+00
666 666 1.000000000000000e+01
667 66 -1.000000000000000e+00
667 191 -2.000000000000000e+00
667 268 -1.000000000000000e+00
667 378 -1.000000000000000e+00
667 455 -2.000000000000000e+00
667 667 1.200000000000000e+01
668 10 -1.000000000000000e+00
668 272 -1.000000000000000e+00
668 280 -1.000000000000000e+00
668 302 -1.000000000000000e+00
668 412 -1.000000000000000e+00
668 449 -1.000000000000000e+00
668 639 -1.000000000000000e+00
668 668 1.000000000000000e+01
669 73 -1.000000000000000e+00
669 182 -1.000000000000000e+00
669 669 8.000000000000000e+00
670 112 -1.000000000000000e+00
670 670 3.000000000000000e+00
671 515 -1.000000000000000e+00
671 552 -1.000000000000000e+00
671 671 1.100000000000000e+01
672 139 -1.000000000000000e+00
672 672 6.000000000000000e+00
673 339 -1.000000000000000e+00
673 458 -1.000000000000000e+00
673 673 7.000000000000000e+00
674 338 -2.000000000000000e+00
674 347 -1.000000000000000e+00
674 381 -1.000000000000000e+00
674 674 6.000000000000000e+00
675 641 -1.000000000000000e+00
675 675 1.000000000000000e+00
676 80 -1.000000000000000e+00
676 206 -1.000000000000000e+00
676 232 -1.000000000000000e+00
676 403 -2.000000000000000e+00
676 615 -1.000000000000000e+00
676 676 1.100000000000000e+01
677 113 -1.000000000000000e+00
677 169 -1.000000000000000e+00
677 591 -1.000000000000000e+00
677 677 8.000000000000000e+00
678 23 -1.000000000000000e+00
678 232 -2.000000000000000e+00
678 298 -1.000000000000000e+00
678 541 -1.000000000000000e+00
678 559 -1.000000000000000e+00
678 678 8.000000000000000e+00
679 62 -1.000000000000000e+00
679 104 -1.000000000000000e+00
679 317 -1.000000000000000e+00
679 336 -1.000000000000000e+00
679 464 -1.000000000000000e+00
679 617 -1.000000000000000e+00
679 679 7.000000000000000e+00
680 405 -1.000000000000000e+00
680 455 -1.000000000000000e+00
680 560 -1.000000000000000e+00
680 680 9.000000000000000e+00
681 681 2.000000000000000e+00
682 204 -1.000000000000000e+00
682 682 6.000000000000000e+00
683 39 -1.000000000000000e+00
683 350 -1.000000000000000e+00
683 583 -1.000000000000000e+00
683 683 8.000000000000000e+00
684 116 -1.000000000000000e+00
684 127 -1.000000000000000e+00
684 393 -1.000000000000000e+00
684 496 -1.000000000000000e+00
684 669 -1.000000000000000e+00
684 684 8.000000000000000e+00
685 262 -1.000000000000000e+00
685 685 4.000000000000000e+00
686 1 -2.000000000000000e+00
686 160 -1.000000000000000e+00
686 226 -1.000000000000000e+00
686 340 -1.000000000000000e+00
686 355 -1.000000000000000e+00
686 441 -1.000000000000000e+00
686 570 -1.000000000000000e+00
686 686 1.800000000000000e+01
687 16 -1.000000000000000e+00
687 35 -1.000000000000000e+00
687 685 -1.000000000000000e+00
687 687 1.000000000000000e+01
688 90 -1.000000000000000e+00
688 452 -2.000000000000000e+00
688 473 -1.000000000000000e+00
688 486 -1.000000000000000e+00
688 650 -1.000000000000000e+00
688 671 -1.000000000000000e+00
688 688 9.000000000000000e+00
689 294 -1.000000000000000e+00
689 334 -1.000000000000000e+00
689 350 -1.000000000000000e+00
689 487 -1.000000000000000e+00
689 591 -1.000000000000000e+00
689 689 1.000000000000000e+01
690 225 -1.000000000000000e+00
690 599 -1.000000000000000e+00
690 663 -1.000000000000000e+00
690 690 7.000000000000000e+00
691 215 -2.000000000000000e+00
691 528 -1.000000000000000e+00
691 594 -1.000000000000000e+00
691 673 -1.000000000000000e+00
691 691 8.000000000000000e+00
692 118 -2.000000000000000e+00
692 134 -2.000000000000000e+00
692 187 -1.000000000000000e+00
692 373 -1.000000000000000e+00
692 455 -1.000000000000000e+00
692 570 -1.000000000000000e+00
692 692 1.200000000000000e+01
693 150 -1.000000000000000e+00
693 288 -1.000000000000000e+00
693 311 -1.000000000000000e+00
693 325 -1.000000000000000e+00
693 693 9.000000000000000e+00
694 229 -1.000000000000000e+00
694 694 5.000000000000000e+00
695 54 -1.000000000000000e+00
695 98 -1.000000000000000e+00
695 256 -1.000000000000000e+00
695 409 -1.000000000000000e+00
695 579 -1.000000000000000e+00
695 640 -1.000000000000000e+00
695 695 1.200000000000000e+01
696 171 -2.000000000000000e+00
696 197 -1.000000000000000e+00
696 288 -1.000000000000000e+00
696 619 -1.000000000000000e+00
696 672 -1.000000000000000e+00
696 696 9.000000000000000e+00
697 204 -1.000000000000000e+00
697 295 -1.000000000000000e+00
697 534 -1.000000000000000e+00
697 556 -1.000000000000000e+00
697 595 -1.000000000000000e+00
697 697 9.000000000000000e+00
698 358 -1.000000000000000e+00
698 698 6.000000000000000e+00
699 154 -1.000000000000000e+00
699 399 -1.000000000000000e+00
699 605 -1.000000000000000e+00
699 699 5.000000000000000e+00
700 84 -1.000000000000000e+00
700 505 -2.000000000000000e+00
700 700 7.000000000000000e+00
701 107 -1.000000000000000e+00
701 209 -1.000000000000000e+00
701 364 -1.000000000000000e+00
701 439 -1.000000000000000e+00
701 496 -1.000000000000000e+00
701 701 9.000000000000000e+00
702 64 -1.000000000000000e+00
702 405 -1.000000000000000e+00
702 450 -1.000000000000000e+00
702 673 -2.000000000000000e+00
702 702 7.000000000000000e+00
703 24 -1.000000000000000e+00
703 72 -1.000000000000000e+00
703 688 -1.000000000000000e+00
703 703 6.000000000000000e+00
704 32 -1.000000000000000e+00
704 184 -1.000000000000000e+00
704 704 9.000000000000000e+00
705 121 -1.000000000000000e+00
705 164 -1.000000000000000e+00
705 485 -1.000000000000000e+00
705 543 -1.000000000000000e+00
705 617 -1.000000000000000e+00
705 691 -1.000000000000000e+00
705 705 1.400000000000000e+01
706 135 -1.000000000000000e+00
706 243 -1.000000000000000e+00
706 337 -1.000000000000000e+00
706 706 7.000000000000000e+00
707 261 -1.000000000000000e+00
707 616 -1.000000000000000e+00
707 646 -1.000000000000000e+00
707 687 -1.000000000000000e+00
707 704 -1.000000000000000e+00
707 707 1.000000000000000e+01
708 18 -1.000000000000000e+00
708 132 -1.000000000000000e+00
708 259 -1.000000000000000e+00
708 307 -1.000000000000000e+00
708 360 -1.000000000000000e+00
708 697 -1.000000000000000e+00
708 708 1.200000000000000e+01
709 136 -1.000000000000000e+00
709 213 -2.000000000000000e+00
709 709 8.000000000000000e+00
710 97 -1.000000000000000e+00
710 110 -1.000000000000000e+00
710 112 -1.000000000000000e+00
710 219 -2.000000000000000e+00
710 346 -1.000000000000000e+00
710 351 -1.000000000000000e+00
710 561 -1.000000000000000e+00
710 710 1.100000000000000e+01
711 711 1.000000000000000e+00
712 177 -1.000000000000000e+00
712 256 -1.000000000000000e+00
712 295 -1.000000000000000e+00
712 298 -1.000000000000000e+00
712 335 -1.000000000000000e+00
712 400 -1.000000000000000e+00
712 494 -1.000000000000000e+00
712 535 -1.000000000000000e+00
712 712 1.100000000000000e+01
713 55 -1.000000000000000e+00
713 112 -1.000000000000000e+00
713 113 -1.000000000000000e+00
713 329 -1.000000000000000e+00
713 344 -1.000000000000000e+00
713 382 -1.000000000000000e+00
713 553 -1.000000000000000e+00
713 713 1.300000000000000e+01
714 155 -1.000000000000000e+00
714 304 -1.000000000000000e+00
714 417 -1.000000000000000e+00
714 714 7.000000000000000e+00
715 46 -1.000000000000000e+00
715 432 -1.000000000000000e+00
715 555 -1.000000000000000e+00
715 563 -1.000000000000000e+00
715 601 -1.000000000000000e+00
715 655 -1.000000000000000e+00
715 715 9.000000000000000e+00
716 139 -2.000000000000000e+00
716 207 -1.000000000000000e+00
716 507 -1.000000000000000e+00
716 590 -1.000000000000000e+00
716 716 9.000000000000000e+00
717 467 -2.000000000000000e+00
717 717 7.000000000000000e+00
718 83 -1.000000000000000e+00
718 373 -1.000000000000000e+00
718 412 -1.000000000000000e+00
718 718 6.000000000000000e+00
719 62 -2.000000000000000e+00
719 104 -2.000000000000000e+00
719 358 -1.000000000000000e+00
719 534 -1.000000000000000e+00
719 679 -1.000000000000000e+00
719 719 1.000000000000000e+01
720 113 -1.000000000000000e+00
720 608 -1.000000000000000e+00
720 720 1.100000000000000e+01
721 21 -1.000000000000000e+00
721 49 -1.000000000000000e+00
721 187 -1.000000000000000e+00
721 188 -1.000000000000000e+00
721 226 -1.000000000000000e+00
721 373 -1.000000000000000e+00
721 535 -1.000000000000000e+00
721 619 -2.000000000000000e+00
721 721 1.100000000000000e+01
722 58 -1.000000000000000e+00
722 198 -1.000000000000000e+00
722 337 -1.000000000000000e+00
722 356 -1.000000000000000e+00
722 441 -1.000000000000000e+00
722 551 -1.000000000000000e+00
722 722 1.200000000000000e+01
723 157 -1.000000000000000e+00
723 603 -1.000000000000000e+00
723 723 1.100000000000000e+01
724 416 -1.000000000000000e+00
724 595 -1.000000000000000e+00
724 666 -1.000000000000000e+00
724 724 9.000000000000000e+00
725 261 -1.000000000000000e+00
725 353 -1.000000000000000e+00
725 450 -1.000000000000000e+00
725 725 9.000000000000000e+00
726 10 -1.000000000000000e+00
726 47 -1.000000000000000e+00
726 181 -1.000000000000000e+00
726 334 -2.000000000000000e+00
726 671 -1.000000000000000e+00
726 726 1.100000000000000e+01
727 53 -1.000000000000000e+00
727 217 -2.000000000000000e+00
727 354 -1.000000000000000e+00
727 475 -1.000000000000000e+00
727 727 1.100000000000000e+01
728 24 -1.000000000000000e+00
728 276 -1.000000000000000e+00
728 303 -2.000000000000000e+00
728 411 -1.000000000000000e+00
728 728 7.000000000000000e+00
729 31 -1.000000000000000e+00
729 101 -1.000000000000000e+00
729 192 -1.000000000000000e+00
729 252 -1.000000000000000e+00
729 729 7.000000000000000e+00
730 198 -1.000000000000000e+00
730 233 -1.000000000000000e+00
730 366 -1.000000000000000e+00
730 641 -1.000000000000000e+00
730 730 7.000000000000000e+00
731 43 -1.000000000000000e+00
731 528 -1.000000000000000e+00
731 731 7.000000000000000e+00
732 217 -1.000000000000000e+00
732 632 -1.000000000000000e+00
732 724 -1.000000000000000e+00
732 732 4.000000000000000e+00
733 46 -1.000000000000000e+00
733 159 -1.000000000000000e+00
733 162 -1.000000000000000e+00
733 342 -1.000000000000000e+00
733 613 -1.000000000000000e+00
733 733 1.700000000000000e+01
734 280 -1.000000000000000e+00
734 413 -1.000000000000000e+00
734 577 -1.000000000000000e+00
734 652 -1.000000000000000e+00
734 734 6.000000000000000e+00
735 138 -2.000000000000000e+00
735 495 -1.000000000000000e+00
735 648 -1.000000000000000e+00
735 735 1.400000000000000e+01
736 128 -1.000000000000000e+00
736 384 -1.000000000000000e+00
736 518 -1.000000000000000e+00
736 736 5.000000000000000e+00
737 103 -1.000000000000000e+00
737 379 -1.000000000000000e+00
737 583 -2.000000000000000e+00
737 632 -1.000000000000000e+00
737 683 -2.000000000000000e+00
737 737 1.400000000000000e+01
738 88 -1.000000000000000e+00
738 267 -1.000000000000000e+00
738 405 -1.000000000000000e+00
738 672 -1.000000000000000e+00
738 680 -1.000000000000000e+00
738 738 1.000000000000000e+01
739 4 -1.000000000000000e+00
739 12 -1.000000000000000e+00
739 31 -1.000000000000000e+00
739 318 -1.000000000000000e+00
739 464 -1.000000000000000e+00
739 527 -1.000000000000000e+00
739 654 -2.000000000000000e+00
739 739 1.200000000000000e+01
740 7 -1.000000000000000e+00
740 126 -1.000000000000000e+00
740 238 -1.000000000000000e+00
740 487 -1.000000000000000e+00
740 740 1.000000000000000e+01
741 127 -1.000000000000000e+00
741 238 -1.000000000000000e+00
741 264 -1.000000000000000e+00
741 288 -1.000000000000000e+00
741 520 -1.000000000000000e+00
741 741 1.100000000000000e+01
742 290 -1.000000000000000e+00
742 346 -1.000000000000000e+00
742 391 -1.000000000000000e+00
742 414 -1.000000000000000e+00
742 617 -1.000000000000000e+00
742 742 1.100000000000000e+01
743 14 -1.000000000000000e+00
743 115 -1.000000000000000e+00
743 262 -1.000000000000000e+00
743 283 -1.000000000000000e+00
743 387 -1.000000000000000e+00
743 505 -1.000000000000000e+00
743 580 -1.000000000000000e+00
743 676 -1.000000000000000e+00
743 691 -1.000000000000000e+00
743 743 1.500000000000000e+01
744 10 -1.000000000000000e+00
744 616 -1.000000000000000e+00
744 744 1.000000000000000e+01
745 101 -1.000000000000000e+00
745 102 -1.000000000000000e+00
745 745 1.100000000000000e+01
746 189 -1.000000000000000e+00
746 243 -1.000000000000000e+00
746 447 -1.000000000000000e+00
746 706 -1.000000000000000e+00
746 746 8.000000000000000e+00
747 110 -1.000000000000000e+00
747 227 -1.000000000000000e+00
747 337 -1.000000000000000e+00
747 524 -1.000000000000000e+00
747 722 -1.000000000000000e+00
747 735 -1.000000000000000e+00
747 747 1.300000000000000e+01
748 184 -1.000000000000000e+00
748 381 -1.000000000000000e+00
748 533 -1.000000000000000e+00
748 748 6.000000000000000e+00
749 27 -1.000000000000000e+00
749 49 -2.000000000000000e+00
749 157 -2.000000000000000e+00
749 204 -1.000000000000000e+00
749 268 -1.000000000000000e+00
749 286 -1.000000000000000e+00
749 575 -1.000000000000000e+00
749 615 -1.000000000000000e+00
749 749 1.500000000000000e+01
750 64 -1.000000000000000e+00
750 217 -1.000000000000000e+00
750 465 -1.000000000000000e+00
750 556 -1.000000000000000e+00
750 636 -1.000000000000000e+00
750 669 -1.000000000000000e+00
750 750 1.100000000000000e+01
751 106 -1.000000000000000e+00
751 142 -1.000000000000000e+00
751 182 -1.000000000000000e+00
751 323 -1.000000000000000e+00
751 483 -1.000000000000000e+00
751 489 -1.000000000000000e+00
751 633 -1.000000000000000e+00
751 717 -1.000000000000000e+00
751 728 -1.000000000000000e+00
751 751 1.600000000000000e+01
752 84 -1.000000000000000e+00
752 113 -1.000000000000000e+00
752 464 -1.000000000000000e+00
752 469 -1.000000000000000e+00
752 752 9.000000000000000e+00
753 139 -1.000000000000000e+00
753 173 -1.000000000000000e+00
753 276 -1.000000000000000e+00
753 377 -1.000000000000000e+00
753 389 -1.000000000000000e+00
753 464 -1.000000000000000e+00
753 484 -2.000000000000000e+00
753 507 -1.000000000000000e+00
753 560 -1.000000000000000e+00
753 753 1.100000000000000e+01
754 31 -1.000000000000000e+00
754 63 -1.000000000000000e+00
754 628 -2.000000000000000e+00
754 754 6.000000000000000e+00
755 142 -1.000000000000000e+00
755 338 -1.000000000000000e+00
755 351 -1.000000000000000e+00
755 364 -1.000000000000000e+00
755 484 -1.000000000000000e+00
755 572 -2.000000000000000e+00
755 755 1.300000000000000e+01
756 728 -1.000000000000000e+00
756 756 4.000000000000000e+00
757 280 -1.000000000000000e+00
757 439 -1.000000000000000e+00
757 711 -1.000000000000000e+00
757 739 -1.000000000000000e+00
757 757 1.100000000000000e+01
758 9 -1.000000000000000e+00
758 51 -1.000000000000000e+00
758 100 -1.000000000000000e+00
758 428 -2.000000000000000e+00
758 758 1.200000000000000e+01
759 311 -2.000000000000000e+00
759 584 -1.000000000000000e+00
759 677 -1.000000000000000e+00
759 759 5.000000000000000e+00
760 568 -1.000000000000000e+00
760 760 8.000000000000000e+00
761 286 -1.000000000000000e+00
761 720 -1.000000000000000e+00
761 722 -1.000000000000000e+00
761 761 8.000000000000000e+00
762 685 -1.000000000000000e+00
762 750 -1.000000000000000e+00
762 762 1.000000000000000e+01
763 78 -1.000000000000000e+00
763 92 -1.000000000000000e+00
763 159 -1.000000000000000e+00
763 277 -1.000000000000000e+00
763 439 -1.000000000000000e+00
763 519 -1.000000000000000e+00
763 532 -2.000000000000000e+00
763 683 -1.000000000000000e+00
763 763 1.400000000000000e+01
764 48 -1.000000000000000e+00
764 78 -1.000000000000000e+00
764 113 -1.000000000000000e+00
764 286 -1.000000000000000e+00
764 305 -1.000000000000000e+00
764 409 -1.000000000000000e+00
764 656 -1.000000000000000e+00
764 764 7.000000000000000e+00
765 358 -1.000000000000000e+00
765 520 -1.000000000000000e+00
765 529 -1.000000000000000e+00
765 749 -1.000000000000000e+00
765 765 8.000000000000000e+00
766 19 -1.000000000000000e+00
766 181 -1.000000000000000e+00
766 289 -1.000000000000000e+00
766 411 -1.000000000000000e+00
766 659 -1.000000000000000e+00
766 766 9.000000000000000e+00
767 176 -1.000000000000000e+00
767 288 -1.000000000000000e+00
767 418 -1.000000000000000e+00
767 767 7.000000000000000e+00
768 25 -1.000000000000000e+00
768 100 -2.000000000000000e+00
768 366 -1.000000000000000e+00
768 404 -1.000000000000000e+00
768 412 -1.000000000000000e+00
768 433 -1.000000000000000e+00
768 768 9.000000000000000e+00
769 50 -2.000000000000000e+00
769 188 -2.000000000000000e+00
769 480 -1.000000000000000e+00
769 498 -1.000000000000000e+00
769 661 -1.000000000000000e+00
769 698 -1.000000000000000e+00
769 769 1.200000000000000e+01
770 139 -1.000000000000000e+00
770 221 -1.000000000000000e+00
770 237 -1.000000000000000e+00
770 430 -1.000000000000000e+00
770 466 -1.000000000000000e+00
770 528 -1.000000000000000e+00
770 583 -1.000000000000000e+00
770 716 -2.000000000000000e+00
770 770 1.500000000000000e+01
771 121 -1.000000000000000e+00
771 199 -2.000000000000000e+00
771 435 -1.000000000000000e+00
771 771 1.200000000000000e+01
772 18 -1.000000000000000e+00
772 173 -1.000000000000000e+00
772 735 -1.000000000000000e+00
772 772 6.000000000000000e+00
773 42 -1.000000000000000e+00
773 145 -1.000000000000000e+00
773 270 -1.000000000000000e+00
773 546 -2.000000000000000e+00
773 773 9.000000000000000e+00
774 367 -1.000000000000000e+00
774 774 5.000000000000000e+00
775 36 -1.000000000000000e+00
775 198 -1.000000000000000e+00
775 409 -1.000000000000000e+00
775 446 -2.000000000000000e+00
775 646 -1.000000000000000e+00
775 754 -1.000000000000000e+00
775 775 9.000000000000000e+00
776 46 -1.000000000000000e+00
776 73 -1.000000000000000e+00
776 183 -1.000000000000000e+00
776 186 -1.000000000000000e+00
776 393 -1.000000000000000e+00
776 525 -1.000000000000000e+00
776 776 9.000000000000000e+00
777 169 -1.000000000000000e+00
777 274 -1.000000000000000e+00
777 597 -1.000000000000000e+00
777 653 -1.000000000000000e+00
777 777 1.100000000000000e+01
778 36 -1.000000000000000e+00
778 297 -1.000000000000000e+00
778 349 -1.000000000000000e+00
778 423 -1.000000000000000e+00
778 612 -1.000000000000000e+00
778 778 1.000000000000000e+01
779 95 -1.000000000000000e+00
779 417 -1.000000000000000e+00
779 609 -1.000000000000000e+00
779 729 -1.000000000000000e+00
779 779 1.000000000000000e+01
780 46 -2.000000000000000e+00
780 160 -1.000000000000000e+00
780 671 -1.000000000000000e+00
780 780 9.000000000000000e+00
781 56 -1.000000000000000e+00
781 673 -1.000000000000000e+00
781 676 -1.000000000000000e+00
781 740 -1.000000000000000e+00
781 781 9.000000000000000e+00
782 394 -1.000000000000000e+00
782 405 -2.000000000000000e+00
782 438 -1.000000000000000e+00
782 680 -2.000000000000000e+00
782 738 -1.000000000000000e+00
782 782 1.500000000000000e+01
783 506 -1.000000000000000e+00
783 545 -1.000000000000000e+00
783 742 -1.000000000000000e+00
783 783 8.000000000000000e+00
784 152 -1.000000000000000e+00
784 394 -2.000000000000000e+00
784 458 -2.000000000000000e+00
784 469 -1.000000000000000e+00
784 471 -1.000000000000000e+00
784 544 -1.000000000000000e+00
784 718 -1.000000000000000e+00
784 784 1.200000000000000e+01
785 99 -1.000000000000000e+00
785 126 -1.000000000000000e+00
785 187 -1.000000000000000e+00
785 191 -1.000000000000000e+00
785 200 -1.000000000000000e+00
785 214 -1.000000000000000e+00
785 785 1.200000000000000e+01
786 15 -1.000000000000000e+00
786 640 -1.000000000000000e+00
786 786 7.000000000000000e+00
787 309 -1.000000000000000e+00
787 560 -1.000000000000000e+00
787 694 -1.000000000000000e+00
787 787 7.000000000000000e+00
788 354 -1.000000000000000e+00
788 390 -2.000000000000000e+00
788 495 -1.000000000000000e+00
788 539 -1.000000000000000e+00
788 788 6.000000000000000e+00
789 208 -1.000000000000000e+00
789 213 -1.000000000000000e+00
789 414 -1.000000000000000e+00
789 698 -2.000000000000000e+00
789 789 8.000000000000000e+00
790 171 -1.000000000000000e+00
790 285 -1.000000000000000e+00
790 790 6.000000000000000e+00
791 731 -1.000000000000000e+00
791 791 4.000000000000000e+00
792 378 -1.000000000000000e+00
792 402 -1.000000000000000e+00
792 508 -2.000000000000000e+00
792 792 8.000000000000000e+00
793 290 -1.000000000000000e+00
793 399 -1.000000000000000e+00
793 474 -1.000000000000000e+00
793 570 -1.000000000000000e+00
793 609 -2.000000000000000e+00
793 629 -1.000000000000000e+00
793 723 -1.000000000000000e+00
793 793 1.100000000000000e+01
794 219 -1.000000000000000e+00
794 478 -2.000000000000000e+00
794 544 -1.000000000000000e+00
794 592 -1.000000000000000e+00
794 628 -1.000000000000000e+00
794 782 -1.000000000000000e+00
794 794 1.300000000000000e+01
795 22 -1.000000000000000e+00
795 40 -1.000000000000000e+00
795 75 -1.000000000000000e+00
795 593 -1.000000000000000e+00
795 714 -2.000000000000000e+00
795 795 1.000000000000000e+01
796 293 -1.000000000000000e+00
796 723 -2.000000000000000e+00
796 796 7.000000000000000e+00
797 69 -1.000000000000000e+00
797 207 -1.000000000000000e+00
797 362 -1.000000000000000e+00
797 381 -1.000000000000000e+00
797 448 -1.000000000000000e+00
797 797 1.100000000000000e+01
798 61 -1.000000000000000e+00
798 223 -1.000000000000000e+00
798 579 -1.000000000000000e+00
798 798 9.000000000000000e+00
799 214 -2.000000000000000e+00
799 218 -1.000000000000000e+00
799 267 -1.000000000000000e+00
799 385 -1.000000000000000e+00
799 608 -1.000000000000000e+00
799 799 1.500000000000000e+01
800 49 -1.000000000000000e+00
800 229 -1.000000000000000e+00
800 528 -2.000000000000000e+00
800 739 -1.000000000000000e+00
800 800 1.200000000000000e+01
801 127 -1.000000000000000e+00
801 354 -1.000000000000000e+00
801 686 -1.000000000000000e+00
801 737 -1.000000000000000e+00
801 801 6.000000000000000e+00
802 26 -1.000000000000000e+00
802 79 -1.000000000000000e+00
802 245 -1.000000000000000e+00
802 366 -1.000000000000000e+00
802 612 -1.000000000000000e+00
802 802 1.000000000000000e+01
803 486 -1.000000000000000e+00
803 502 -1.000000000000000e+00
803 803 7.000000000000000e+00
804 50 -1.000000000000000e+00
804 100 -1.000000000000000e+00
804 405 -1.000000000000000e+00
804 700 -1.000000000000000e+00
804 766 -1.000000000000000e+00
804 804 7.000000000000000e+00
805 115 -1.000000000000000e+00
805 172 -1.000000000000000e+00
805 494 -1.000000000000000e+00
805 614 -1.000000000000000e+00
805 805 8.000000000000000e+00
806 248 -1.000000000000000e+00
806 282 -1.000000000000000e+00
806 560 -1.000000000000000e+00
806 576 -1.000000000000000e+00
806 644 -1.000000000000000e+00
806 742 -1.000000000000000e+00
806 806 9.000000000000000e+00
807 473 -1.000000000000000e+00
807 494 -1.000000000000000e+00
807 542 -1.000000000000000e+00
807 558 -2.000000000000000e+00
807 632 -1.000000000000000e+00
807 652 -1.000000000000000e+00
807 740 -1.000000000000000e+00
807 807 9.000000000000000e+00
808 484 -1.000000000000000e+00
808 652 -2.000000000000000e+00
808 808 4.000000000000000e+00
809 126 -1.000000000000000e+00
809 296 -1.000000000000000e+00
809 695 -1.000000000000000e+00
809 809 6.000000000000000e+00
810 192 -1.000000000000000e+00
810 379 -1.000000000000000e+00
810 496 -1.000000000000000e+00
810 521 -2.000000000000000e+00
810 634 -1.000000000000000e+00
810 810 6.000000000000000e+00
811 146 -1.000000000000000e+00
811 422 -2.000000000000000e+00
811 726 -1.000000000000000e+00
811 811 7.000000000000000e+00
812 154 -1.000000000000000e+00
812 287 -1.000000000000000e+00
812 317 -1.000000000000000e+00
812 426 -1.000000000000000e+00
812 589 -1.000000000000000e+00
812 802 -2.000000000000000e+00
812 812 8.000000000000000e+00
813 133 -1.000000000000000e+00
813 555 -1.000000000000000e+00
813 639 -1.000000000000000e+00
813 689 -1.000000000000000e+00
813 741 -1.000000000000000e+00
813 785 -1.000000000000000e+00
813 813 1.300000000000000e+01
814 48 -2.000000000000000e+00
814 93 -1.000000000000000e+00
814 564 -2.000000000000000e+00
814 760 -1.000000000000000e+00
814 814 9.000000000000000e+00
815 10 -1.000000000000000e+00
815 19 -1.000000000000000e+00
815 259 -1.000000000000000e+00
815 471 -1.000000000000000e+00
815 528 -1.000000000000000e+00
815 744 -1.000000000000000e+00
815 815 8.000000000000000e+00
816 84 -1.000000000000000e+00
816 137 -1.000000000000000e+00
816 390 -1.000000000000000e+00
816 588 -1.000000000000000e+00
816 757 -1.000000000000000e+00
816 816 1.200000000000000e+01
817 11 -1.000000000000000e+00
817 349 -1.000000000000000e+00
817 391 -1.000000000000000e+00
817 406 -1.000000000000000e+00
817 455 -1.000000000000000e+00
817 561 -1.000000000000000e+00
817 817 1.100000000000000e+01
818 119 -1.000000000000000e+00
818 529 -1.000000000000000e+00
818 818 4.000000000000000e+00
819 399 -1.000000000000000e+00
819 819 8.000000000000000e+00
820 520 -1.000000000000000e+00
820 765 -1.000000000000000e+00
820 820 6.000000000000000e+00
821 21 -1.000000000000000e+00
821 115 -1.000000000000000e+00
821 374 -1.000000000000000e+00
821 534 -1.000000000000000e+00
821 689 -1.000000000000000e+00
821 782 -1.000000000000000e+00
821 787 -1.000000000000000e+00
821 821 1.100000000000000e+01
822 147 -2.000000000000000e+00
822 332 -1.000000000000000e+00
822 589 -1.000000000000000e+00
822 822 7.000000000000000e+00
823 55 -1.000000000000000e+00
823 216 -1.000000000000000e+00
823 421 -1.000000000000000e+00
823 460 -2.000000000000000e+00
823 481 -1.000000000000000e+00
823 638 -1.000000000000000e+00
823 659 -1.000000000000000e+00
823 752 -1.000000000000000e+00
823 779 -1.000000000000000e+00
823 823 1.100000000000000e+01
824 304 -1.000000000000000e+00
824 371 -1.000000000000000e+00
824 473 -1.000000000000000e+00
824 524 -1.000000000000000e+00
824 590 -1.000000000000000e+00
824 824 7.000000000000000e+00
825 118 -1.000000000000000e+00
825 176 -1.000000000000000e+00
825 346 -1.000000000000000e+00
825 615 -1.000000000000000e+00
825 618 -1.000000000000000e+00
825 666 -1.000000000000000e+00
825 708 -1.000000000000000e+00
825 825 1.200000000000000e+01
826 39 -1.000000000000000e+00
826 148 -1.000000000000000e+00
826 775 -1.000000000000000e+00
826 826 7.000000000000000e+00
827 165 -1.000000000000000e+00
827 250 -1.000000000000000e+00
827 476 -1.000000000000000e+00
827 638 -1.000000000000000e+00
827 690 -1.000000000000000e+00
827 821 -1.000000000000000e+00
827 827 1.200000000000000e+01
828 66 -1.000000000000000e+00
828 277 -1.000000000000000e+00
828 294 -2.000000000000000e+00
828 464 -1.000000000000000e+00
828 561 -1.000000000000000e+00
828 634 -1.000000000000000e+00
828 808 -1.000000000000000e+00
828 823 -1.000000000000000e+00
828 828 1.400000000000000e+01
829 175 -1.000000000000000e+00
829 330 -1.000000000000000e+00
829 829 3.000000000000000e+00
830 6 -1.000000000000000e+00
830 75 -1.000000000000000e+00
830 188 -1.000000000000000e+00
830 474 -1.000000000000000e+00
830 830 1.500000000000000e+01
831 365 -2.000000000000000e+00
831 547 -1.000000000000000e+00
831 723 -1.000000000000000e+00
831 831 1.200000000000000e+01
832 206 -1.000000000000000e+00
832 524 -1.000000000000000e+00
832 704 -2.000000000000000e+00
832 751 -1.000000000000000e+00
832 832 6.000000000000000e+00
833 196 -1.000000000000000e+00
833 281 -1.000000000000000e+00
833 284 -1.000000000000000e+00
833 346 -1.000000000000000e+00
833 422 -1.000000000000000e+00
833 488 -1.000000000000000e+00
833 588 -1.000000000000000e+00
833 611 -1.000000000000000e+00
833 833 1.000000000000000e+01
834 88 -1.000000000000000e+00
834 689 -1.000000000000000e+00
834 725 -1.000000000000000e+00
834 834 9.000000000000000e+00
835 69 -1.000000000000000e+00
835 686 -1.000000000000000e+00
835 786 -1.000000000000000e+00
835 825 -1.000000000000000e+00
835 835 1.000000000000000e+01
836 29 -1.000000000000000e+00
836 61 -1.000000000000000e+00
836 86 -1.000000000000000e+00
836 315 -1.000000000000000e+00
836 324 -1.000000000000000e+00
836 347 -1.000000000000000e+00
836 449 -1.000000000000000e+00
836 733 -1.000000000000000e+00
836 789 -1.000000000000000e+00
836 836 1.300000000000000e+01
837 101 -2.000000000000000e+00
837 511 -2.000000000000000e+00
837 733 -1.000000000000000e+00
837 837 6.000000000000000e+00
838 7 -2.000000000000000e+00
838 58 -1.000000000000000e+00
838 604 -1.000000000000000e+00
838 838 8.000000000000000e+00
839 172 -1.000000000000000e+00
839 613 -1.000000000000000e+00
839 835 -1.000000000000000e+00
839 839 6.000000000000000e+00
840 80 -2.000000000000000e+00
840 120 -1.000000000000000e+00
840 130 -2.000000000000000e+00
840 239 -1.000000000000000e+00
840 242 -1.000000000000000e+00
840 419 -1.000000000000000e+00
840 727 -1.000000000000000e+00
840 824 -1.000000000000000e+00
840 840 1.300000000000000e+01
841 103 -1.000000000000000e+00
841 232 -1.000000000000000e+00
841 281 -1.000000000000000e+00
841 677 -2.000000000000000e+00
841 740 -1.000000000000000e+00
841 822 -1.000000000000000e+00
841 841 8.000000000000000e+00
842 441 -1.000000000000000e+00
842 763 -1.000000000000000e+00
842 842 7.000000000000000e+00
843 226 -2.000000000000000e+00
843 286 -1.000000000000000e+00
843 323 -1.000000000000000e+00
843 465 -1.000000000000000e+00
843 508 -1.000000000000000e+00
843 746 -1.000000000000000e+00
843 843 1.100000000000000e+01
844 29 -1.000000000000000e+00
844 361 -1.000000000000000e+00
844 411 -2.000000000000000e+00
844 647 -1.000000000000000e+00
844 844 7.000000000000000e+00
845 166 -1.000000000000000e+00
845 170 -1.000000000000000e+00
845 344 -1.000000000000000e+00
845 638 -2.000000000000000e+00
845 737 -1.000000000000000e+00
845 799 -1.000000000000000e+00
845 827 -2.000000000000000e+00
845 845 1.400000000000000e+01
846 631 -2.000000000000000e+00
846 846 2.000000000000000e+00
847 365 -1.000000000000000e+00
847 372 -1.000000000000000e+00
847 561 -1.000000000000000e+00
847 589 -1.000000000000000e+00
847 664 -1.000000000000000e+00
847 762 -1.000000000000000e+00
847 831 -2.000000000000000e+00
847 847 9.000000000000000e+00
848 30 -1.000000000000000e+00
848 46 -1.000000000000000e+00
848 177 -1.000000000000000e+00
848 400 -1.000000000000000e+00
848 604 -1.000000000000000e+00
848 635 -1.000000000000000e+00
848 780 -2.000000000000000e+00
848 848 1.300000000000000e+01
849 228 -1.000000000000000e+00
849 284 -1.000000000000000e+00
849 353 -1.000000000000000e+00
849 849 4.000000000000000e+00
850 231 -1.000000000000000e+00
850 364 -1.000000000000000e+00
850 850 6.000000000000000e+00
851 3 -1.000000000000000e+00
851 39 -1.000000000000000e+00
851 64 -1.000000000000000e+00
851 97 -1.000000000000000e+00
851 230 -1.000000000000000e+00
851 464 -1.000000000000000e+00
851 819 -1.000000000000000e+00
851 851 1.500000000000000e+01
852 38 -1.000000000000000e+00
852 59 -1.000000000000000e+00
852 852 3.000000000000000e+00
853 161 -1.000000000000000e+00
853 162 -1.000000000000000e+00
853 195 -1.000000000000000e+00
853 466 -1.000000000000000e+00
853 626 -2.000000000000000e+00
853 853 9.000000000000000e+00
854 23 -1.000000000000000e+00
854 70 -1.000000000000000e+00
854 415 -1.000000000000000e+00
854 457 -1.000000000000000e+00
854 561 -1.000000000000000e+00
854 738 -1.000000000000000e+00
854 756 -1.000000000000000e+00
854 854 1.300000000000000e+01
855 201 -1.000000000000000e+00
855 351 -1.000000000000000e+00
855 387 -1.000000000000000e+00
855 440 -1.000000000000000e+00
855 720 -1.000000000000000e+00
855 855 9.000000000000000e+00
856 42 -1.000000000000000e+00
856 107 -1.000000000000000e+00
856 681 -2.000000000000000e+00
856 856 6.000000000000000e+00
857 248 -1.000000000000000e+00
857 401 -1.000000000000000e+00
857 415 -1.000000000000000e+00
857 611 -1.000000000000000e+00
857 678 -1.000000000000000e+00
857 857 7.000000000000000e+00
858 32 -1.000000000000000e+00
858 341 -1.000000000000000e+00
858 377 -1.000000000000000e+00
858 658 -1.000000000000000e+00
858 835 -1.000000000000000e+00
858 858 8.000000000000000e+00
859 103 -1.000000000000000e+00
859 531 -2.000000000000000e+00
859 708 -1.000000000000000e+00
859 745 -1.000000000000000e+00
859 791 -1.000000000000000e+00
859 859 7.000000000000000e+00
860 294 -1.000000000000000e+00
860 474 -1.000000000000000e+00
860 492 -2.000000000000000e+00
860 735 -1.000000000000000e+00
860 780 -1.000000000000000e+00
860 860 1.000000000000000e+01
861 819 -1.000000000000000e+00
861 861 5.000000000000000e+00
862 366 -1.000000000000000e+00
862 862 1.000000000000000e+01
863 34 -1.000000000000000e+00
863 225 -1.000000000000000e+00
863 337 -1.000000000000000e+00
863 722 -1.000000000000000e+00
863 733 -1.000000000000000e+00
863 863 8.000000000000000e+00
864 251 -1.000000000000000e+00
864 375 -1.000000000000000e+00
864 416 -1.000000000000000e+00
864 515 -1.000000000000000e+00
864 864 7.000000000000000e+00
865 286 -1.000000000000000e+00
865 319 -1.000000000000000e+00
865 615 -1.000000000000000e+00
865 635 -2.000000000000000e+00
865 725 -1.000000000000000e+00
865 844 -1.000000000000000e+00
865 865 1.000000000000000e+01
866 233 -1.000000000000000e+00
866 253 -1.000000000000000e+00
866 512 -1.000000000000000e+00
866 603 -2.000000000000000e+00
866 696 -1.000000000000000e+00
866 866 1.000000000000000e+01
867 325 -1.000000000000000e+00
867 480 -1.000000000000000e+00
867 515 -2.000000000000000e+00
867 612 -1.000000000000000e+00
867 671 -2.000000000000000e+00
867 800 -1.000000000000000e+00
867 862 -1.000000000000000e+00
867 867 1.000000000000000e+01
868 138 -1.000000000000000e+00
868 180 -1.000000000000000e+00
868 587 -1.000000000000000e+00
868 772 -2.000000000000000e+00
868 859 -1.000000000000000e+00
868 868 9.000000000000000e+00
869 76 -1.000000000000000e+00
869 234 -2.000000000000000e+00
869 285 -1.000000000000000e+00
869 443 -1.000000000000000e+00
869 458 -1.000000000000000e+00
869 869 1.200000000000000e+01
870 218 -2.000000000000000e+00
870 254 -1.000000000000000e+00
870 469 -1.000000000000000e+00
870 576 -1.000000000000000e+00
870 619 -1.000000000000000e+00
870 714 -1.000000000000000e+00
870 792 -1.000000000000000e+00
870 870 1.800000000000000e+01
871 209 -1.000000000000000e+00
871 297 -1.000000000000000e+00
871 366 -2.000000000000000e+00
871 871 1.000000000000000e+01
872 91 -1.000000000000000e+00
872 190 -1.000000000000000e+00
872 258 -1.000000000000000e+00
872 486 -1.000000000000000e+00
872 499 -2.000000000000000e+00
872 578 -1.000000000000000e+00
872 872 9.000000000000000e+00
873 320 -1.000000000000000e+00
873 575 -1.000000000000000e+00
873 873 5.000000000000000e+00
874 160 -1.000000000000000e+00
874 476 -1.000000000000000e+00
874 551 -1.000000000000000e+00
874 628 -1.000000000000000e+00
874 662 -1.000000000000000e+00
874 751 -1.000000000000000e+00
874 777 -1.000000000000000e+00
874 831 -1.000000000000000e+00
874 874 1.400000000000000e+01
875 294 -1.000000000000000e+00
875 463 -1.000000000000000e+00
875 781 -1.000000000000000e+00
875 811 -1.000000000000000e+00
875 828 -2.000000000000000e+00
875 875 9.000000000000000e+00
876 17 -2.000000000000000e+00
876 205 -2.000000000000000e+00
876 292 -1.000000000000000e+00
876 314 -1.000000000000000e+00
876 590 -1.000000000000000e+00
876 616 -1.000000000000000e+00
876 850 -1.000000000000000e+00
876 876 9.000000000000000e+00
877 462 -1.000000000000000e+00
877 592 -1.000000000000000e+00
877 652 -1.000000000000000e+00
877 761 -1.000000000000000e+00
877 877 4.000000000000000e+00
878 408 -1.000000000000000e+00
878 587 -1.000000000000000e+00
878 595 -2.000000000000000e+00
878 649 -1.000000000000000e+00
878 878 1.000000000000000e+01
879 721 -1.000000000000000e+00
879 807 -1.000000000000000e+00
879 879 5.000000000000000e+00
880 444 -2.000000000000000e+00
880 870 -1.000000000000000e+00
880 880 6.000000000000000e+00
881 342 -1.000000000000000e+00
881 540 -1.000000000000000e+00
881 816 -1.000000000000000e+00
881 854 -2.000000000000000e+00
881 881 1.000000000000000e+01
882 353 -1.000000000000000e+00
882 597 -1.000000000000000e+00
882 641 -1.000000000000000e+00
882 703 -1.000000000000000e+00
882 827 -1.000000000000000e+00
882 882 1.100000000000000e+01
883 137 -1.000000000000000e+00
883 479 -1.000000000000000e+00
883 883 5.000000000000000e+00
884 132 -1.000000000000000e+00
884 212 -1.000000000000000e+00
884 461 -2.000000000000000e+00
884 505 -1.000000000000000e+00
884 633 -1.000000000000000e+00
884 884 9.000000000000000e+00
885 29 -1.000000000000000e+00
885 34 -1.000000000000000e+00
885 482 -1.000000000000000e+00
885 580 -1.000000000000000e+00
885 885 7.000000000000000e+00
886 537 -2.000000000000000e+00
886 795 -1.000000000000000e+00
886 886 8.000000000000000e+00
887 217 -1.000000000000000e+00
887 413 -2.000000000000000e+00
887 459 -1.000000000000000e+00
887 551 -1.000000000000000e+00
887 617 -1.000000000000000e+00
887 693 -1.000000000000000e+00
887 763 -1.000000000000000e+00
887 887 1.100000000000000e+01
888 322 -1.000000000000000e+00
888 439 -1.000000000000000e+00
888 627 -1.000000000000000e+00
888 888 7.000000000000000e+00
889 54 -1.000000000000000e+00
889 257 -2.000000000000000e+00
889 302 -1.000000000000000e+00
889 341 -1.000000000000000e+00
889 426 -1.000000000000000e+00
889 444 -1.000000000000000e+00
889 622 -1.000000000000000e+00
889 677 -1.000000000000000e+00
889 801 -1.000000000000000e+00
889 822 -1.000000000000000e+00
889 889 1.100000000000000e+01
890 306 -1.000000000000000e+00
890 422 -1.000000000000000e+00
890 560 -1.000000000000000e+00
890 750 -1.000000000000000e+00
890 758 -1.000000000000000e+00
890 854 -1.000000000000000e+00
890 881 -2.000000000000000e+00
890 890 1.100000000000000e+01
891 323 -1.000000000000000e+00
891 420 -1.000000000000000e+00
891 466 -2.000000000000000e+00
891 495 -1.000000000000000e+00
891 605 -1.000000000000000e+00
891 640 -1.000000000000000e+00
891 860 -1.000000000000000e+00
891 891 1.000000000000000e+01
892 345 -1.000000000000000e+00
892 439 -1.000000000000000e+00
892 446 -1.000000000000000e+00
892 504 -1.000000000000000e+00
892 533 -1.000000000000000e+00
892 713 -1.000000000000000e+00
892 726 -1.000000000000000e+00
892 733 -1.000000000000000e+00
892 761 -2.000000000000000e+00
892 892 1.000000000000000e+01
893 356 -1.000000000000000e+00
893 397 -1.000000000000000e+00
893 411 -1.000000000000000e+00
893 854 -1.000000000000000e+00
893 893 7.000000000000000e+00
894 284 -1.000000000000000e+00
894 374 -1.000000000000000e+00
894 782 -1.000000000000000e+00
894 894 3.000000000000000e+00
895 210 -1.000000000000000e+00
895 212 -1.000000000000000e+00
895 426 -1.000000000000000e+00
895 830 -1.000000000000000e+00
895 895 1.000000000000000e+01
896 142 -1.000000000000000e+00
896 150 -1.000000000000000e+00
896 482 -1.000000000000000e+00
896 831 -1.000000000000000e+00
896 896 5.000000000000000e+00
897 100 -1.000000000000000e+00
897 173 -1.000000000000000e+00
897 207 -1.000000000000000e+00
897 227 -1.000000000000000e+00
897 228 -1.000000000000000e+00
897 315 -1.000000000000000e+00
897 547 -1.000000000000000e+00
897 661 -1.000000000000000e+00
897 897 1.200000000000000e+01
898 108 -1.000000000000000e+00
898 169 -1.000000000000000e+00
898 370 -1.000000000000000e+00
898 426 -1.000000000000000e+00
898 480 -1.000000000000000e+00
898 535 -1.000000000000000e+00
898 538 -1.000000000000000e+00
898 705 -1.000000000000000e+00
898 712 -1.000000000000000e+00
898 762 -1.000000000000000e+00
898 898 2.000000000000000e+01
899 289 -1.000000000000000e+00
899 737 -1.000000000000000e+00
899 899 7.000000000000000e+00
900 327 -1.000000000000000e+00
900 510 -1.000000000000000e+00
900 538 -1.000000000000000e+00
900 862 -1.000000000000000e+00
900 900 8.000000000000000e+00
901 149 -2.000000000000000e+00
901 297 -1.000000000000000e+00
901 659 -2.000000000000000e+00
901 793 -1.000000000000000e+00
901 901 9.000000000000000e+00
902 62 -1.000000000000000e+00
902 348 -1.000000000000000e+00
902 621 -1.000000000000000e+00
902 629 -1.000000000000000e+00
902 663 -1.000000000000000e+00
902 758 -1.000000000000000e+00
902 860 -1.000000000000000e+00
902 902 1.200000000000000e+01
903 511 -1.000000000000000e+00
903 607 -1.000000000000000e+00
903 687 -1.000000000000000e+00
903 774 -1.000000000000000e+00
903 777 -2.000000000000000e+00
903 830 -1.000000000000000e+00
903 903 9.000000000000000e+00
904 199 -1.000000000000000e+00
904 321 -1.000000000000000e+00
904 670 -1.000000000000000e+00
904 730 -1.000000000000000e+00
904 762 -1.000000000000000e+00
904 887 -1.000000000000000e+00
904 904 1.000000000000000e+01
905 135 -1.000000000000000e+00
905 373 -1.000000000000000e+00
905 697 -1.000000000000000e+00
905 745 -1.000000000000000e+00
905 794 -1.000000000000000e+00
905 870 -1.000000000000000e+00
905 905 9.000000000000000e+00
906 75 -1.000000000000000e+00
906 317 -2.000000000000000e+00
906 356 -1.000000000000000e+00
906 559 -1.000000000000000e+00
906 615 -1.000000000000000e+00
906 906 8.000000000000000e+00
907 45 -1.000000000000000e+00
907 100 -1.000000000000000e+00
907 182 -1.000000000000000e+00
907 418 -1.000000000000000e+00
907 472 -1.000000000000000e+00
907 500 -1.000000000000000e+00
907 748 -1.000000000000000e+00
907 907 1.200000000000000e+01
908 339 -1.000000000000000e+00
908 908 5.000000000000000e+00
909 27 -1.000000000000000e+00
909 335 -1.000000000000000e+00
909 376 -1.000000000000000e+00
909 534 -1.000000000000000e+00
909 671 -1.000000000000000e+00
909 762 -1.000000000000000e+00
909 904 -1.000000000000000e+00
909 909 1.200000000000000e+01
910 177 -1.000000000000000e+00
910 181 -2.000000000000000e+00
910 201 -1.000000000000000e+00
910 381 -2.000000000000000e+00
910 671 -1.000000000000000e+00
910 840 -1.000000000000000e+00
910 910 9.000000000000000e+00
911 97 -1.000000000000000e+00
911 120 -1.000000000000000e+00
911 355 -1.000000000000000e+00
911 396 -1.000000000000000e+00
911 468 -1.000000000000000e+00
911 773 -1.000000000000000e+00
911 868 -1.000000000000000e+00
911 911 1.000000000000000e+01
912 38 -1.000000000000000e+00
912 87 -1.000000000000000e+00
912 147 -1.000000000000000e+00
912 298 -2.000000000000000e+00
912 359 -1.000000000000000e+00
912 480 -1.000000000000000e+00
912 662 -1.000000000000000e+00
912 912 1.100000000000000e+01
913 255 -1.000000000000000e+00
913 465 -1.000000000000000e+00
913 664 -1.000000000000000e+00
913 802 -1.000000000000000e+00
913 821 -1.000000000000000e+00
913 913 1.000000000000000e+01
914 177 -2.000000000000000e+00
914 373 -1.000000000000000e+00
914 662 -1.000000000000000e+00
914 914 4.000000000000000e+00
915 44 -1.000000000000000e+00
915 762 -1.000000000000000e+00
915 794 -1.000000000000000e+00
915 915 1.000000000000000e+01
916 177 -1.000000000000000e+00
916 322 -1.000000000000000e+00
916 345 -2.000000000000000e+00
916 620 -2.000000000000000e+00
916 625 -1.000000000000000e+00
916 916 8.000000000000000e+00
917 150 -1.000000000000000e+00
917 157 -1.000000000000000e+00
917 295 -1.000000000000000e+00
917 534 -1.000000000000000e+00
917 717 -1.000000000000000e+00
917 908 -1.000000000000000e+00
917 917 9.000000000000000e+00
918 177 -1.000000000000000e+00
918 194 -2.000000000000000e+00
918 202 -2.000000000000000e+00
918 234 -1.000000000000000e+00
918 250 -1.000000000000000e+00
918 304 -1.000000000000000e+00
918 511 -1.000000000000000e+00
918 755 -1.000000000000000e+00
918 798 -1.000000000000000e+00
918 918 1.400000000000000e+01
919 92 -1.000000000000000e+00
919 104 -1.000000000000000e+00
919 157 -1.000000000000000e+00
919 481 -1.000000000000000e+00
919 793 -1.000000000000000e+00
919 863 -1.000000000000000e+00
919 919 1.100000000000000e+01
920 206 -1.000000000000000e+00
920 469 -1.000000000000000e+00
920 646 -1.000000000000000e+00
920 820 -1.000000000000000e+00
920 920 7.000000000000000e+00
921 176 -1.000000000000000e+00
921 275 -1.000000000000000e+00
921 320 -1.000000000000000e+00
921 337 -1.000000000000000e+00
921 341 -1.000000000000000e+00
921 620 -1.000000000000000e+00
921 921 1.000000000000000e+01
922 280 -1.000000000000000e+00
922 314 -1.000000000000000e+00
922 922 2.000000000000000e+00
923 405 -1.000000000000000e+00
923 615 -1.000000000000000e+00
923 640 -2.000000000000000e+00
923 786 -2.000000000000000e+00
923 802 -1.000000000000000e+00
923 835 -1.000000000000000e+00
923 923 1.200000000000000e+01
924 31 -1.000000000000000e+00
924 306 -1.000000000000000e+00
924 337 -1.000000000000000e+00
924 580 -1.000000000000000e+00
924 782 -1.000000000000000e+00
924 825 -1.000000000000000e+00
924 898 -1.000000000000000e+00
924 908 -1.000000000000000e+00
924 924 1.100000000000000e+01
925 87 -1.000000000000000e+00
925 311 -1.000000000000000e+00
925 318 -1.000000000000000e+00
925 699 -2.000000000000000e+00
925 801 -1.000000000000000e+00
925 925 8.000000000000000e+00
926 48 -1.000000000000000e+00
926 523 -1.000000000000000e+00
926 836 -1.000000000000000e+00
926 926 5.000000000000000e+00
927 249 -1.000000000000000e+00
927 451 -1.000000000000000e+00
927 528 -1.000000000000000e+00
927 550 -1.000000000000000e+00
927 561 -1.000000000000000e+00
927 800 -2.000000000000000e+00
927 844 -1.000000000000000e+00
927 927 1.000000000000000e+01
928 426 -1.000000000000000e+00
928 591 -2.000000000000000e+00
928 928 5.000000000000000e+00
929 141 -2.000000000000000e+00
929 259 -1.000000000000000e+00
929 486 -1.000000000000000e+00
929 640 -1.000000000000000e+00
929 885 -1.000000000000000e+00
929 929 1.000000000000000e+01
930 930 6.000000000000000e+00
931 1 -1.000000000000000e+00
931 626 -1.000000000000000e+00
931 655 -1.000000000000000e+00
931 686 -2.000000000000000e+00
931 931 7.000000000000000e+00
932 297 -1.000000000000000e+00
932 453 -1.000000000000000e+00
932 518 -1.000000000000000e+00
932 527 -1.000000000000000e+00
932 932 6.000000000000000e+00
933 294 -1.000000000000000e+00
933 546 -1.000000000000000e+00
933 646 -1.000000000000000e+00
933 655 -1.000000000000000e+00
933 750 -1.000000000000000e+00
933 930 -1.000000000000000e+00
933 933 8.000000000000000e+00
934 16 -1.000000000000000e+00
934 182 -1.000000000000000e+00
934 259 -2.000000000000000e+00
934 407 -1.000000000000000e+00
934 430 -1.000000000000000e+00
934 610 -1.000000000000000e+00
934 612 -1.000000000000000e+00
934 623 -1.000000000000000e+00
934 890 -1.000000000000000e+00
934 934 1.200000000000000e+01
935 98 -1.000000000000000e+00
935 680 -1.000000000000000e+00
935 788 -1.000000000000000e+00
935 897 -2.000000000000000e+00
935 935 1.000000000000000e+01
936 17 -1.000000000000000e+00
936 77 -1.000000000000000e+00
936 84 -1.000000000000000e+00
936 265 -1.000000000000000e+00
936 606 -1.000000000000000e+00
936 936 5.000000000000000e+00
937 92 -1.000000000000000e+00
937 132 -2.000000000000000e+00
937 357 -1.000000000000000e+00
937 423 -1.000000000000000e+00
937 542 -1.000000000000000e+00
937 688 -1.000000000000000e+00
937 708 -2.000000000000000e+00
937 937 1.100000000000000e+01
938 177 -1.000000000000000e+00
938 296 -2.000000000000000e+00
938 351 -2.000000000000000e+00
938 778 -1.000000000000000e+00
938 860 -1.000000000000000e+00
938 938 8.000000000000000e+00
939 79 -2.000000000000000e+00
939 341 -2.000000000000000e+00
939 368 -1.000000000000000e+00
939 537 -1.000000000000000e+00
939 939 6.000000000000000e+00
940 141 -1.000000000000000e+00
940 163 -1.000000000000000e+00
940 782 -1.000000000000000e+00
940 842 -2.000000000000000e+00
940 940 6.000000000000000e+00
941 78 -1.000000000000000e+00
941 210 -1.000000000000000e+00
941 262 -1.000000000000000e+00
941 336 -1.000000000000000e+00
941 446 -1.000000000000000e+00
941 529 -1.000000000000000e+00
941 585 -2.000000000000000e+00
941 851 -1.000000000000000e+00
941 941 1.300000000000000e+01
942 198 -1.000000000000000e+00
942 436 -1.000000000000000e+00
942 446 -1.000000000000000e+00
942 495 -1.000000000000000e+00
942 758 -1.000000000000000e+00
942 942 1.000000000000000e+01
943 236 -1.000000000000000e+00
943 943 3.000000000000000e+00
944 15 -1.000000000000000e+00
944 35 -1.000000000000000e+00
944 46 -1.000000000000000e+00
944 209 -1.000000000000000e+00
944 210 -1.000000000000000e+00
944 270 -1.000000000000000e+00
944 487 -2.000000000000000e+00
944 689 -2.000000000000000e+00
944 944 1.200000000000000e+01
945 70 -1.000000000000000e+00
945 272 -1.000000000000000e+00
945 443 -1.000000000000000e+00
945 668 -1.000000000000000e+00
945 787 -1.000000000000000e+00
945 797 -1.000000000000000e+00
945 945 1.100000000000000e+01
946 207 -1.000000000000000e+00
946 260 -1.000000000000000e+00
946 431 -1.000000000000000e+00
946 554 -1.000000000000000e+00
946 587 -1.000000000000000e+00
946 946 8.000000000000000e+00
947 10 -1.000000000000000e+00
947 46 -1.000000000000000e+00
947 258 -1.000000000000000e+00
947 532 -1.000000000000000e+00
947 744 -1.000000000000000e+00
947 947 9.000000000000000e+00
948 51 -1.000000000000000e+00
948 472 -1.000000000000000e+00
948 604 -1.000000000000000e+00
948 617 -1.000000000000000e+00
948 694 -2.000000000000000e+00
948 948 8.000000000000000e+00
949 52 -1.000000000000000e+00
949 182 -1.000000000000000e+00
949 459 -2.000000000000000e+00
949 838 -1.000000000000000e+00
949 949 6.000000000000000e+00
950 1 -1.000000000000000e+00
950 170 -1.000000000000000e+00
950 370 -1.000000000000000e+00
950 437 -1.000000000000000e+00
950 582 -1.000000000000000e+00
950 686 -2.000000000000000e+00
950 782 -1.000000000000000e+00
950 950 1.200000000000000e+01
951 45 -1.000000000000000e+00
951 501 -1.000000000000000e+00
951 731 -1.000000000000000e+00
951 907 -1.000000000000000e+00
951 951 9.000000000000000e+00
952 35 -1.000000000000000e+00
952 188 -1.000000000000000e+00
952 305 -1.000000000000000e+00
952 467 -1.000000000000000e+00
952 468 -1.000000000000000e+00
952 773 -1.000000000000000e+00
952 809 -2.000000000000000e+00
952 952 1.100000000000000e+01
953 10 -1.000000000000000e+00
953 32 -1.000000000000000e+00
953 348 -1.000000000000000e+00
953 705 -1.000000000000000e+00
953 777 -1.000000000000000e+00
953 953 6.000000000000000e+00
954 52 -1.000000000000000e+00
954 383 -1.000000000000000e+00
954 721 -1.000000000000000e+00
954 848 -1.000000000000000e+00
954 871 -1.000000000000000e+00
954 954 9.000000000000000e+00
955 67 -1.000000000000000e+00
955 206 -1.000000000000000e+00
955 557 -1.000000000000000e+00
955 714 -1.000000000000000e+00
955 750 -2.000000000000000e+00
955 955 8.000000000000000e+00
956 97 -1.000000000000000e+00
956 98 -1.000000000000000e+00
956 172 -2.000000000000000e+00
956 383 -1.000000000000000e+00
956 525 -1.000000000000000e+00
956 549 -1.000000000000000e+00
956 956 8.000000000000000e+00
957 156 -1.000000000000000e+00
957 397 -1.000000000000000e+00
957 554 -1.000000000000000e+00
957 885 -1.000000000000000e+00
957 957 8.000000000000000e+00
958 171 -1.000000000000000e+00
958 671 -1.000000000000000e+00
958 727 -1.000000000000000e+00
958 958 5.000000000000000e+00
959 10 -1.000000000000000e+00
959 563 -2.000000000000000e+00
959 779 -1.000000000000000e+00
959 959 5.000000000000000e+00
960 57 -1.000000000000000e+00
960 125 -1.000000000000000e+00
960 827 -1.000000000000000e+00
960 851 -1.000000000000000e+00
960 960 7.000000000000000e+00
961 20 -1.000000000000000e+00
961 66 -1.000000000000000e+00
961 201 -1.000000000000000e+00
961 270 -1.000000000000000e+00
961 733 -1.000000000000000e+00
961 961 9.000000000000000e+00
962 75 -1.000000000000000e+00
962 168 -1.000000000000000e+00
962 282 -1.000000000000000e+00
962 318 -1.000000000000000e+00
962 704 -1.000000000000000e+00
962 760 -1.000000000000000e+00
962 962 1.200000000000000e+01
963 184 -1.000000000000000e+00
963 191 -1.000000000000000e+00
963 624 -1.000000000000000e+00
963 661 -1.000000000000000e+00
963 907 -1.000000000000000e+00
963 963 1.000000000000000e+01
964 194 -1.000000000000000e+00
964 202 -1.000000000000000e+00
964 918 -1.000000000000000e+00
964 955 -1.000000000000000e+00
964 964 9.000000000000000e+00
965 386 -1.000000000000000e+00
965 607 -1.000000000000000e+00
965 965 5.000000000000000e+00
966 122 -1.000000000000000e+00
966 156 -1.000000000000000e+00
966 218 -1.000000000000000e+00
966 317 -1.000000000000000e+00
966 702 -1.000000000000000e+00
966 716 -1.000000000000000e+00
966 870 -2.000000000000000e+00
966 966 9.000000000000000e+00
967 259 -1.000000000000000e+00
967 403 -1.000000000000000e+00
967 785 -2.000000000000000e+00
967 813 -2.000000000000000e+00
967 967 8.000000000000000e+00
968 31 -1.000000000000000e+00
968 111 -1.000000000000000e+00
968 121 -1.000000000000000e+00
968 138 -1.000000000000000e+00
968 571 -1.000000000000000e+00
968 669 -2.000000000000000e+00
968 827 -1.000000000000000e+00
968 968 1.100000000000000e+01
969 55 -1.000000000000000e+00
969 464 -2.000000000000000e+00
969 724 -1.000000000000000e+00
969 743 -1.000000000000000e+00
969 752 -2.000000000000000e+00
969 800 -1.000000000000000e+00
969 969 8.000000000000000e+00
970 32 -1.000000000000000e+00
970 88 -1.000000000000000e+00
970 267 -1.000000000000000e+00
970 470 -1.000000000000000e+00
970 574 -1.000000000000000e+00
970 763 -1.000000000000000e+00
970 771 -1.000000000000000e+00
970 862 -1.000000000000000e+00
970 970 1.200000000000000e+01
971 206 -1.000000000000000e+00
971 971 1.000000000000000e+00
972 221 -1.000000000000000e+00
972 348 -1.000000000000000e+00
972 401 -1.000000000000000e+00
972 625 -1.000000000000000e+00
972 676 -1.000000000000000e+00
972 771 -1.000000000000000e+00
972 972 1.000000000000000e+01
973 99 -1.000000000000000e+00
973 472 -2.000000000000000e+00
973 973 1.000000000000000e+01
974 83 -1.000000000000000e+00
974 538 -1.000000000000000e+00
974 631 -1.000000000000000e+00
974 974 1.200000000000000e+01
975 385 -1.000000000000000e+00
975 399 -1.000000000000000e+00
975 612 -1.000000000000000e+00
975 975 4.000000000000000e+00
976 23 -1.000000000000000e+00
976 779 -1.000000000000000e+00
976 951 -1.000000000000000e+00
976 976 7.000000000000000e+00
977 38 -1.000000000000000e+00
977 202 -1.000000000000000e+00
977 226 -1.000000000000000e+00
977 768 -1.000000000000000e+00
977 799 -1.000000000000000e+00
977 830 -1.000000000000000e+00
977 951 -1.000000000000000e+00
977 968 -1.000000000000000e+00
977 977 1.100000000000000e+01
978 48 -1.000000000000000e+00
978 168 -1.000000000000000e+00
978 805 -2.000000000000000e+00
978 978 7.000000000000000e+00
979 138 -1.000000000000000e+00
979 151 -1.000000000000000e+00
979 446 -1.000000000000000e+00
979 784 -1.000000000000000e+00
979 979 8.000000000000000e+00
980 315 -1.000000000000000e+00
980 410 -1.000000000000000e+00
980 469 -1.000000000000000e+00
980 484 -1.000000000000000e+00
980 872 -1.000000000000000e+00
980 911 -1.000000000000000e+00
980 980 1.400000000000000e+01
981 8 -1.000000000000000e+00
981 353 -2.000000000000000e+00
981 981 5.000000000000000e+00
982 114 -1.000000000000000e+00
982 243 -1.000000000000000e+00
982 472 -1.000000000000000e+00
982 813 -1.000000000000000e+00
982 973 -2.000000000000000e+00
982 982 9.000000000000000e+00
983 383 -1.000000000000000e+00
983 577 -1.000000000000000e+00
983 791 -1.000000000000000e+00
983 983 5.000000000000000e+00
984 533 -1.000000000000000e+00
984 563 -1.000000000000000e+00
984 984 8.000000000000000e+00
985 157 -1.000000000000000e+00
985 461 -1.000000000000000e+00
985 799 -1.000000000000000e+00
985 919 -2.000000000000000e+00
985 985 7.000000000000000e+00
986 54 -1.000000000000000e+00
986 195 -1.000000000000000e+00
986 695 -1.000000000000000e+00
986 752 -1.000000000000000e+00
986 753 -1.000000000000000e+00
986 879 -1.000000000000000e+00
986 986 7.000000000000000e+00
987 193 -1.000000000000000e+00
987 402 -1.000000000000000e+00
987 604 -1.000000000000000e+00
987 640 -1.000000000000000e+00
987 720 -1.000000000000000e+00
987 848 -1.000000000000000e+00
987 987 1.200000000000000e+01
988 16 -1.000000000000000e+00
988 407 -1.000000000000000e+00
988 851 -1.000000000000000e+00
988 853 -1.000000000000000e+00
988 988 9.000000000000000e+00
989 122 -1.000000000000000e+00
989 174 -2.000000000000000e+00
989 409 -1.000000000000000e+00
989 649 -1.000000000000000e+00
989 716 -1.000000000000000e+00
989 989 9.000000000000000e+00
990 169 -2.000000000000000e+00
990 192 -1.000000000000000e+00
990 339 -1.000000000000000e+00
990 382 -2.000000000000000e+00
990 619 -1.000000000000000e+00
990 629 -1.000000000000000e+00
990 719 -1.000000000000000e+00
990 918 -1.000000000000000e+00
990 990 1.600000000000000e+01
991 19 -1.000000000000000e+00
991 56 -1.000000000000000e+00
991 429 -2.000000000000000e+00
991 968 -1.000000000000000e+00
991 991 7.000000000000000e+00
992 35 -1.000000000000000e+00
992 331 -1.000000000000000e+00
992 476 -1.000000000000000e+00
992 571 -1.000000000000000e+00
992 664 -1.000000000000000e+00
992 992 9.000000000000000e+00
993 93 -1.000000000000000e+00
993 336 -1.000000000000000e+00
993 498 -1.000000000000000e+00
993 993 5.000000000000000e+00
994 461 -1.000000000000000e+00
994 505 -1.000000000000000e+00
994 518 -1.000000000000000e+00
994 994 5.000000000000000e+00
995 67 -1.000000000000000e+00
995 160 -1.000000000000000e+00
995 200 -1.000000000000000e+00
995 344 -1.000000000000000e+00
995 527 -1.000000000000000e+00
995 629 -2.000000000000000e+00
995 790 -1.000000000000000e+00
995 935 -1.000000000000000e+00
995 995 1.200000000000000e+01
996 509 -1.000000000000000e+00
996 609 -1.000000000000000e+00
996 996 7.000000000000000e+00
997 40 -2.000000000000000e+00
997 90 -1.000000000000000e+00
997 243 -1.000000000000000e+00
997 795 -1.000000000000000e+00
997 856 -1.000000000000000e+00
997 997 7.000000000000000e+00
998 282 -1.000000000000000e+00
998 371 -2.000000000000000e+00
998 413 -1.000000000000000e+00
998 416 -1.000000000000000e+00
998 434 -1.000000000000000e+00
998 453 -1.000000000000000e+00
998 547 -2.000000000000000e+00
998 649 -1.000000000000000e+00
998 871 -1.000000000000000e+00
998 998 1.300000000000000e+01
999 170 -1.000000000000000e+00
999 404 -1.000000000000000e+00
999 592 -1.000000000000000e+00
999 634 -2.000000000000000e+00
999 964 -1.000000000000000e+00
999 999 8.000000000000000e+00
1000 203 -1.000000000000000e+00
1000 418 -1.000000000000000e+00
1000 506 -2.000000000000000e+00
1000 522 -1.000000000000000e+00
1000 709 -1.000000000000000e+00
1000 831 -1.000000000000000e+00
1000 993 -1.000000000000000e+00
1000 1000 9.000000000000000e+00
1001 21 -1.000000000000000e+00
1001 51 -1.000000000000000e+00
1001 179 -1.000000000000000e+00
1001 250 -1.000000000000000e+00
1001 848 -1.000000000000000e+00
1001 853 -1.000000000000000e+00
1001 1001 7.000000000000000e+00
1002 142 -1.000000000000000e+00
1002 589 -1.000000000000000e+00
1002 756 -1.000000000000000e+00
1002 972 -1.000000000000000e+00
1002 1002 1.100000000000000e+01
1003 104 -1.000000000000000e+00
1003 153 -2.000000000000000e+00
1003 421 -1.000000000000000e+00
1003 472 -1.000000000000000e+00
1003 1003 6.000000000000000e+00
1004 28 -1.000000000000000e+00
1004 313 -1.000000000000000e+00
1004 503 -1.000000000000000e+00
1004 833 -1.000000000000000e+00
1004 1004 8.000000000000000e+00
1005 1005 1.000000000000000e+00
1006 275 -2.000000000000000e+00
1006 316 -1.000000000000000e+00
1006 324 -1.000000000000000e+00
1006 430 -1.000000000000000e+00
1006 468 -1.000000000000000e+00
1006 499 -1.000000000000000e+00
1006 747 -1.000000000000000e+00
1006 1006 1.400000000000000e+01
1007 93 -1.000000000000000e+00
1007 383 -1.000000000000000e+00
1007 677 -1.000000000000000e+00
1007 773 -1.000000000000000e+00
1007 1007 8.000000000000000e+00
1008 257 -1.000000000000000e+00
1008 362 -1.000000000000000e+00
1008 372 -1.000000000000000e+00
1008 568 -1.000000000000000e+00
1008 583 -1.000000000000000e+00
1008 610 -1.000000000000000e+00
1008 612 -1.000000000000000e+00
1008 646 -1.000000000000000e+00
1008 779 -1.000000000000000e+00
1008 1008 1.400000000000000e+01
1009 655 -1.000000000000000e+00
1009 982 -1.000000000000000e+00
1009 1009 7.000000000000000e+00
1010 137 -1.000000000000000e+00
1010 329 -1.000000000000000e+00
1010 484 -1.000000000000000e+00
1010 492 -1.000000000000000e+00
1010 920 -2.000000000000000e+00
1010 961 -1.000000000000000e+00
1010 1010 7.000000000000000e+00
1011 4 -1.000000000000000e+00
1011 449 -1.000000000000000e+00
1011 676 -1.000000000000000e+00
1011 861 -1.000000000000000e+00
1011 1011 7.000000000000000e+00
1012 61 -2.000000000000000e+00
1012 169 -1.000000000000000e+00
1012 172 -1.000000000000000e+00
1012 234 -1.000000000000000e+00
1012 310 -1.000000000000000e+00
1012 429 -1.000000000000000e+00
1012 574 -1.000000000000000e+00
1012 742 -1.000000000000000e+00
1012 757 -1.000000000000000e+00
1012 798 -2.000000000000000e+00
1012 881 -1.000000000000000e+00
1012 898 -1.000000000000000e+00
1012 991 -1.000000000000000e+00
1012 1012 1.700000000000000e+01
1013 106 -1.000000000000000e+00
1013 222 -2.000000000000000e+00
1013 340 -1.000000000000000e+00
1013 474 -1.000000000000000e+00
1013 625 -1.000000000000000e+00
1013 1013 7.000000000000000e+00
1014 65 -1.000000000000000e+00
1014 417 -1.000000000000000e+00
1014 605 -1.000000000000000e+00
1014 639 -1.000000000000000e+00
1014 757 -1.000000000000000e+00
1014 1014 9.000000000000000e+00
1015 233 -1.000000000000000e+00
1015 336 -1.000000000000000e+00
1015 775 -1.000000000000000e+00
1015 865 -1.000000000000000e+00
1015 890 -1.000000000000000e+00
1015 1011 -2.000000000000000e+00
1015 1015 8.000000000000000e+00
1016 187 -2.000000000000000e+00
1016 342 -1.000000000000000e+00
1016 504 -1.000000000000000e+00
1016 633 -1.000000000000000e+00
1016 654 -1.000000000000000e+00
1016 1016 6.000000000000000e+00
1017 86 -1.000000000000000e+00
1017 234 -1.000000000000000e+00
1017 334 -1.000000000000000e+00
1017 757 -1.000000000000000e+00
1017 816 -1.000000000000000e+00
1017 1017 1.100000000000000e+01
1018 190 -1.000000000000000e+00
1018 383 -2.000000000000000e+00
1018 1018 6.000000000000000e+00
1019 21 -1.000000000000000e+00
1019 378 -1.000000000000000e+00
1019 1019 6.000000000000000e+00
1020 2 -1.000000000000000e+00
1020 100 -1.000000000000000e+00
1020 799 -1.000000000000000e+00
1020 1020 4.000000000000000e+00
1021 180 -2.000000000000000e+00
1021 414 -1.000000000000000e+00
1021 450 -1.000000000000000e+00
1021 950 -1.000000000000000e+00
1021 1021 6.000000000000000e+00
1022 218 -1.000000000000000e+00
1022 257 -1.000000000000000e+00
1022 420 -1.000000000000000e+00
1022 684 -1.000000000000000e+00
1022 870 -2.000000000000000e+00
1022 901 -1.000000000000000e+00
1022 1022 1.000000000000000e+01
1023 250 -1.000000000000000e+00
1023 308 -1.000000000000000e+00
1023 372 -1.000000000000000e+00
1023 440 -1.000000000000000e+00
1023 485 -1.000000000000000e+00
1023 934 -1.000000000000000e+00
1023 1023 1.100000000000000e+01
1024 110 -2.000000000000000e+00
1024 523 -1.000000000000000e+00
1024 545 -1.000000000000000e+00
1024 708 -1.000000000000000e+00
1024 1024 8.000000000000000e+00
1025 89 -2.000000000000000e+00
1025 252 -1.000000000000000e+00
1025 259 -1.000000000000000e+00
1025 348 -1.000000000000000e+00
1025 417 -1.000000000000000e+00
1025 717 -1.000000000000000e+00
1025 1013 -1.000000000000000e+00
1025 1025 1.200000000000000e+01
1026 718 -1.000000000000000e+00
1026 758 -1.000000000000000e+00
1026 975 -1.000000000000000e+00
1026 1026 4.000000000000000e+00
1027 105 -1.000000000000000e+00
1027 123 -1.000000000000000e+00
1027 321 -1.000000000000000e+00
1027 664 -1.000000000000000e+00
1027 888 -1.000000000000000e+00
1027 1027 5.000000000000000e+00
1028 1 -1.000000000000000e+00
1028 454 -1.000000000000000e+00
1028 481 -1.000000000000000e+00
1028 594 -1.000000000000000e+00
1028 931 -1.000000000000000e+00
1028 1028 1.200000000000000e+01
1029 10 -1.000000000000000e+00
1029 183 -1.000000000000000e+00
1029 253 -1.000000000000000e+00
1029 459 -1.000000000000000e+00
1029 523 -2.000000000000000e+00
1029 830 -1.000000000000000e+00
1029 1029 9.000000000000000e+00
1030 42 -1.000000000000000e+00
1030 225 -1.000000000000000e+00
1030 374 -1.000000000000000e+00
1030 408 -1.000000000000000e+00
1030 717 -1.000000000000000e+00
1030 733 -1.000000000000000e+00
1030 738 -1.000000000000000e+00
1030 992 -2.000000000000000e+00
1030 1030 1.300000000000000e+01
1031 40 -1.000000000000000e+00
1031 413 -1.000000000000000e+00
1031 555 -1.000000000000000e+00
1031 658 -1.000000000000000e+00
1031 1031 7.000000000000000e+00
1032 395 -2.000000000000000e+00
1032 505 -1.000000000000000e+00
1032 878 -1.000000000000000e+00
1032 1032 6.000000000000000e+00
1033 44 -2.000000000000000e+00
1033 169 -1.000000000000000e+00
1033 720 -1.000000000000000e+00
1033 909 -1.000000000000000e+00
1033 915 -2.000000000000000e+00
1033 1033 7.000000000000000e+00
1034 18 -1.000000000000000e+00
1034 95 -1.000000000000000e+00
1034 356 -2.000000000000000e+00
1034 375 -1.000000000000000e+00
1034 397 -2.000000000000000e+00
1034 465 -1.000000000000000e+00
1034 658 -1.000000000000000e+00
1034 692 -1.000000000000000e+00
1034 695 -1.000000000000000e+00
1034 800 -1.000000000000000e+00
1034 893 -1.000000000000000e+00
1034 926 -1.000000000000000e+00
1034 1022 -1.000000000000000e+00
1034 1034 1.600000000000000e+01
1035 266 -1.000000000000000e+00
1035 295 -1.000000000000000e+00
1035 447 -1.000000000000000e+00
1035 987 -1.000000000000000e+00
1035 1035 7.000000000000000e+00
1036 80 -1.000000000000000e+00
1036 282 -1.000000000000000e+00
1036 476 -2.000000000000000e+00
1036 497 -1.000000000000000e+00
1036 532 -1.000000000000000e+00
1036 621 -1.000000000000000e+00
1036 935 -1.000000000000000e+00
1036 950 -1.000000000000000e+00
1036 1036 1.200000000000000e+01
1037 54 -1.000000000000000e+00
1037 215 -1.000000000000000e+00
1037 330 -2.000000000000000e+00
1037 641 -1.000000000000000e+00
1037 1037 9.000000000000000e+00
1038 177 -1.000000000000000e+00
1038 327 -1.000000000000000e+00
1038 333 -1.000000000000000e+00
1038 470 -1.000000000000000e+00
1038 563 -1.000000000000000e+00
1038 947 -1.000000000000000e+00
1038 1038 8.000000000000000e+00
1039 556 -1.000000000000000e+00
1039 581 -1.000000000000000e+00
1039 651 -1.000000000000000e+00
1039 684 -2.000000000000000e+00
1039 891 -1.000000000000000e+00
1039 926 -1.000000000000000e+00
1039 989 -1.000000000000000e+00
1039 1039 1.100000000000000e+01
1040 317 -1.000000000000000e+00
1040 614 -1.000000000000000e+00
1040 921 -1.000000000000000e+00
1040 1040 7.000000000000000e+00
1041 288 -1.000000000000000e+00
1041 583 -1.000000000000000e+00
1041 946 -1.000000000000000e+00
1041 996 -1.000000000000000e+00
1041 1030 -1.000000000000000e+00
1041 1041 1.100000000000000e+01
1042 181 -1.000000000000000e+00
1042 239 -1.000000000000000e+00
1042 291 -1.000000000000000e+00
1042 882 -1.000000000000000e+00
1042 910 -1.000000000000000e+00
1042 984 -2.000000000000000e+00
1042 1042 1.000000000000000e+01
1043 147 -1.000000000000000e+00
1043 281 -1.000000000000000e+00
1043 338 -1.000000000000000e+00
1043 693 -1.000000000000000e+00
1043 893 -1.000000000000000e+00
1043 965 -2.000000000000000e+00
1043 1038 -1.000000000000000e+00
1043 1043 8.000000000000000e+00
1044 42 -1.000000000000000e+00
1044 255 -1.000000000000000e+00
1044 412 -1.000000000000000e+00
1044 869 -1.000000000000000e+00
1044 981 -1.000000000000000e+00
1044 1044 7.000000000000000e+00
1045 29 -1.000000000000000e+00
1045 171 -1.000000000000000e+00
1045 365 -1.000000000000000e+00
1045 541 -1.000000000000000e+00
1045 586 -1.000000000000000e+00
1045 979 -1.000000000000000e+00
1045 1006 -1.000000000000000e+00
1045 1045 1.400000000000000e+01
1046 105 -1.000000000000000e+00
1046 527 -1.000000000000000e+00
1046 634 -1.000000000000000e+00
1046 685 -1.000000000000000e+00
1046 869 -1.000000000000000e+00
1046 915 -1.000000000000000e+00
1046 1046 1.000000000000000e+01
1047 2 -1.000000000000000e+00
1047 257 -1.000000000000000e+00
1047 278 -1.000000000000000e+00
1047 385 -1.000000000000000e+00
1047 415 -1.000000000000000e+00
1047 701 -1.000000000000000e+00
1047 861 -2.000000000000000e+00
1047 990 -1.000000000000000e+00
1047 1047 1.000000000000000e+01
1048 43 -1.000000000000000e+00
1048 141 -1.000000000000000e+00
1048 165 -1.000000000000000e+00
1048 209 -1.000000000000000e+00
1048 316 -1.000000000000000e+00
1048 495 -1.000000000000000e+00
1048 553 -1.000000000000000e+00
1048 558 -1.000000000000000e+00
1048 902 -1.000000000000000e+00
1048 1048 1.100000000000000e+01
1049 114 -1.000000000000000e+00
1049 422 -1.000000000000000e+00
1049 580 -1.000000000000000e+00
1049 1049 7.000000000000000e+00
1050 156 -1.000000000000000e+00
1050 259 -1.000000000000000e+00
1050 286 -1.000000000000000e+00
1050 344 -1.000000000000000e+00
1050 517 -1.000000000000000e+00
1050 526 -1.000000000000000e+00
1050 855 -2.000000000000000e+00
1050 979 -1.000000000000000e+00
1050 1050 1.100000000000000e+01
1051 357 -2.000000000000000e+00
1051 481 -1.000000000000000e+00
1051 745 -1.000000000000000e+00
1051 851 -1.000000000000000e+00
1051 1051 7.000000000000000e+00
1052 64 -1.000000000000000e+00
1052 291 -1.000000000000000e+00
1052 409 -1.000000000000000e+00
1052 700 -1.000000000000000e+00
1052 924 -1.000000000000000e+00
1052 1052 8.000000000000000e+00
1053 430 -1.000000000000000e+00
1053 974 -1.000000000000000e+00
1053 988 -2.000000000000000e+00
1053 1037 -1.000000000000000e+00
1053 1053 7.000000000000000e+00
1054 120 -1.000000000000000e+00
1054 223 -1.000000000000000e+00
1054 336 -1.000000000000000e+00
1054 373 -1.000000000000000e+00
1054 737 -1.000000000000000e+00
1054 758 -1.000000000000000e+00
1054 830 -1.000000000000000e+00
1054 895 -1.000000000000000e+00
1054 1054 1.200000000000000e+01
1055 25 -1.000000000000000e+00
1055 45 -1.000000000000000e+00
1055 73 -1.000000000000000e+00
1055 330 -1.000000000000000e+00
1055 443 -2.000000000000000e+00
1055 855 -1.000000000000000e+00
1055 1055 1.000000000000000e+01
1056 237 -1.000000000000000e+00
1056 411 -1.000000000000000e+00
1056 525 -1.000000000000000e+00
1056 531 -1.000000000000000e+00
1056 792 -1.000000000000000e+00
1056 825 -1.000000000000000e+00
1056 1056 1.100000000000000e+01
1057 288 -1.000000000000000e+00
1057 607 -2.000000000000000e+00
1057 1034 -1.000000000000000e+00
1057 1057 8.000000000000000e+00
1058 29 -1.000000000000000e+00
1058 88 -1.000000000000000e+00
1058 621 -2.000000000000000e+00
1058 692 -1.000000000000000e+00
1058 902 -2.000000000000000e+00
1058 908 -1.000000000000000e+00
1058 929 -1.000000000000000e+00
1058 1058 1.100000000000000e+01
1059 17 -1.000000000000000e+00
1059 151 -1.000000000000000e+00
1059 200 -1.000000000000000e+00
1059 1037 -1.000000000000000e+00
1059 1059 5.000000000000000e+00
1060 172 -1.000000000000000e+00
1060 256 -1.000000000000000e+00
1060 272 -1.000000000000000e+00
1060 487 -1.000000000000000e+00
1060 488 -1.000000000000000e+00
1060 566 -1.000000000000000e+00
1060 607 -1.000000000000000e+00
1060 980 -1.000000000000000e+00
1060 1060 1.200000000000000e+01
1061 390 -1.000000000000000e+00
1061 488 -1.000000000000000e+00
1061 931 -1.000000000000000e+00
1061 1045 -1.000000000000000e+00
1061 1061 4.000000000000000e+00
1062 296 -1.000000000000000e+00
1062 323 -1.000000000000000e+00
1062 589 -1.000000000000000e+00
1062 696 -1.000000000000000e+00
1062 796 -1.000000000000000e+00
1062 981 -1.000000000000000e+00
1062 1062 8.000000000000000e+00
1063 92 -1.000000000000000e+00
1063 160 -2.000000000000000e+00
1063 293 -1.000000000000000e+00
1063 315 -1.000000000000000e+00
1063 316 -1.000000000000000e+00
1063 769 -1.000000000000000e+00
1063 821 -1.000000000000000e+00
1063 874 -2.000000000000000e+00
1063 1063 1.000000000000000e+01
1064 131 -2.000000000000000e+00
1064 319 -1.000000000000000e+00
1064 414 -1.000000000000000e+00
1064 445 -1.000000000000000e+00
1064 589 -1.000000000000000e+00
1064 843 -1.000000000000000e+00
1064 1017 -1.000000000000000e+00
1064 1064 9.000000000000000e+00
1065 11 -1.000000000000000e+00
1065 26 -1.000000000000000e+00
1065 173 -1.000000000000000e+00
1065 571 -2.000000000000000e+00
1065 785 -1.000000000000000e+00
1065 1014 -1.000000000000000e+00
1065 1065 8.000000000000000e+00
1066 187 -1.000000000000000e+00
1066 217 -1.000000000000000e+00
1066 359 -1.000000000000000e+00
1066 662 -1.000000000000000e+00
1066 770 -1.000000000000000e+00
1066 1066 1.000000000000000e+01
1067 2 -2.000000000000000e+00
1067 19 -1.000000000000000e+00
1067 301 -1.000000000000000e+00
1067 394 -1.000000000000000e+00
1067 433 -2.000000000000000e+00
1067 476 -1.000000000000000e+00
1067 1067 1.000000000000000e+01
1068 279 -1.000000000000000e+00
1068 930 -1.000000000000000e+00
1068 1068 7.000000000000000e+00
1069 67 -1.000000000000000e+00
1069 212 -2.000000000000000e+00
1069 243 -1.000000000000000e+00
1069 275 -1.000000000000000e+00
1069 726 -1.000000000000000e+00
1069 739 -1.000000000000000e+00
1069 930 -1.000000000000000e+00
1069 1069 9.000000000000000e+00
1070 594 -1.000000000000000e+00
1070 932 -2.000000000000000e+00
1070 1019 -1.000000000000000e+00
1070 1070 6.000000000000000e+00
1071 129 -1.000000000000000e+00
1071 225 -1.000000000000000e+00
1071 415 -2.000000000000000e+00
1071 509 -1.000000000000000e+00
1071 577 -1.000000000000000e+00
1071 615 -1.000000000000000e+00
1071 617 -1.000000000000000e+00
1071 1028 -1.000000000000000e+00
1071 1071 1.000000000000000e+01
1072 564 -1.000000000000000e+00
1072 698 -1.000000000000000e+00
1072 1009 -1.000000000000000e+00
1072 1017 -1.000000000000000e+00
1072 1072 5.000000000000000e+00
1073 56 -2.000000000000000e+00
1073 70 -1.000000000000000e+00
1073 111 -1.000000000000000e+00
1073 153 -1.000000000000000e+00
1073 201 -1.000000000000000e+00
1073 355 -1.000000000000000e+00
1073 384 -1.000000000000000e+00
1073 625 -1.000000000000000e+00
1073 752 -1.000000000000000e+00
1073 1057 -1.000000000000000e+00
1073 1073 1.200000000000000e+01
1074 163 -1.000000000000000e+00
1074 268 -1.000000000000000e+00
1074 503 -2.000000000000000e+00
1074 662 -1.000000000000000e+00
1074 809 -1.000000000000000e+00
1074 1004 -2.000000000000000e+00
1074 1074 1.200000000000000e+01
1075 223 -1.000000000000000e+00
1075 238 -2.000000000000000e+00
1075 821 -1.000000000000000e+00
1075 845 -1.000000000000000e+00
1075 1075 6.000000000000000e+00
1076 315 -1.000000000000000e+00
1076 862 -2.000000000000000e+00
1076 1056 -1.000000000000000e+00
1076 1076 4.000000000000000e+00
1077 364 -1.000000000000000e+00
1077 434 -1.000000000000000e+00
1077 487 -1.000000000000000e+00
1077 573 -2.000000000000000e+00
1077 660 -1.000000000000000e+00
1077 669 -1.000000000000000e+00
1077 697 -1.000000000000000e+00
1077 749 -1.000000000000000e+00
1077 755 -1.000000000000000e+00
1077 1077 1.100000000000000e+01
1078 44 -1.000000000000000e+00
1078 252 -1.000000000000000e+00
1078 436 -1.000000000000000e+00
1078 761 -1.000000000000000e+00
1078 980 -1.000000000000000e+00
1078 1036 -1.000000000000000e+00
1078 1078 8.000000000000000e+00
1079 93 -1.000000000000000e+00
1079 169 -1.000000000000000e+00
1079 799 -1.000000000000000e+00
1079 1079 6.000000000000000e+00
1080 723 -1.000000000000000e+00
1080 1080 3.000000000000000e+00
1081 220 -1.000000000000000e+00
1081 240 -1.000000000000000e+00
1081 280 -1.000000000000000e+00
1081 470 -1.000000000000000e+00
1081 537 -1.000000000000000e+00
1081 607 -1.000000000000000e+00
1081 769 -1.000000000000000e+00
1081 1057 -2.000000000000000e+00
1081 1081 1.200000000000000e+01
1082 24 -1.000000000000000e+00
1082 574 -1.000000000000000e+00
1082 656 -1.000000000000000e+00
1082 795 -1.000000000000000e+00
1082 888 -2.000000000000000e+00
1082 1082 1.000000000000000e+01
1083 131 -1.000000000000000e+00
1083 930 -1.000000000000000e+00
1083 1083 5.000000000000000e+00
1084 667 -1.000000000000000e+00
1084 726 -1.000000000000000e+00
1084 976 -2.000000000000000e+00
1084 1084 4.000000000000000e+00
1085 191 -1.000000000000000e+00
1085 393 -1.000000000000000e+00
1085 455 -1.000000000000000e+00
1085 555 -1.000000000000000e+00
1085 667 -1.000000000000000e+00
1085 950 -1.000000000000000e+00
1085 1085 8.000000000000000e+00
1086 73 -2.000000000000000e+00
1086 395 -1.000000000000000e+00
1086 521 -1.000000000000000e+00
1086 553 -1.000000000000000e+00
1086 615 -1.000000000000000e+00
1086 776 -2.000000000000000e+00
1086 1008 -1.000000000000000e+00
1086 1086 1.000000000000000e+01
1087 293 -1.000000000000000e+00
1087 511 -1.000000000000000e+00
1087 515 -1.000000000000000e+00
1087 729 -2.000000000000000e+00
1087 1087 7.000000000000000e+00
1088 156 -1.000000000000000e+00
1088 597 -1.000000000000000e+00
1088 756 -1.000000000000000e+00
1088 874 -1.000000000000000e+00
1088 1024 -1.000000000000000e+00
1088 1028 -2.000000000000000e+00
1088 1088 9.000000000000000e+00
1089 38 -1.000000000000000e+00
1089 110 -1.000000000000000e+00
1089 287 -1.000000000000000e+00
1089 432 -2.000000000000000e+00
1089 767 -1.000000000000000e+00
1089 1082 -1.000000000000000e+00
1089 1089 1.200000000000000e+01
1090 248 -1.000000000000000e+00
1090 284 -1.000000000000000e+00
1090 449 -1.000000000000000e+00
1090 1070 -1.000000000000000e+00
1090 1090 1.000000000000000e+01
1091 76 -1.000000000000000e+00
1091 333 -1.000000000000000e+00
1091 470 -1.000000000000000e+00
1091 623 -1.000000000000000e+00
1091 748 -2.000000000000000e+00
1091 850 -1.000000000000000e+00
1091 974 -1.000000000000000e+00
1091 1021 -1.000000000000000e+00
1091 1032 -1.000000000000000e+00
1091 1091 1.200000000000000e+01
1092 845 -1.000000000000000e+00
1092 913 -1.000000000000000e+00
1092 944 -1.000000000000000e+00
1092 1092 6.000000000000000e+00
1093 109 -2.000000000000000e+00
1093 552 -1.000000000000000e+00
1093 687 -1.000000000000000e+00
1093 1093 7.000000000000000e+00
1094 66 -1.000000000000000e+00
1094 133 -1.000000000000000e+00
1094 342 -1.000000000000000e+00
1094 372 -1.000000000000000e+00
1094 399 -1.000000000000000e+00
1094 604 -1.000000000000000e+00
1094 794 -1.000000000000000e+00
1094 895 -1.000000000000000e+00
1094 987 -1.000000000000000e+00
1094 1094 1.500000000000000e+01
1095 580 -1.000000000000000e+00
1095 648 -1.000000000000000e+00
1095 701 -2.000000000000000e+00
1095 747 -1.000000000000000e+00
1095 1095 1.100000000000000e+01
1096 218 -1.000000000000000e+00
1096 368 -1.000000000000000e+00
1096 870 -2.000000000000000e+00
1096 1096 6.000000000000000e+00
1097 76 -1.000000000000000e+00
1097 411 -1.000000000000000e+00
1097 666 -1.000000000000000e+00
1097 790 -2.000000000000000e+00
1097 792 -1.000000000000000e+00
1097 1096 -1.000000000000000e+00
1097 1097 9.000000000000000e+00
1098 162 -1.000000000000000e+00
1098 344 -2.000000000000000e+00
1098 616 -1.000000000000000e+00
1098 713 -2.000000000000000e+00
1098 717 -1.000000000000000e+00
1098 742 -1.000000000000000e+00
1098 1098 8.000000000000000e+00
1099 202 -1.000000000000000e+00
1099 229 -1.000000000000000e+00
1099 239 -1.000000000000000e+00
1099 398 -1.000000000000000e+00
1099 423 -1.000000000000000e+00
1099 893 -1.000000000000000e+00
1099 1099 9.000000000000000e+00
1100 13 -2.000000000000000e+00
1100 518 -2.000000000000000e+00
1100 874 -1.000000000000000e+00
1100 1100 6.000000000000000e+00
1101 246 -1.000000000000000e+00
1101 393 -2.000000000000000e+00
1101 694 -1.000000000000000e+00
1101 816 -1.000000000000000e+00
1101 891 -1.000000000000000e+00
1101 1101 7.000000000000000e+00
1102 93 -2.000000000000000e+00
1102 253 -1.000000000000000e+00
1102 797 -1.000000000000000e+00
1102 906 -1.000000000000000e+00
1102 1007 -2.000000000000000e+00
1102 1102 9.000000000000000e+00
1103 31 -2.000000000000000e+00
1103 118 -1.000000000000000e+00
1103 263 -1.000000000000000e+00
1103 336 -2.000000000000000e+00
1103 380 -1.000000000000000e+00
1103 831 -1.000000000000000e+00
1103 970 -1.000000000000000e+00
1103 1103 1.300000000000000e+01
1104 188 -1.000000000000000e+00
1104 951 -1.000000000000000e+00
1104 1104 6.000000000000000e+00
1105 25 -2.000000000000000e+00
1105 126 -2.000000000000000e+00
1105 142 -1.000000000000000e+00
1105 252 -1.000000000000000e+00
1105 745 -1.000000000000000e+00
1105 963 -1.000000000000000e+00
1105 1099 -1.000000000000000e+00
1105 1105 1.200000000000000e+01
1106 234 -1.000000000000000e+00
1106 656 -2.000000000000000e+00
1106 898 -1.000000000000000e+00
1106 1018 -1.000000000000000e+00
1106 1106 6.000000000000000e+00
1107 62 -1.000000000000000e+00
1107 261 -1.000000000000000e+00
1107 403 -1.000000000000000e+00
1107 467 -1.000000000000000e+00
1107 806 -2.000000000000000e+00
1107 967 -1.000000000000000e+00
1107 1107 9.000000000000000e+00
1108 3 -1.000000000000000e+00
1108 224 -1.000000000000000e+00
1108 414 -2.000000000000000e+00
1108 608 -1.000000000000000e+00
1108 617 -2.000000000000000e+00
1108 625 -1.000000000000000e+00
1108 742 -1.000000000000000e+00
1108 819 -1.000000000000000e+00
1108 1108 1.000000000000000e+01
1109 155 -1.000000000000000e+00
1109 161 -1.000000000000000e+00
1109 208 -1.000000000000000e+00
1109 394 -1.000000000000000e+00
1109 524 -1.000000000000000e+00
1109 525 -1.000000000000000e+00
1109 611 -1.000000000000000e+00
1109 924 -1.000000000000000e+00
1109 1109 1.200000000000000e+01
1110 18 -1.000000000000000e+00
1110 120 -1.000000000000000e+00
1110 134 -1.000000000000000e+00
1110 165 -1.000000000000000e+00
1110 224 -1.000000000000000e+00
1110 415 -1.000000000000000e+00
1110 639 -2.000000000000000e+00
1110 1014 -2.000000000000000e+00
1110 1110 1.400000000000000e+01
1111 122 -1.000000000000000e+00
1111 315 -1.000000000000000e+00
1111 487 -1.000000000000000e+00
1111 538 -2.000000000000000e+00
1111 550 -1.000000000000000e+00
1111 882 -1.000000000000000e+00
1111 886 -1.000000000000000e+00
1111 1111 1.400000000000000e+01
1112 177 -1.000000000000000e+00
1112 218 -1.000000000000000e+00
1112 539 -1.000000000000000e+00
1112 737 -1.000000000000000e+00
1112 771 -1.000000000000000e+00
1112 780 -1.000000000000000e+00
1112 826 -1.000000000000000e+00
1112 1112 1.200000000000000e+01
1113 28 -1.000000000000000e+00
1113 197 -2.000000000000000e+00
1113 254 -1.000000000000000e+00
1113 386 -2.000000000000000e+00
1113 700 -1.000000000000000e+00
1113 952 -1.000000000000000e+00
1113 1113 1.200000000000000e+01
1114 117 -1.000000000000000e+00
1114 196 -1.000000000000000e+00
1114 784 -1.000000000000000e+00
1114 856 -1.000000000000000e+00
1114 992 -1.000000000000000e+00
1114 1114 9.000000000000000e+00
1115 9 -1.000000000000000e+00
1115 183 -1.000000000000000e+00
1115 397 -1.000000000000000e+00
1115 923 -1.000000000000000e+00
1115 967 -1.000000000000000e+00
1115 1096 -1.000000000000000e+00
1115 1115 1.100000000000000e+01
1116 499 -1.000000000000000e+00
1116 620 -1.000000000000000e+00
1116 783 -1.000000000000000e+00
1116 1116 5.000000000000000e+00
1117 126 -1.000000000000000e+00
1117 333 -2.000000000000000e+00
1117 514 -1.000000000000000e+00
1117 828 -1.000000000000000e+00
1117 1117 6.000000000000000e+00
1118 213 -1.000000000000000e+00
1118 913 -1.000000000000000e+00
1118 1118 4.000000000000000e+00
1119 404 -1.000000000000000e+00
1119 835 -1.000000000000000e+00
1119 848 -1.000000000000000e+00
1119 1089 -1.000000000000000e+00
1119 1119 8.000000000000000e+00
1120 9 -1.000000000000000e+00
1120 514 -1.000000000000000e+00
1120 525 -1.000000000000000e+00
1120 631 -1.000000000000000e+00
1120 634 -1.000000000000000e+00
1120 735 -1.000000000000000e+00
1120 999 -2.000000000000000e+00
1120 1020 -1.000000000000000e+00
1120 1120 9.000000000000000e+00
1121 14 -1.000000000000000e+00
1121 724 -1.000000000000000e+00
1121 1121 3.000000000000000e+00
1122 120 -2.000000000000000e+00
1122 154 -1.000000000000000e+00
1122 192 -1.000000000000000e+00
1122 335 -1.000000000000000e+00
1122 468 -2.000000000000000e+00
1122 499 -1.000000000000000e+00
1122 526 -1.000000000000000e+00
1122 911 -1.000000000000000e+00
1122 917 -1.000000000000000e+00
1122 1023 -1.000000000000000e+00
1122 1024 -1.000000000000000e+00
1122 1122 1.400000000000000e+01
1123 334 -1.000000000000000e+00
1123 474 -1.000000000000000e+00
1123 913 -2.000000000000000e+00
1123 978 -1.000000000000000e+00
1123 1123 9.000000000000000e+00
1124 130 -1.000000000000000e+00
1124 474 -1.000000000000000e+00
1124 543 -1.000000000000000e+00
1124 705 -1.000000000000000e+00
1124 982 -1.000000000000000e+00
1124 1124 7.000000000000000e+00
1125 265 -1.000000000000000e+00
1125 293 -1.000000000000000e+00
1125 632 -1.000000000000000e+00
1125 633 -2.000000000000000e+00
1125 831 -1.000000000000000e+00
1125 1125 8.000000000000000e+00
1126 367 -1.000000000000000e+00
1126 615 -1.000000000000000e+00
1126 762 -2.000000000000000e+00
1126 904 -2.000000000000000e+00
1126 909 -1.000000000000000e+00
1126 1126 8.000000000000000e+00
1127 64 -1.000000000000000e+00
1127 323 -1.000000000000000e+00
1127 654 -1.000000000000000e+00
1127 733 -1.000000000000000e+00
1127 1005 -1.000000000000000e+00
1127 1127 6.000000000000000e+00
1128 738 -1.000000000000000e+00
1128 1066 -2.000000000000000e+00
1128 1094 -1.000000000000000e+00
1128 1128 6.000000000000000e+00
1129 99 -1.000000000000000e+00
1129 247 -1.000000000000000e+00
1129 263 -1.000000000000000e+00
1129 452 -1.000000000000000e+00
1129 499 -1.000000000000000e+00
1129 637 -1.000000000000000e+00
1129 644 -1.000000000000000e+00
1129 767 -2.000000000000000e+00
1129 1129 1.000000000000000e+01
1130 47 -1.000000000000000e+00
1130 138 -1.000000000000000e+00
1130 244 -1.000000000000000e+00
1130 669 -1.000000000000000e+00
1130 735 -2.000000000000000e+00
1130 755 -1.000000000000000e+00
1130 900 -1.000000000000000e+00
1130 1023 -1.000000000000000e+00
1130 1130 9.000000000000000e+00
1131 431 -2.000000000000000e+00
1131 573 -1.000000000000000e+00
1131 884 -1.000000000000000e+00
1131 1131 8.000000000000000e+00
1132 26 -1.000000000000000e+00
1132 185 -1.000000000000000e+00
1132 453 -1.000000000000000e+00
1132 571 -2.000000000000000e+00
1132 789 -1.000000000000000e+00
1132 852 -1.000000000000000e+00
1132 1045 -1.000000000000000e+00
1132 1053 -1.000000000000000e+00
1132 1132 1.100000000000000e+01
1133 99 -2.000000000000000e+00
1133 502 -1.000000000000000e+00
1133 508 -1.000000000000000e+00
1133 883 -1.000000000000000e+00
1133 890 -1.000000000000000e+00
1133 1133 7.000000000000000e+00
1134 197 -1.000000000000000e+00
1134 243 -2.000000000000000e+00
1134 706 -2.000000000000000e+00
1134 715 -1.000000000000000e+00
1134 746 -1.000000000000000e+00
1134 845 -1.000000000000000e+00
1134 903 -1.000000000000000e+00
1134 1134 1.000000000000000e+01
1135 4 -1.000000000000000e+00
1135 555 -2.000000000000000e+00
1135 641 -1.000000000000000e+00
1135 962 -1.000000000000000e+00
1135 1031 -2.000000000000000e+00
1135 1037 -1.000000000000000e+00
1135 1078 -1.000000000000000e+00
1135 1123 -1.000000000000000e+00
1135 1135 1.100000000000000e+01
1136 39 -1.000000000000000e+00
1136 117 -1.000000000000000e+00
1136 155 -1.000000000000000e+00
1136 309 -1.000000000000000e+00
1136 570 -1.000000000000000e+00
1136 868 -1.000000000000000e+00
1136 995 -1.000000000000000e+00
1136 1136 9.000000000000000e+00
1137 262 -1.000000000000000e+00
1137 418 -2.000000000000000e+00
1137 549 -1.000000000000000e+00
1137 935 -1.000000000000000e+00
1137 1102 -1.000000000000000e+00
1137 1137 6.000000000000000e+00
1138 75 -1.000000000000000e+00
1138 295 -1.000000000000000e+00
1138 1138 2.000000000000000e+00
1139 301 -1.000000000000000e+00
1139 321 -1.000000000000000e+00
1139 399 -1.000000000000000e+00
1139 546 -1.000000000000000e+00
1139 630 -1.000000000000000e+00
1139 1139 1.100000000000000e+01
1140 82 -1.000000000000000e+00
1140 91 -1.000000000000000e+00
1140 432 -1.000000000000000e+00
1140 437 -1.000000000000000e+00
1140 693 -1.000000000000000e+00
1140 1049 -2.000000000000000e+00
1140 1140 1.000000000000000e+01
1141 67 -1.000000000000000e+00
1141 70 -1.000000000000000e+00
1141 159 -1.000000000000000e+00
1141 188 -1.000000000000000e+00
1141 228 -1.000000000000000e+00
1141 315 -1.000000000000000e+00
1141 505 -1.000000000000000e+00
1141 618 -1.000000000000000e+00
1141 644 -1.000000000000000e+00
1141 762 -1.000000000000000e+00
1141 980 -1.000000000000000e+00
1141 1074 -1.000000000000000e+00
1141 1141 1.400000000000000e+01
1142 134 -1.000000000000000e+00
1142 265 -1.000000000000000e+00
1142 399 -2.000000000000000e+00
1142 564 -1.000000000000000e+00
1142 778 -1.000000000000000e+00
1142 819 -2.000000000000000e+00
1142 1142 1.000000000000000e+01
1143 84 -2.000000000000000e+00
1143 350 -1.000000000000000e+00
1143 412 -1.000000000000000e+00
1143 580 -2.000000000000000e+00
1143 784 -1.000000000000000e+00
1143 941 -1.000000000000000e+00
1143 974 -1.000000000000000e+00
1143 1143 1.300000000000000e+01
1144 183 -1.000000000000000e+00
1144 359 -2.000000000000000e+00
1144 579 -1.000000000000000e+00
1144 726 -1.000000000000000e+00
1144 989 -1.000000000000000e+00
1144 1046 -1.000000000000000e+00
1144 1085 -1.000000000000000e+00
1144 1144 8.000000000000000e+00
1145 45 -2.000000000000000e+00
1145 839 -1.000000000000000e+00
1145 907 -2.000000000000000e+00
1145 951 -1.000000000000000e+00
1145 1025 -1.000000000000000e+00
1145 1145 7.000000000000000e+00
1146 142 -1.000000000000000e+00
1146 250 -1.000000000000000e+00
1146 271 -1.000000000000000e+00
1146 337 -2.000000000000000e+00
1146 585 -1.000000000000000e+00
1146 642 -1.000000000000000e+00
1146 722 -2.000000000000000e+00
1146 747 -1.000000000000000e+00
1146 863 -1.000000000000000e+00
1146 978 -1.000000000000000e+00
1146 1029 -1.000000000000000e+00
1146 1146 1.400000000000000e+01
1147 269 -1.000000000000000e+00
1147 1147 3.000000000000000e+00
1148 234 -1.000000000000000e+00
1148 600 -1.000000000000000e+00
1148 695 -1.000000000000000e+00
1148 1068 -1.000000000000000e+00
1148 1148 7.000000000000000e+00
1149 179 -1.000000000000000e+00
1149 184 -1.000000000000000e+00
1149 613 -1.000000000000000e+00
1149 1149 3.000000000000000e+00
1150 92 -2.000000000000000e+00
1150 206 -2.000000000000000e+00
1150 291 -1.000000000000000e+00
1150 491 -1.000000000000000e+00
1150 644 -1.000000000000000e+00
1150 1111 -1.000000000000000e+00
1150 1150 8.000000000000000e+00
1151 184 -1.000000000000000e+00
1151 260 -1.000000000000000e+00
1151 269 -1.000000000000000e+00
1151 488 -1.000000000000000e+00
1151 938 -1.000000000000000e+00
1151 954 -2.000000000000000e+00
1151 1113 -1.000000000000000e+00
1151 1151 1.000000000000000e+01
1152 19 -1.000000000000000e+00
1152 589 -1.000000000000000e+00
1152 629 -1.000000000000000e+00
1152 740 -2.000000000000000e+00
1152 786 -1.000000000000000e+00
1152 805 -1.000000000000000e+00
1152 843 -1.000000000000000e+00
1152 965 -1.000000000000000e+00
1152 966 -1.000000000000000e+00
1152 1085 -1.000000000000000e+00
1152 1152 1.200000000000000e+01
1153 13 -1.000000000000000e+00
1153 182 -1.000000000000000e+00
1153 228 -1.000000000000000e+00
1153 923 -1.000000000000000e+00
1153 998 -1.000000000000000e+00
1153 1153 9.000000000000000e+00
1154 156 -1.000000000000000e+00
1154 608 -1.000000000000000e+00
1154 634 -1.000000000000000e+00
1154 707 -1.000000000000000e+00
1154 1154 5.000000000000000e+00
1155 56 -1.000000000000000e+00
1155 319 -1.000000000000000e+00
1155 407 -2.000000000000000e+00
1155 686 -1.000000000000000e+00
1155 1042 -1.000000000000000e+00
1155 1155 1.000000000000000e+01
1156 83 -1.000000000000000e+00
1156 275 -1.000000000000000e+00
1156 416 -1.000000000000000e+00
1156 434 -1.000000000000000e+00
1156 513 -1.000000000000000e+00
1156 1006 -2.000000000000000e+00
1156 1156 9.000000000000000e+00
1157 336 -1.000000000000000e+00
1157 520 -2.000000000000000e+00
1157 765 -2.000000000000000e+00
1157 820 -1.000000000000000e+00
1157 1065 -1.000000000000000e+00
1157 1125 -1.000000000000000e+00
1157 1157 9.000000000000000e+00
1158 367 -2.000000000000000e+00
1158 417 -1.000000000000000e+00
1158 585 -1.000000000000000e+00
1158 984 -1.000000000000000e+00
1158 1009 -1.000000000000000e+00
1158 1052 -1.000000000000000e+00
1158 1158 8.000000000000000e+00
1159 4 -1.000000000000000e+00
1159 220 -1.000000000000000e+00
1159 683 -1.000000000000000e+00
1159 727 -1.000000000000000e+00
1159 972 -1.000000000000000e+00
1159 1159 6.000000000000000e+00
1160 61 -1.000000000000000e+00
1160 545 -1.000000000000000e+00
1160 574 -2.000000000000000e+00
1160 774 -1.000000000000000e+00
1160 984 -1.000000000000000e+00
1160 1094 -1.000000000000000e+00
1160 1160 9.000000000000000e+00
1161 412 -2.000000000000000e+00
1161 501 -1.000000000000000e+00
1161 917 -1.000000000000000e+00
1161 1044 -2.000000000000000e+00
1161 1139 -1.000000000000000e+00
1161 1161 1.000000000000000e+01
1162 47 -1.000000000000000e+00
1162 60 -1.000000000000000e+00
1162 99 -1.000000000000000e+00
1162 170 -2.000000000000000e+00
1162 352 -1.000000000000000e+00
1162 874 -1.000000000000000e+00
1162 927 -1.000000000000000e+00
1162 1011 -1.000000000000000e+00
1162 1162 9.000000000000000e+00
1163 40 -1.000000000000000e+00
1163 159 -2.000000000000000e+00
1163 224 -1.000000000000000e+00
1163 258 -1.000000000000000e+00
1163 473 -1.000000000000000e+00
1163 498 -1.000000000000000e+00
1163 667 -1.000000000000000e+00
1163 988 -1.000000000000000e+00
1163 1163 1.200000000000000e+01
1164 233 -1.000000000000000e+00
1164 276 -1.000000000000000e+00
1164 341 -1.000000000000000e+00
1164 400 -2.000000000000000e+00
1164 755 -1.000000000000000e+00
1164 1164 7.000000000000000e+00
1165 60 -1.000000000000000e+00
1165 155 -2.000000000000000e+00
1165 366 -1.000000000000000e+00
1165 490 -1.000000000000000e+00
1165 611 -2.000000000000000e+00
1165 676 -1.000000000000000e+00
1165 1018 -1.000000000000000e+00
1165 1089 -1.000000000000000e+00
1165 1109 -1.000000000000000e+00
1165 1165 1.100000000000000e+01
1166 78 -1.000000000000000e+00
1166 374 -2.000000000000000e+00
1166 471 -1.000000000000000e+00
1166 719 -1.000000000000000e+00
1166 747 -1.000000000000000e+00
1166 942 -1.000000000000000e+00
1166 1166 1.100000000000000e+01
1167 273 -1.000000000000000e+00
1167 279 -1.000000000000000e+00
1167 390 -1.000000000000000e+00
1167 411 -1.000000000000000e+00
1167 436 -2.000000000000000e+00
1167 478 -1.000000000000000e+00
1167 483 -1.000000000000000e+00
1167 730 -1.000000000000000e+00
1167 822 -1.000000000000000e+00
1167 942 -2.000000000000000e+00
1167 1167 1.300000000000000e+01
1168 573 -1.000000000000000e+00
1168 682 -2.000000000000000e+00
1168 732 -1.000000000000000e+00
1168 766 -1.000000000000000e+00
1168 1168 8.000000000000000e+00
1169 341 -1.000000000000000e+00
1169 487 -1.000000000000000e+00
1169 509 -2.000000000000000e+00
1169 531 -1.000000000000000e+00
1169 631 -1.000000000000000e+00
1169 896 -1.000000000000000e+00
1169 942 -1.000000000000000e+00
1169 996 -2.000000000000000e+00
1169 1066 -1.000000000000000e+00
1169 1169 1.200000000000000e+01
1170 71 -1.000000000000000e+00
1170 163 -1.000000000000000e+00
1170 254 -1.000000000000000e+00
1170 258 -1.000000000000000e+00
1170 353 -1.000000000000000e+00
1170 363 -1.000000000000000e+00
1170 365 -1.000000000000000e+00
1170 864 -2.000000000000000e+00
1170 1170 1.000000000000000e+01
1171 112 -1.000000000000000e+00
1171 190 -1.000000000000000e+00
1171 354 -1.000000000000000e+00
1171 446 -1.000000000000000e+00
1171 463 -1.000000000000000e+00
1171 522 -1.000000000000000e+00
1171 523 -1.000000000000000e+00
1171 586 -1.000000000000000e+00
1171 1045 -1.000000000000000e+00
1171 1082 -1.000000000000000e+00
1171 1086 -1.000000000000000e+00
1171 1171 1.400000000000000e+01
1172 182 -1.000000000000000e+00
1172 215 -1.000000000000000e+00
1172 319 -1.000000000000000e+00
1172 428 -1.000000000000000e+00
1172 469 -1.000000000000000e+00
1172 537 -1.000000000000000e+00
1172 572 -1.000000000000000e+00
1172 600 -2.000000000000000e+00
1172 851 -1.000000000000000e+00
1172 1172 1.500000000000000e+01
1173 67 -1.000000000000000e+00
1173 135 -1.000000000000000e+00
1173 383 -1.000000000000000e+00
1173 593 -1.000000000000000e+00
1173 613 -1.000000000000000e+00
1173 1173 9.000000000000000e+00
1174 142 -1.000000000000000e+00
1174 324 -2.000000000000000e+00
1174 562 -1.000000000000000e+00
1174 565 -1.000000000000000e+00
1174 678 -1.000000000000000e+00
1174 875 -1.000000000000000e+00
1174 882 -1.000000000000000e+00
1174 1174 1.000000000000000e+01
1175 390 -1.000000000000000e+00
1175 701 -1.000000000000000e+00
1175 1095 -2.000000000000000e+00
1175 1175 4.000000000000000e+00
1176 12 -2.000000000000000e+00
1176 506 -1.000000000000000e+00
1176 559 -1.000000000000000e+00
1176 680 -1.000000000000000e+00
1176 928 -1.000000000000000e+00
1176 941 -1.000000000000000e+00
1176 1042 -1.000000000000000e+00
1176 1176 1.000000000000000e+01
1177 150 -1.000000000000000e+00
1177 160 -1.000000000000000e+00
1177 218 -1.000000000000000e+00
1177 239 -1.000000000000000e+00
1177 467 -1.000000000000000e+00
1177 519 -1.000000000000000e+00
1177 663 -2.000000000000000e+00
1177 690 -2.000000000000000e+00
1177 831 -1.000000000000000e+00
1177 1147 -1.000000000000000e+00
1177 1177 1.400000000000000e+01
1178 193 -2.000000000000000e+00
1178 575 -1.000000000000000e+00
1178 1161 -1.000000000000000e+00
1178 1178 7.000000000000000e+00
1179 202 -1.000000000000000e+00
1179 261 -2.000000000000000e+00
1179 334 -1.000000000000000e+00
1179 448 -1.000000000000000e+00
1179 495 -1.000000000000000e+00
1179 820 -1.000000000000000e+00
1179 1007 -1.000000000000000e+00
1179 1025 -1.000000000000000e+00
1179 1029 -1.000000000000000e+00
1179 1179 1.400000000000000e+01
1180 270 -2.000000000000000e+00
1180 335 -1.000000000000000e+00
1180 625 -1.000000000000000e+00
1180 796 -1.000000000000000e+00
1180 845 -1.000000000000000e+00
1180 1110 -1.000000000000000e+00
1180 1153 -1.000000000000000e+00
1180 1163 -1.000000000000000e+00
1180 1180 1.300000000000000e+01
1181 103 -1.000000000000000e+00
1181 127 -2.000000000000000e+00
1181 211 -1.000000000000000e+00
1181 214 -1.000000000000000e+00
1181 476 -1.000000000000000e+00
1181 522 -1.000000000000000e+00
1181 723 -1.000000000000000e+00
1181 741 -2.000000000000000e+00
1181 813 -1.000000000000000e+00
1181 1035 -1.000000000000000e+00
1181 1181 1.300000000000000e+01
1182 557 -1.000000000000000e+00
1182 838 -1.000000000000000e+00
1182 1182 4.000000000000000e+00
1183 55 -1.000000000000000e+00
1183 203 -1.000000000000000e+00
1183 565 -1.000000000000000e+00
1183 571 -1.000000000000000e+00
1183 993 -1.000000000000000e+00
1183 1141 -1.000000000000000e+00
1183 1183 6.000000000000000e+00
1184 234 -1.000000000000000e+00
1184 450 -1.000000000000000e+00
1184 1184 5.000000000000000e+00
1185 24 -2.000000000000000e+00
1185 265 -2.000000000000000e+00
1185 1185 5.000000000000000e+00
1186 184 -2.000000000000000e+00
1186 522 -1.000000000000000e+00
1186 704 -1.000000000000000e+00
1186 862 -1.000000000000000e+00
1186 1186 7.000000000000000e+00
1187 70 -1.000000000000000e+00
1187 103 -1.000000000000000e+00
1187 151 -1.000000000000000e+00
1187 433 -1.000000000000000e+00
1187 505 -1.000000000000000e+00
1187 696 -1.000000000000000e+00
1187 720 -2.000000000000000e+00
1187 1127 -1.000000000000000e+00
1187 1187 1.200000000000000e+01
1188 330 -1.000000000000000e+00
1188 899 -1.000000000000000e+00
1188 989 -1.000000000000000e+00
1188 1030 -1.000000000000000e+00
1188 1055 -1.000000000000000e+00
1188 1188 8.000000000000000e+00
1189 1 -1.000000000000000e+00
1189 28 -1.000000000000000e+00
1189 220 -1.000000000000000e+00
1189 233 -1.000000000000000e+00
1189 514 -1.000000000000000e+00
1189 640 -1.000000000000000e+00
1189 658 -1.000000000000000e+00
1189 686 -2.000000000000000e+00
1189 1189 1.200000000000000e+01
1190 5 -1.000000000000000e+00
1190 36 -1.000000000000000e+00
1190 141 -1.000000000000000e+00
1190 210 -1.000000000000000e+00
1190 223 -1.000000000000000e+00
1190 546 -1.000000000000000e+00
1190 744 -1.000000000000000e+00
1190 783 -1.000000000000000e+00
1190 854 -1.000000000000000e+00
1190 1190 1.400000000000000e+01
1191 69 -1.000000000000000e+00
1191 220 -1.000000000000000e+00
1191 457 -1.000000000000000e+00
1191 909 -1.000000000000000e+00
1191 1191 6.000000000000000e+00
1192 44 -1.000000000000000e+00
1192 121 -1.000000000000000e+00
1192 417 -1.000000000000000e+00
1192 1192 7.000000000000000e+00
1193 390 -1.000000000000000e+00
1193 411 -1.000000000000000e+00
1193 435 -2.000000000000000e+00
1193 561 -1.000000000000000e+00
1193 1041 -1.000000000000000e+00
1193 1072 -1.000000000000000e+00
1193 1193 8.000000000000000e+00
1194 10 -1.000000000000000e+00
1194 51 -1.000000000000000e+00
1194 156 -1.000000000000000e+00
1194 267 -1.000000000000000e+00
1194 635 -1.000000000000000e+00
1194 744 -1.000000000000000e+00
1194 1111 -1.000000000000000e+00
1194 1194 8.000000000000000e+00
1195 5 -1.000000000000000e+00
1195 81 -1.000000000000000e+00
1195 283 -1.000000000000000e+00
1195 620 -1.000000000000000e+00
1195 813 -1.000000000000000e+00
1195 1195 9.000000000000000e+00
1196 29 -1.000000000000000e+00
1196 124 -1.000000000000000e+00
1196 217 -1.000000000000000e+00
1196 378 -1.000000000000000e+00
1196 570 -1.000000000000000e+00
1196 1131 -1.000000000000000e+00
1196 1196 1.000000000000000e+01
1197 10 -1.000000000000000e+00
1197 237 -1.000000000000000e+00
1197 449 -1.000000000000000e+00
1197 744 -1.000000000000000e+00
1197 941 -1.000000000000000e+00
1197 968 -1.000000000000000e+00
1197 1197 1.000000000000000e+01
1198 707 -1.000000000000000e+00
1198 751 -1.000000000000000e+00
1198 1082 -1.000000000000000e+00
1198 1198 5.000000000000000e+00
1199 53 -1.000000000000000e+00
1199 261 -1.000000000000000e+00
1199 698 -1.000000000000000e+00
1199 723 -1.000000000000000e+00
1199 802 -1.000000000000000e+00
1199 1179 -2.000000000000000e+00
1199 1199 9.000000000000000e+00
1200 262 -1.000000000000000e+00
1200 482 -1.000000000000000e+00
1200 559 -2.000000000000000e+00
1200 627 -1.000000000000000e+00
1200 760 -1.000000000000000e+00
1200 783 -1.000000000000000e+00
1200 1126 -1.000000000000000e+00
1200 1200 9.000000000000000e+00
1201 329 -1.000000000000000e+00
1201 605 -1.000000000000000e+00
1201 848 -1.000000000000000e+00
1201 849 -1.000000000000000e+00
1201 1201 6.000000000000000e+00
1202 48 -1.000000000000000e+00
1202 210 -1.000000000000000e+00
1202 315 -1.000000000000000e+00
1202 359 -1.000000000000000e+00
1202 452 -1.000000000000000e+00
1202 508 -1.000000000000000e+00
1202 653 -1.000000000000000e+00
1202 964 -1.000000000000000e+00
1202 980 -1.000000000000000e+00
1202 1202 1.000000000000000e+01
1203 318 -1.000000000000000e+00
1203 416 -1.000000000000000e+00
1203 640 -1.000000000000000e+00
1203 1203 4.000000000000000e+00
1204 28 -1.000000000000000e+00
1204 106 -2.000000000000000e+00
1204 501 -1.000000000000000e+00
1204 897 -1.000000000000000e+00
1204 990 -1.000000000000000e+00
1204 992 -1.000000000000000e+00
1204 1125 -1.000000000000000e+00
1204 1204 9.000000000000000e+00
1205 340 -1.000000000000000e+00
1205 720 -1.000000000000000e+00
1205 792 -1.000000000000000e+00
1205 1062 -2.000000000000000e+00
1205 1205 5.000000000000000e+00
1206 51 -1.000000000000000e+00
1206 263 -1.000000000000000e+00
1206 284 -1.000000000000000e+00
1206 359 -1.000000000000000e+00
1206 559 -1.000000000000000e+00
1206 772 -1.000000000000000e+00
1206 1054 -1.000000000000000e+00
1206 1068 -2.000000000000000e+00
1206 1111 -1.000000000000000e+00
1206 1148 -2.000000000000000e+00
1206 1166 -1.000000000000000e+00
1206 1206 1.300000000000000e+01
1207 97 -1.000000000000000e+00
1207 112 -1.000000000000000e+00
1207 328 -1.000000000000000e+00
1207 335 -1.000000000000000e+00
1207 358 -1.000000000000000e+00
1207 391 -1.000000000000000e+00
1207 592 -1.000000000000000e+00
1207 1055 -1.000000000000000e+00
1207 1207 9.000000000000000e+00
1208 413 -1.000000000000000e+00
1208 512 -1.000000000000000e+00
1208 774 -1.000000000000000e+00
1208 1208 3.000000000000000e+00
1209 152 -2.000000000000000e+00
1209 320 -2.000000000000000e+00
1209 1209 4.000000000000000e+00
1210 444 -1.000000000000000e+00
1210 651 -1.000000000000000e+00
1210 933 -1.000000000000000e+00
1210 1210 6.000000000000000e+00
1211 184 -1.000000000000000e+00
1211 230 -2.000000000000000e+00
1211 799 -1.000000000000000e+00
1211 1006 -1.000000000000000e+00
1211 1060 -1.000000000000000e+00
1211 1211 7.000000000000000e+00
1212 81 -1.000000000000000e+00
1212 217 -1.000000000000000e+00
1212 243 -1.000000000000000e+00
1212 292 -1.000000000000000e+00
1212 705 -1.000000000000000e+00
1212 1212 5.000000000000000e+00
1213 385 -1.000000000000000e+00
1213 425 -1.000000000000000e+00
1213 503 -1.000000000000000e+00
1213 883 -1.000000000000000e+00
1213 1050 -1.000000000000000e+00
1213 1109 -1.000000000000000e+00
1213 1213 8.000000000000000e+00
1214 426 -1.000000000000000e+00
1214 432 -1.000000000000000e+00
1214 435 -1.000000000000000e+00
1214 535 -1.000000000000000e+00
1214 911 -1.000000000000000e+00
1214 1109 -1.000000000000000e+00
1214 1197 -1.000000000000000e+00
1214 1214 7.000000000000000e+00
1215 363 -1.000000000000000e+00
1215 794 -1.000000000000000e+00
1215 1002 -1.000000000000000e+00
1215 1047 -1.000000000000000e+00
1215 1213 -1.000000000000000e+00
1215 1215 6.000000000000000e+00
1216 133 -1.000000000000000e+00
1216 209 -1.000000000000000e+00
1216 260 -2.000000000000000e+00
1216 282 -2.000000000000000e+00
1216 735 -1.000000000000000e+00
1216 1216 9.000000000000000e+00
1217 299 -1.000000000000000e+00
1217 471 -1.000000000000000e+00
1217 577 -2.000000000000000e+00
1217 734 -2.000000000000000e+00
1217 751 -1.000000000000000e+00
1217 794 -1.000000000000000e+00
1217 1147 -1.000000000000000e+00
1217 1217 9.000000000000000e+00
1218 5 -1.000000000000000e+00
1218 8 -1.000000000000000e+00
1218 595 -1.000000000000000e+00
1218 858 -1.000000000000000e+00
1218 1112 -1.000000000000000e+00
1218 1218 7.000000000000000e+00
1219 121 -1.000000000000000e+00
1219 346 -1.000000000000000e+00
1219 358 -1.000000000000000e+00
1219 470 -2.000000000000000e+00
1219 970 -2.000000000000000e+00
1219 1219 9.000000000000000e+00
1220 32 -1.000000000000000e+00
1220 33 -1.000000000000000e+00
1220 72 -1.000000000000000e+00
1220 376 -1.000000000000000e+00
1220 382 -1.000000000000000e+00
1220 438 -1.000000000000000e+00
1220 743 -1.000000000000000e+00
1220 1174 -1.000000000000000e+00
1220 1220 8.000000000000000e+00
1221 398 -1.000000000000000e+00
1221 465 -1.000000000000000e+00
1221 564 -1.000000000000000e+00
1221 631 -1.000000000000000e+00
1221 984 -1.000000000000000e+00
1221 1221 6.000000000000000e+00
1222 203 -1.000000000000000e+00
1222 212 -1.000000000000000e+00
1222 278 -1.000000000000000e+00
1222 548 -1.000000000000000e+00
1222 586 -1.000000000000000e+00
1222 839 -1.000000000000000e+00
1222 1045 -1.000000000000000e+00
1222 1222 1.000000000000000e+01
1223 33 -1.000000000000000e+00
1223 803 -1.000000000000000e+00
1223 1119 -1.000000000000000e+00
1223 1223 6.000000000000000e+00
1224 121 -1.000000000000000e+00
1224 506 -1.000000000000000e+00
1224 545 -1.000000000000000e+00
1224 586 -2.000000000000000e+00
1224 814 -1.000000000000000e+00
1224 1045 -2.000000000000000e+00
1224 1091 -1.000000000000000e+00
1224 1171 -1.000000000000000e+00
1224 1222 -1.000000000000000e+00
1224 1224 1.100000000000000e+01
1225 6 -1.000000000000000e+00
1225 295 -1.000000000000000e+00
1225 445 -1.000000000000000e+00
1225 590 -1.000000000000000e+00
1225 608 -1.000000000000000e+00
1225 834 -2.000000000000000e+00
1225 1041 -1.000000000000000e+00
1225 1225 9.000000000000000e+00
1226 404 -2.000000000000000e+00
1226 618 -1.000000000000000e+00
1226 902 -1.000000000000000e+00
1226 1074 -1.000000000000000e+00
1226 1119 -2.000000000000000e+00
1226 1226 8.000000000000000e+00
1227 23 -1.000000000000000e+00
1227 89 -1.000000000000000e+00
1227 349 -1.000000000000000e+00
1227 386 -1.000000000000000e+00
1227 504 -1.000000000000000e+00
1227 670 -1.000000000000000e+00
1227 672 -2.000000000000000e+00
1227 724 -1.000000000000000e+00
1227 738 -1.000000000000000e+00
1227 869 -1.000000000000000e+00
1227 1227 1.100000000000000e+01
1228 137 -1.000000000000000e+00
1228 171 -1.000000000000000e+00
1228 373 -2.000000000000000e+00
1228 601 -1.000000000000000e+00
1228 905 -2.000000000000000e+00
1228 1161 -1.000000000000000e+00
1228 1228 9.000000000000000e+00
1229 99 -1.000000000000000e+00
1229 172 -1.000000000000000e+00
1229 205 -1.000000000000000e+00
1229 298 -1.000000000000000e+00
1229 394 -1.000000000000000e+00
1229 737 -1.000000000000000e+00
1229 912 -2.000000000000000e+00
1229 1229 1.000000000000000e+01
1230 88 -1.000000000000000e+00
1230 92 -1.000000000000000e+00
1230 236 -1.000000000000000e+00
1230 266 -1.000000000000000e+00
1230 374 -1.000000000000000e+00
1230 454 -2.000000000000000e+00
1230 580 -1.000000000000000e+00
1230 1030 -1.000000000000000e+00
1230 1230 1.000000000000000e+01
1231 5 -1.000000000000000e+00
1231 28 -1.000000000000000e+00
1231 253 -1.000000000000000e+00
1231 534 -1.000000000000000e+00
1231 743 -1.000000000000000e+00
1231 929 -1.000000000000000e+00
1231 977 -2.000000000000000e+00
1231 1229 -1.000000000000000e+00
1231 1231 1.000000000000000e+01
1232 42 -1.000000000000000e+00
1232 275 -1.000000000000000e+00
1232 1006 -2.000000000000000e+00
1232 1232 5.000000000000000e+00
1233 149 -1.000000000000000e+00
1233 593 -1.000000000000000e+00
1233 612 -1.000000000000000e+00
1233 720 -1.000000000000000e+00
1233 777 -1.000000000000000e+00
1233 883 -1.000000000000000e+00
1233 1187 -2.000000000000000e+00
1233 1233 9.000000000000000e+00
1234 30 -1.000000000000000e+00
1234 134 -1.000000000000000e+00
1234 404 -1.000000000000000e+00
1234 482 -1.000000000000000e+00
1234 708 -1.000000000000000e+00
1234 745 -1.000000000000000e+00
1234 1234 8.000000000000000e+00
1235 269 -1.000000000000000e+00
1235 316 -1.000000000000000e+00
1235 945 -1.000000000000000e+00
1235 952 -1.000000000000000e+00
1235 1058 -1.000000000000000e+00
1235 1118 -1.000000000000000e+00
1235 1235 9.000000000000000e+00
1236 135 -1.000000000000000e+00
1236 904 -1.000000000000000e+00
1236 1236 6.000000000000000e+00
1237 17 -1.000000000000000e+00
1237 95 -1.000000000000000e+00
1237 138 -1.000000000000000e+00
1237 480 -2.000000000000000e+00
1237 610 -1.000000000000000e+00
1237 713 -1.000000000000000e+00
1237 871 -1.000000000000000e+00
1237 1114 -1.000000000000000e+00
1237 1237 9.000000000000000e+00
1238 128 -2.000000000000000e+00
1238 142 -1.000000000000000e+00
1238 408 -2.000000000000000e+00
1238 426 -1.000000000000000e+00
1238 554 -1.000000000000000e+00
1238 851 -1.000000000000000e+00
1238 853 -1.000000000000000e+00
1238 978 -1.000000000000000e+00
1238 1087 -1.000000000000000e+00
1238 1131 -1.000000000000000e+00
1238 1157 -1.000000000000000e+00
1238 1238 1.400000000000000e+01
1239 10 -1.000000000000000e+00
1239 413 -1.000000000000000e+00
1239 416 -2.000000000000000e+00
1239 479 -1.000000000000000e+00
1239 517 -2.000000000000000e+00
1239 600 -1.000000000000000e+00
1239 818 -1.000000000000000e+00
1239 987 -1.000000000000000e+00
1239 1239 1.000000000000000e+01
1240 144 -1.000000000000000e+00
1240 298 -1.000000000000000e+00
1240 316 -1.000000000000000e+00
1240 425 -1.000000000000000e+00
1240 494 -1.000000000000000e+00
1240 556 -1.000000000000000e+00
1240 581 -1.000000000000000e+00
1240 610 -1.000000000000000e+00
1240 1002 -1.000000000000000e+00
1240 1235 -1.000000000000000e+00
1240 1240 1.200000000000000e+01
1241 121 -1.000000000000000e+00
1241 122 -2.000000000000000e+00
1241 307 -1.000000000000000e+00
1241 407 -1.000000000000000e+00
1241 622 -1.000000000000000e+00
1241 771 -1.000000000000000e+00
1241 990 -1.000000000000000e+00
1241 1000 -1.000000000000000e+00
1241 1115 -1.000000000000000e+00
1241 1197 -1.000000000000000e+00
1241 1241 1.600000000000000e+01
1242 2 -1.000000000000000e+00
1242 220 -1.000000000000000e+00
1242 433 -1.000000000000000e+00
1242 1030 -1.000000000000000e+00
1242 1054 -1.000000000000000e+00
1242 1067 -1.000000000000000e+00
1242 1242 8.000000000000000e+00
1243 46 -1.000000000000000e+00
1243 130 -1.000000000000000e+00
1243 200 -1.000000000000000e+00
1243 242 -2.000000000000000e+00
1243 310 -1.000000000000000e+00
1243 443 -1.000000000000000e+00
1243 516 -1.000000000000000e+00
1243 580 -1.000000000000000e+00
1243 1025 -1.000000000000000e+00
1243 1094 -1.000000000000000e+00
1243 1243 1.100000000000000e+01
1244 206 -1.000000000000000e+00
1244 378 -2.000000000000000e+00
1244 866 -1.000000000000000e+00
1244 901 -1.000000000000000e+00
1244 1019 -2.000000000000000e+00
1244 1026 -1.000000000000000e+00
1244 1082 -1.000000000000000e+00
1244 1172 -1.000000000000000e+00
1244 1241 -1.000000000000000e+00
1244 1244 1.200000000000000e+01
1245 325 -1.000000000000000e+00
1245 611 -1.000000000000000e+00
1245 632 -1.000000000000000e+00
1245 898 -1.000000000000000e+00
1245 1122 -1.000000000000000e+00
1245 1245 8.000000000000000e+00
1246 67 -1.000000000000000e+00
1246 71 -1.000000000000000e+00
1246 270 -1.000000000000000e+00
1246 1180 -2.000000000000000e+00
1246 1190 -1.000000000000000e+00
1246 1230 -1.000000000000000e+00
1246 1246 9.000000000000000e+00
1247 42 -1.000000000000000e+00
1247 91 -1.000000000000000e+00
1247 749 -1.000000000000000e+00
1247 830 -2.000000000000000e+00
1247 871 -1.000000000000000e+00
1247 895 -2.000000000000000e+00
1247 1054 -1.000000000000000e+00
1247 1161 -1.000000000000000e+00
1247 1247 1.000000000000000e+01
1248 122 -1.000000000000000e+00
1248 296 -1.000000000000000e+00
1248 302 -1.000000000000000e+00
1248 509 -1.000000000000000e+00
1248 1248 7.000000000000000e+00
1249 284 -1.000000000000000e+00
1249 1090 -1.000000000000000e+00
1249 1110 -1.000000000000000e+00
1249 1249 4.000000000000000e+00
1250 101 -1.000000000000000e+00
1250 359 -1.000000000000000e+00
1250 469 -1.000000000000000e+00
1250 541 -1.000000000000000e+00
1250 561 -1.000000000000000e+00
1250 585 -1.000000000000000e+00
1250 937 -1.000000000000000e+00
1250 1022 -1.000000000000000e+00
1250 1092 -2.000000000000000e+00
1250 1171 -1.000000000000000e+00
1250 1250 1.100000000000000e+01
1251 209 -1.000000000000000e+00
1251 589 -1.000000000000000e+00
1251 658 -1.000000000000000e+00
1251 687 -1.000000000000000e+00
1251 769 -1.000000000000000e+00
1251 778 -2.000000000000000e+00
1251 1154 -1.000000000000000e+00
1251 1251 1.000000000000000e+01
1252 77 -1.000000000000000e+00
1252 82 -2.000000000000000e+00
1252 85 -1.000000000000000e+00
1252 189 -1.000000000000000e+00
1252 225 -1.000000000000000e+00
1252 264 -1.000000000000000e+00
1252 369 -1.000000000000000e+00
1252 556 -1.000000000000000e+00
1252 765 -1.000000000000000e+00
1252 882 -1.000000000000000e+00
1252 1252 1.300000000000000e+01
1253 79 -1.000000000000000e+00
1253 115 -2.000000000000000e+00
1253 129 -1.000000000000000e+00
1253 261 -1.000000000000000e+00
1253 364 -1.000000000000000e+00
1253 409 -1.000000000000000e+00
1253 770 -1.000000000000000e+00
1253 1106 -1.000000000000000e+00
1253 1253 1.100000000000000e+01
1254 344 -1.000000000000000e+00
1254 461 -1.000000000000000e+00
1254 667 -1.000000000000000e+00
1254 749 -1.000000000000000e+00
1254 1002 -1.000000000000000e+00
1254 1041 -2.000000000000000e+00
1254 1222 -1.000000000000000e+00
1254 1254 8.000000000000000e+00
1255 57 -1.000000000000000e+00
1255 785 -1.000000000000000e+00
1255 878 -1.000000000000000e+00
1255 886 -1.000000000000000e+00
1255 1040 -2.000000000000000e+00
1255 1229 -1.000000000000000e+00
1255 1255 8.000000000000000e+00
1256 167 -1.000000000000000e+00
1256 477 -2.000000000000000e+00
1256 961 -1.000000000000000e+00
1256 1039 -1.000000000000000e+00
1256 1079 -1.000000000000000e+00
1256 1166 -1.000000000000000e+00
1256 1256 8.000000000000000e+00
1257 27 -1.000000000000000e+00
1257 75 -1.000000000000000e+00
1257 175 -1.000000000000000e+00
1257 358 -1.000000000000000e+00
1257 661 -1.000000000000000e+00
1257 725 -1.000000000000000e+00
1257 857 -1.000000000000000e+00
1257 974 -2.000000000000000e+00
1257 1142 -1.000000000000000e+00
1257 1155 -1.000000000000000e+00
1257 1257 1.400000000000000e+01
1258 456 -1.000000000000000e+00
1258 862 -1.000000000000000e+00
1258 1258 3.000000000000000e+00
1259 2 -1.000000000000000e+00
1259 28 -1.000000000000000e+00
1259 106 -1.000000000000000e+00
1259 577 -1.000000000000000e+00
1259 649 -2.000000000000000e+00
1259 779 -1.000000000000000e+00
1259 923 -1.000000000000000e+00
1259 1204 -1.000000000000000e+00
1259 1259 1.000000000000000e+01
1260 9 -1.000000000000000e+00
1260 180 -1.000000000000000e+00
1260 228 -2.000000000000000e+00
1260 313 -1.000000000000000e+00
1260 411 -1.000000000000000e+00
1260 720 -1.000000000000000e+00
1260 866 -1.000000000000000e+00
1260 1260 8.000000000000000e+00
1261 93 -1.000000000000000e+00
1261 151 -1.000000000000000e+00
1261 318 -1.000000000000000e+00
1261 459 -1.000000000000000e+00
1261 1192 -2.000000000000000e+00
1261 1261 8.000000000000000e+00
1262 156 -2.000000000000000e+00
1262 438 -1.000000000000000e+00
1262 1262 4.000000000000000e+00
1263 437 -1.000000000000000e+00
1263 631 -1.000000000000000e+00
1263 951 -1.000000000000000e+00
1263 1012 -1.000000000000000e+00
1263 1081 -1.000000000000000e+00
1263 1263 6.000000000000000e+00
1264 469 -2.000000000000000e+00
1264 542 -2.000000000000000e+00
1264 674 -1.000000000000000e+00
1264 763 -1.000000000000000e+00
1264 957 -1.000000000000000e+00
1264 1036 -1.000000000000000e+00
1264 1231 -1.000000000000000e+00
1264 1264 1.000000000000000e+01
1265 199 -1.000000000000000e+00
1265 263 -2.000000000000000e+00
1265 582 -1.000000000000000e+00
1265 855 -1.000000000000000e+00
1265 1223 -1.000000000000000e+00
1265 1236 -1.000000000000000e+00
1265 1251 -1.000000000000000e+00
1265 1265 9.000000000000000e+00
1266 149 -1.000000000000000e+00
1266 665 -1.000000000000000e+00
1266 1036 -1.000000000000000e+00
1266 1197 -1.000000000000000e+00
1266 1258 -1.000000000000000e+00
1266 1266 9.000000000000000e+00
1267 27 -1.000000000000000e+00
1267 648 -1.000000000000000e+00
1267 761 -1.000000000000000e+00
1267 767 -1.000000000000000e+00
1267 1040 -1.000000000000000e+00
1267 1088 -1.000000000000000e+00
1267 1112 -1.000000000000000e+00
1267 1115 -2.000000000000000e+00
1267 1167 -1.000000000000000e+00
1267 1178 -1.000000000000000e+00
1267 1267 1.300000000000000e+01
1268 345 -1.000000000000000e+00
1268 389 -1.000000000000000e+00
1268 650 -2.000000000000000e+00
1268 713 -1.000000000000000e+00
1268 783 -1.000000000000000e+00
1268 1268 9.000000000000000e+00
1269 392 -1.000000000000000e+00
1269 486 -2.000000000000000e+00
1269 502 -2.000000000000000e+00
1269 700 -1.000000000000000e+00
1269 803 -1.000000000000000e+00
1269 1269 7.000000000000000e+00
1270 129 -2.000000000000000e+00
1270 530 -1.000000000000000e+00
1270 537 -1.000000000000000e+00
1270 569 -1.000000000000000e+00
1270 1270 7.000000000000000e+00
1271 195 -1.000000000000000e+00
1271 791 -1.000000000000000e+00
1271 958 -2.000000000000000e+00
1271 1271 5.000000000000000e+00
1272 185 -2.000000000000000e+00
1272 461 -1.000000000000000e+00
1272 490 -1.000000000000000e+00
1272 582 -1.000000000000000e+00
1272 945 -1.000000000000000e+00
1272 1095 -1.000000000000000e+00
1272 1272 8.000000000000000e+00
1273 182 -1.000000000000000e+00
1273 332 -1.000000000000000e+00
1273 644 -2.000000000000000e+00
1273 757 -1.000000000000000e+00
1273 811 -1.000000000000000e+00
1273 898 -1.000000000000000e+00
1273 1273 8.000000000000000e+00
1274 343 -1.000000000000000e+00
1274 512 -1.000000000000000e+00
1274 515 -1.000000000000000e+00
1274 605 -1.000000000000000e+00
1274 639 -1.000000000000000e+00
1274 680 -1.000000000000000e+00
1274 778 -1.000000000000000e+00
1274 873 -2.000000000000000e+00
1274 995 -1.000000000000000e+00
1274 1274 1.100000000000000e+01
1275 16 -1.000000000000000e+00
1275 246 -2.000000000000000e+00
1275 327 -1.000000000000000e+00
1275 799 -1.000000000000000e+00
1275 1166 -1.000000000000000e+00
1275 1176 -1.000000000000000e+00
1275 1257 -1.000000000000000e+00
1275 1275 8.000000000000000e+00
1276 20 -2.000000000000000e+00
1276 52 -1.000000000000000e+00
1276 236 -1.000000000000000e+00
1276 613 -1.000000000000000e+00
1276 634 -1.000000000000000e+00
1276 735 -1.000000000000000e+00
1276 758 -1.000000000000000e+00
1276 771 -1.000000000000000e+00
1276 1080 -1.000000000000000e+00
1276 1089 -1.000000000000000e+00
1276 1160 -1.000000000000000e+00
1276 1276 1.200000000000000e+01
1277 221 -2.000000000000000e+00
1277 482 -1.000000000000000e+00
1277 545 -2.000000000000000e+00
1277 658 -1.000000000000000e+00
1277 692 -1.000000000000000e+00
1277 733 -1.000000000000000e+00
1277 1103 -1.000000000000000e+00
1277 1139 -1.000000000000000e+00
1277 1277 1.100000000000000e+01
1278 432 -1.000000000000000e+00
1278 455 -1.000000000000000e+00
1278 537 -1.000000000000000e+00
1278 798 -1.000000000000000e+00
1278 886 -2.000000000000000e+00
1278 1278 1.000000000000000e+01
1279 234 -1.000000000000000e+00
1279 1196 -1.000000000000000e+00
1279 1279 4.000000000000000e+00
1280 190 -1.000000000000000e+00
1280 565 -2.000000000000000e+00
1280 1155 -1.000000000000000e+00
1280 1242 -1.000000000000000e+00
1280 1277 -1.000000000000000e+00
1280 1280 8.000000000000000e+00
1281 255 -1.000000000000000e+00
1281 314 -1.000000000000000e+00
1281 375 -1.000000000000000e+00
1281 520 -1.000000000000000e+00
1281 633 -1.000000000000000e+00
1281 640 -1.000000000000000e+00
1281 923 -1.000000000000000e+00
1281 964 -1.000000000000000e+00
1281 1172 -1.000000000000000e+00
1281 1281 1.100000000000000e+01
1282 168 -1.000000000000000e+00
1282 239 -2.000000000000000e+00
1282 298 -1.000000000000000e+00
1282 990 -1.000000000000000e+00
1282 1179 -1.000000000000000e+00
1282 1193 -1.000000000000000e+00
1282 1282 8.000000000000000e+00
1283 120 -1.000000000000000e+00
1283 248 -2.000000000000000e+00
1283 401 -2.000000000000000e+00
1283 830 -1.000000000000000e+00
1283 857 -1.000000000000000e+00
1283 1115 -1.000000000000000e+00
1283 1283 9.000000000000000e+00
1284 76 -1.000000000000000e+00
1284 253 -1.000000000000000e+00
1284 338 -1.000000000000000e+00
1284 592 -1.000000000000000e+00
1284 606 -1.000000000000000e+00
1284 741 -1.000000000000000e+00
1284 770 -1.000000000000000e+00
1284 838 -1.000000000000000e+00
1284 1284 9.000000000000000e+00
1285 21 -1.000000000000000e+00
1285 117 -2.000000000000000e+00
1285 139 -1.000000000000000e+00
1285 174 -1.000000000000000e+00
1285 309 -2.000000000000000e+00
1285 592 -1.000000000000000e+00
1285 829 -1.000000000000000e+00
1285 875 -1.000000000000000e+00
1285 909 -1.000000000000000e+00
1285 962 -1.000000000000000e+00
1285 1136 -1.000000000000000e+00
1285 1172 -1.000000000000000e+00
1285 1285 1.400000000000000e+01
1286 62 -1.000000000000000e+00
1286 89 -1.000000000000000e+00
1286 168 -1.000000000000000e+00
1286 379 -1.000000000000000e+00
1286 621 -1.000000000000000e+00
1286 899 -1.000000000000000e+00
1286 1012 -1.000000000000000e+00
1286 1146 -1.000000000000000e+00
1286 1278 -1.000000000000000e+00
1286 1286 1.200000000000000e+01
1287 374 -1.000000000000000e+00
1287 417 -2.000000000000000e+00
1287 842 -1.000000000000000e+00
1287 874 -1.000000000000000e+00
1287 1045 -1.000000000000000e+00
1287 1287 7.000000000000000e+00
1288 38 -1.000000000000000e+00
1288 189 -2.000000000000000e+00
1288 195 -1.000000000000000e+00
1288 379 -1.000000000000000e+00
1288 622 -1.000000000000000e+00
1288 798 -1.000000000000000e+00
1288 815 -1.000000000000000e+00
1288 1093 -1.000000000000000e+00
1288 1278 -1.000000000000000e+00
1288 1288 1.200000000000000e+01
1289 112 -1.000000000000000e+00
1289 173 -1.000000000000000e+00
1289 226 -1.000000000000000e+00
1289 400 -1.000000000000000e+00
1289 500 -1.000000000000000e+00
1289 905 -1.000000000000000e+00
1289 1115 -1.000000000000000e+00
1289 1281 -2.000000000000000e+00
1289 1289 1.000000000000000e+01
1290 323 -1.000000000000000e+00
1290 459 -1.000000000000000e+00
1290 581 -1.000000000000000e+00
1290 777 -1.000000000000000e+00
1290 943 -2.000000000000000e+00
1290 1080 -1.000000000000000e+00
1290 1290 7.000000000000000e+00
1291 109 -1.000000000000000e+00
1291 635 -1.000000000000000e+00
1291 638 -1.000000000000000e+00
1291 725 -1.000000000000000e+00
1291 974 -1.000000000000000e+00
1291 1053 -1.000000000000000e+00
1291 1256 -1.000000000000000e+00
1291 1257 -2.000000000000000e+00
1291 1291 9.000000000000000e+00
1292 23 -1.000000000000000e+00
1292 31 -1.000000000000000e+00
1292 75 -1.000000000000000e+00
1292 105 -1.000000000000000e+00
1292 336 -1.000000000000000e+00
1292 928 -1.000000000000000e+00
1292 1103 -1.000000000000000e+00
1292 1236 -1.000000000000000e+00
1292 1292 1.000000000000000e+01
1293 162 -1.000000000000000e+00
1293 248 -1.000000000000000e+00
1293 409 -1.000000000000000e+00
1293 1070 -1.000000000000000e+00
1293 1089 -1.000000000000000e+00
1293 1293 5.000000000000000e+00
1294 233 -1.000000000000000e+00
1294 293 -1.000000000000000e+00
1294 314 -1.000000000000000e+00
1294 405 -1.000000000000000e+00
1294 470 -1.000000000000000e+00
1294 988 -1.000000000000000e+00
1294 1009 -1.000000000000000e+00
1294 1074 -1.000000000000000e+00
1294 1186 -1.000000000000000e+00
1294 1294 1.000000000000000e+01
1295 374 -1.000000000000000e+00
1295 813 -1.000000000000000e+00
1295 1128 -1.000000000000000e+00
1295 1295 5.000000000000000e+00
1296 285 -2.000000000000000e+00
1296 603 -1.000000000000000e+00
1296 947 -1.000000000000000e+00
1296 1296 5.000000000000000e+00
1297 90 -1.000000000000000e+00
1297 210 -1.000000000000000e+00
1297 287 -2.000000000000000e+00
1297 450 -1.000000000000000e+00
1297 494 -1.000000000000000e+00
1297 648 -1.000000000000000e+00
1297 880 -1.000000000000000e+00
1297 927 -1.000000000000000e+00
1297 1039 -1.000000000000000e+00
1297 1135 -1.000000000000000e+00
1297 1297 1.100000000000000e+01
1298 15 -1.000000000000000e+00
1298 306 -2.000000000000000e+00
1298 1124 -1.000000000000000e+00
1298 1298 7.000000000000000e+00
1299 274 -1.000000000000000e+00
1299 567 -1.000000000000000e+00
1299 686 -1.000000000000000e+00
1299 725 -2.000000000000000e+00
1299 727 -1.000000000000000e+00
1299 940 -1.000000000000000e+00
1299 1093 -1.000000000000000e+00
1299 1246 -1.000000000000000e+00
1299 1271 -1.000000000000000e+00
1299 1299 1.000000000000000e+01
1300 46 -1.000000000000000e+00
1300 495 -1.000000000000000e+00
1300 510 -2.000000000000000e+00
1300 774 -1.000000000000000e+00
1300 783 -1.000000000000000e+00
1300 900 -2.000000000000000e+00
1300 1022 -1.000000000000000e+00
1300 1268 -1.000000000000000e+00
1300 1300 1.000000000000000e+01
1301 229 -1.000000000000000e+00
1301 618 -1.000000000000000e+00
1301 634 -1.000000000000000e+00
1301 803 -1.000000000000000e+00
1301 1104 -2.000000000000000e+00
1301 1301 6.000000000000000e+00
1302 163 -1.000000000000000e+00
1302 201 -2.000000000000000e+00
1302 332 -1.000000000000000e+00
1302 515 -1.000000000000000e+00
1302 569 -1.000000000000000e+00
1302 800 -1.000000000000000e+00
1302 1302 7.000000000000000e+00
1303 617 -1.000000000000000e+00
1303 687 -2.000000000000000e+00
1303 707 -2.000000000000000e+00
1303 847 -1.000000000000000e+00
1303 1303 8.000000000000000e+00
1304 31 -1.000000000000000e+00
1304 141 -1.000000000000000e+00
1304 538 -1.000000000000000e+00
1304 601 -1.000000000000000e+00
1304 814 -1.000000000000000e+00
1304 878 -1.000000000000000e+00
1304 947 -1.000000000000000e+00
1304 1095 -1.000000000000000e+00
1304 1111 -2.000000000000000e+00
1304 1304 1.000000000000000e+01
1305 395 -1.000000000000000e+00
1305 597 -1.000000000000000e+00
1305 660 -2.000000000000000e+00
1305 921 -1.000000000000000e+00
1305 1140 -1.000000000000000e+00
1305 1143 -1.000000000000000e+00
1305 1305 9.000000000000000e+00
1306 98 -1.000000000000000e+00
1306 393 -1.000000000000000e+00
1306 556 -2.000000000000000e+00
1306 1163 -1.000000000000000e+00
1306 1264 -1.000000000000000e+00
1306 1292 -1.000000000000000e+00
1306 1306 7.000000000000000e+00
1307 61 -1.000000000000000e+00
1307 398 -2.000000000000000e+00
1307 423 -2.000000000000000e+00
1307 777 -1.000000000000000e+00
1307 1099 -1.000000000000000e+00
1307 1169 -1.000000000000000e+00
1307 1307 8.000000000000000e+00
1308 109 -1.000000000000000e+00
1308 183 -1.000000000000000e+00
1308 184 -1.000000000000000e+00
1308 311 -1.000000000000000e+00
1308 457 -2.000000000000000e+00
1308 502 -1.000000000000000e+00
1308 517 -1.000000000000000e+00
1308 863 -1.000000000000000e+00
1308 974 -1.000000000000000e+00
1308 1191 -2.000000000000000e+00
1308 1308 1.500000000000000e+01
1309 875 -1.000000000000000e+00
1309 973 -1.000000000000000e+00
1309 1025 -1.000000000000000e+00
1309 1113 -1.000000000000000e+00
1309 1308 -1.000000000000000e+00
1309 1309 5.000000000000000e+00
1310 165 -1.000000000000000e+00
1310 364 -2.000000000000000e+00
1310 812 -1.000000000000000e+00
1310 817 -1.000000000000000e+00
1310 1194 -1.000000000000000e+00
1310 1240 -1.000000000000000e+00
1310 1298 -1.000000000000000e+00
1310 1310 8.000000000000000e+00
1311 29 -1.000000000000000e+00
1311 86 -1.000000000000000e+00
1311 96 -1.000000000000000e+00
1311 177 -1.000000000000000e+00
1311 316 -1.000000000000000e+00
1311 343 -1.000000000000000e+00
1311 513 -1.000000000000000e+00
1311 836 -1.000000000000000e+00
1311 1092 -1.000000000000000e+00
1311 1311 1.100000000000000e+01
1312 14 -1.000000000000000e+00
1312 925 -1.000000000000000e+00
1312 1312 2.000000000000000e+00
1313 115 -1.000000000000000e+00
1313 223 -1.000000000000000e+00
1313 403 -1.000000000000000e+00
1313 427 -1.000000000000000e+00
1313 902 -1.000000000000000e+00
1313 970 -1.000000000000000e+00
1313 1313 6.000000000000000e+00
1314 1118 -1.000000000000000e+00
1314 1288 -1.000000000000000e+00
1314 1314 5.000000000000000e+00
1315 136 -1.000000000000000e+00
1315 586 -1.000000000000000e+00
1315 639 -1.000000000000000e+00
1315 878 -1.000000000000000e+00
1315 1014 -1.000000000000000e+00
1315 1078 -1.000000000000000e+00
1315 1110 -1.000000000000000e+00
1315 1315 7.000000000000000e+00
1316 12 -1.000000000000000e+00
1316 95 -1.000000000000000e+00
1316 118 -1.000000000000000e+00
1316 254 -1.000000000000000e+00
1316 375 -2.000000000000000e+00
1316 567 -2.000000000000000e+00
1316 789 -1.000000000000000e+00
1316 854 -1.000000000000000e+00
1316 1316 1.000000000000000e+01
1317 16 -1.000000000000000e+00
1317 278 -1.000000000000000e+00
1317 473 -1.000000000000000e+00
1317 512 -1.000000000000000e+00
1317 751 -1.000000000000000e+00
1317 760 -2.000000000000000e+00
1317 982 -1.000000000000000e+00
1317 1317 1.000000000000000e+01
1318 19 -1.000000000000000e+00
1318 632 -1.000000000000000e+00
1318 664 -1.000000000000000e+00
1318 800 -1.000000000000000e+00
1318 869 -1.000000000000000e+00
1318 1245 -1.000000000000000e+00
1318 1318 7.000000000000000e+00
1319 78 -2.000000000000000e+00
1319 242 -1.000000000000000e+00
1319 243 -1.000000000000000e+00
1319 317 -1.000000000000000e+00
1319 361 -1.000000000000000e+00
1319 452 -1.000000000000000e+00
1319 674 -1.000000000000000e+00
1319 817 -1.000000000000000e+00
1319 1174 -1.000000000000000e+00
1319 1319 1.100000000000000e+01
1320 188 -1.000000000000000e+00
1320 391 -2.000000000000000e+00
1320 459 -1.000000000000000e+00
1320 489 -1.000000000000000e+00
1320 817 -2.000000000000000e+00
1320 903 -1.000000000000000e+00
1320 1320 8.000000000000000e+00
1321 79 -1.000000000000000e+00
1321 314 -1.000000000000000e+00
1321 403 -1.000000000000000e+00
1321 464 -1.000000000000000e+00
1321 503 -1.000000000000000e+00
1321 552 -1.000000000000000e+00
1321 743 -1.000000000000000e+00
1321 1219 -1.000000000000000e+00
1321 1321 8.000000000000000e+00
1322 173 -1.000000000000000e+00
1322 258 -1.000000000000000e+00
1322 666 -1.000000000000000e+00
1322 819 -1.000000000000000e+00
1322 988 -1.000000000000000e+00
1322 1060 -1.000000000000000e+00
1322 1195 -1.000000000000000e+00
1322 1322 1.000000000000000e+01
1323 30 -1.000000000000000e+00
1323 128 -1.000000000000000e+00
1323 210 -2.000000000000000e+00
1323 223 -2.000000000000000e+00
1323 284 -1.000000000000000e+00
1323 292 -1.000000000000000e+00
1323 495 -1.000000000000000e+00
1323 727 -1.000000000000000e+00
1323 806 -1.000000000000000e+00
1323 945 -1.000000000000000e+00
1323 1190 -1.000000000000000e+00
1323 1323 1.400000000000000e+01
1324 81 -1.000000000000000e+00
1324 86 -2.000000000000000e+00
1324 836 -2.000000000000000e+00
1324 909 -1.000000000000000e+00
1324 1311 -1.000000000000000e+00
1324 1324 7.000000000000000e+00
1325 103 -2.000000000000000e+00
1325 655 -2.000000000000000e+00
1325 658 -1.000000000000000e+00
1325 1116 -1.000000000000000e+00
1325 1268 -1.000000000000000e+00
1325 1317 -1.000000000000000e+00
1325 1325 9.000000000000000e+00
1326 305 -1.000000000000000e+00
1326 468 -1.000000000000000e+00
1326 545 -1.000000000000000e+00
1326 1087 -1.000000000000000e+00
1326 1326 4.000000000000000e+00
1327 285 -1.000000000000000e+00
1327 309 -1.000000000000000e+00
1327 816 -1.000000000000000e+00
1327 1028 -1.000000000000000e+00
1327 1182 -2.000000000000000e+00
1327 1327 8.000000000000000e+00
1328 288 -2.000000000000000e+00
1328 304 -1.000000000000000e+00
1328 693 -2.000000000000000e+00
1328 723 -1.000000000000000e+00
1328 1328 6.000000000000000e+00
1329 131 -1.000000000000000e+00
1329 223 -1.000000000000000e+00
1329 386 -1.000000000000000e+00
1329 457 -1.000000000000000e+00
1329 653 -1.000000000000000e+00
1329 987 -1.000000000000000e+00
1329 1002 -1.000000000000000e+00
1329 1329 7.000000000000000e+00
1330 519 -1.000000000000000e+00
1330 562 -1.000000000000000e+00
1330 1330 3.000000000000000e+00
1331 99 -1.000000000000000e+00
1331 223 -1.000000000000000e+00
1331 303 -1.000000000000000e+00
1331 651 -1.000000000000000e+00
1331 1331 7.000000000000000e+00
1332 194 -1.000000000000000e+00
1332 552 -1.000000000000000e+00
1332 1179 -1.000000000000000e+00
1332 1332 3.000000000000000e+00
1333 78 -1.000000000000000e+00
1333 208 -2.000000000000000e+00
1333 266 -1.000000000000000e+00
1333 397 -1.000000000000000e+00
1333 413 -1.000000000000000e+00
1333 582 -1.000000000000000e+00
1333 587 -1.000000000000000e+00
1333 1111 -1.000000000000000e+00
1333 1323 -1.000000000000000e+00
1333 1333 1.100000000000000e+01
1334 192 -1.000000000000000e+00
1334 234 -1.000000000000000e+00
1334 869 -2.000000000000000e+00
1334 1334 4.000000000000000e+00
1335 54 -1.000000000000000e+00
1335 213 -1.000000000000000e+00
1335 226 -1.000000000000000e+00
1335 317 -1.000000000000000e+00
1335 915 -1.000000000000000e+00
1335 930 -2.000000000000000e+00
1335 1064 -1.000000000000000e+00
1335 1083 -2.000000000000000e+00
1335 1335 1.200000000000000e+01
1336 1 -1.000000000000000e+00
1336 1336 1.000000000000000e+00
1337 303 -1.000000000000000e+00
1337 381 -1.000000000000000e+00
1337 1337 3.000000000000000e+00
1338 155 -1.000000000000000e+00
1338 236 -1.000000000000000e+00
1338 411 -1.000000000000000e+00
1338 577 -1.000000000000000e+00
1338 598 -1.000000000000000e+00
1338 865 -1.000000000000000e+00
1338 961 -2.000000000000000e+00
1338 1003 -1.000000000000000e+00
1338 1338 9.000000000000000e+00
1339 138 -1.000000000000000e+00
1339 557 -2.000000000000000e+00
1339 1274 -1.000000000000000e+00
1339 1339 5.000000000000000e+00
1340 113 -1.000000000000000e+00
1340 144 -1.000000000000000e+00
1340 248 -1.000000000000000e+00
1340 269 -1.000000000000000e+00
1340 303 -1.000000000000000e+00
1340 610 -2.000000000000000e+00
1340 617 -1.000000000000000e+00
1340 1008 -2.000000000000000e+00
1340 1295 -1.000000000000000e+00
1340 1340 1.100000000000000e+01
1341 435 -1.000000000000000e+00
1341 463 -1.000000000000000e+00
1341 705 -1.000000000000000e+00
1341 715 -2.000000000000000e+00
1341 768 -1.000000000000000e+00
1341 1341 6.000000000000000e+00
1342 96 -1.000000000000000e+00
1342 109 -1.000000000000000e+00
1342 291 -1.000000000000000e+00
1342 295 -2.000000000000000e+00
1342 440 -1.000000000000000e+00
1342 534 -2.000000000000000e+00
1342 697 -1.000000000000000e+00
1342 741 -1.000000000000000e+00
1342 834 -1.000000000000000e+00
1342 917 -1.000000000000000e+00
1342 953 -1.000000000000000e+00
1342 1134 -1.000000000000000e+00
1342 1166 -1.000000000000000e+00
1342 1342 1.700000000000000e+01
1343 156 -1.000000000000000e+00
1343 759 -1.000000000000000e+00
1343 781 -1.000000000000000e+00
1343 782 -1.000000000000000e+00
1343 1028 -1.000000000000000e+00
1343 1343 5.000000000000000e+00
1344 196 -2.000000000000000e+00
1344 284 -1.000000000000000e+00
1344 397 -1.000000000000000e+00
1344 473 -1.000000000000000e+00
1344 588 -2.000000000000000e+00
1344 833 -1.000000000000000e+00
1344 1180 -1.000000000000000e+00
1344 1344 1.100000000000000e+01
1345 25 -1.000000000000000e+00
1345 125 -1.000000000000000e+00
1345 321 -1.000000000000000e+00
1345 480 -1.000000000000000e+00
1345 632 -2.000000000000000e+00
1345 735 -1.000000000000000e+00
1345 736 -1.000000000000000e+00
1345 1017 -1.000000000000000e+00
1345 1245 -2.000000000000000e+00
1345 1318 -1.000000000000000e+00
1345 1345 1.200000000000000e+01
1346 156 -1.000000000000000e+00
1346 271 -1.000000000000000e+00
1346 346 -1.000000000000000e+00
1346 682 -2.000000000000000e+00
1346 895 -1.000000000000000e+00
1346 1168 -2.000000000000000e+00
1346 1337 -1.000000000000000e+00
1346 1346 1.100000000000000e+01
1347 195 -2.000000000000000e+00
1347 197 -1.000000000000000e+00
1347 340 -2.000000000000000e+00
1347 418 -1.000000000000000e+00
1347 543 -1.000000000000000e+00
1347 954 -1.000000000000000e+00
1347 956 -1.000000000000000e+00
1347 1081 -1.000000000000000e+00
1347 1347 1.100000000000000e+01
1348 137 -2.000000000000000e+00
1348 275 -1.000000000000000e+00
1348 878 -1.000000000000000e+00
1348 1187 -1.000000000000000e+00
1348 1348 6.000000000000000e+00
1349 308 -1.000000000000000e+00
1349 915 -1.000000000000000e+00
1349 996 -1.000000000000000e+00
1349 1223 -1.000000000000000e+00
1349 1349 4.000000000000000e+00
1350 315 -2.000000000000000e+00
1350 980 -2.000000000000000e+00
1350 1141 -1.000000000000000e+00
1350 1202 -1.000000000000000e+00
1350 1350 6.000000000000000e+00
1351 109 -1.000000000000000e+00
1351 216 -1.000000000000000e+00
1351 1233 -1.000000000000000e+00
1351 1314 -2.000000000000000e+00
1351 1330 -1.000000000000000e+00
1351 1351 7.000000000000000e+00
1352 14 -1.000000000000000e+00
1352 260 -1.000000000000000e+00
1352 307 -1.000000000000000e+00
1352 348 -1.000000000000000e+00
1352 415 -1.000000000000000e+00
1352 532 -1.000000000000000e+00
1352 594 -2.000000000000000e+00
1352 632 -1.000000000000000e+00
1352 779 -1.000000000000000e+00
1352 924 -1.000000000000000e+00
1352 1128 -1.000000000000000e+00
1352 1248 -1.000000000000000e+00
1352 1352 1.300000000000000e+01
1353 476 -1.000000000000000e+00
1353 773 -1.000000000000000e+00
1353 979 -2.000000000000000e+00
1353 1004 -1.000000000000000e+00
1353 1051 -1.000000000000000e+00
1353 1136 -1.000000000000000e+00
1353 1353 7.000000000000000e+00
1354 129 -1.000000000000000e+00
1354 510 -1.000000000000000e+00
1354 900 -1.000000000000000e+00
1354 1354 4.000000000000000e+00
1355 282 -1.000000000000000e+00
1355 444 -1.000000000000000e+00
1355 880 -2.000000000000000e+00
1355 1355 4.000000000000000e+00
1356 101 -1.000000000000000e+00
1356 1074 -1.000000000000000e+00
1356 1236 -2.000000000000000e+00
1356 1325 -1.000000000000000e+00
1356 1356 5.000000000000000e+00
1357 3 -1.000000000000000e+00
1357 16 -1.000000000000000e+00
1357 241 -2.000000000000000e+00
1357 307 -1.000000000000000e+00
1357 317 -1.000000000000000e+00
1357 448 -2.000000000000000e+00
1357 826 -1.000000000000000e+00
1357 1172 -1.000000000000000e+00
1357 1357 1.200000000000000e+01
1358 141 -1.000000000000000e+00
1358 524 -1.000000000000000e+00
1358 656 -1.000000000000000e+00
1358 658 -1.000000000000000e+00
1358 1114 -2.000000000000000e+00
1358 1173 -1.000000000000000e+00
1358 1358 8.000000000000000e+00
1359 303 -1.000000000000000e+00
1359 323 -1.000000000000000e+00
1359 731 -2.000000000000000e+00
1359 1095 -1.000000000000000e+00
1359 1112 -1.000000000000000e+00
1359 1351 -1.000000000000000e+00
1359 1359 8.000000000000000e+00
1360 6 -1.000000000000000e+00
1360 19 -2.000000000000000e+00
1360 188 -1.000000000000000e+00
1360 231 -1.000000000000000e+00
1360 510 -1.000000000000000e+00
1360 594 -1.000000000000000e+00
1360 1253 -1.000000000000000e+00
1360 1360 8.000000000000000e+00
1361 27 -2.000000000000000e+00
1361 426 -1.000000000000000e+00
1361 633 -1.000000000000000e+00
1361 1173 -1.000000000000000e+00
1361 1361 6.000000000000000e+00
1362 83 -1.000000000000000e+00
1362 85 -1.000000000000000e+00
1362 125 -1.000000000000000e+00
1362 383 -1.000000000000000e+00
1362 560 -2.000000000000000e+00
1362 755 -1.000000000000000e+00
1362 787 -2.000000000000000e+00
1362 1362 9.000000000000000e+00
1363 102 -2.000000000000000e+00
1363 168 -1.000000000000000e+00
1363 257 -1.000000000000000e+00
1363 671 -1.000000000000000e+00
1363 1363 5.000000000000000e+00
1364 420 -1.000000000000000e+00
1364 718 -1.000000000000000e+00
1364 744 -1.000000000000000e+00
1364 794 -1.000000000000000e+00
1364 1056 -2.000000000000000e+00
1364 1081 -1.000000000000000e+00
1364 1298 -1.000000000000000e+00
1364 1331 -1.000000000000000e+00
1364 1364 9.000000000000000e+00
1365 29 -1.000000000000000e+00
1365 111 -2.000000000000000e+00
1365 186 -1.000000000000000e+00
1365 444 -1.000000000000000e+00
1365 545 -1.000000000000000e+00
1365 990 -1.000000000000000e+00
1365 1109 -1.000000000000000e+00
1365 1303 -1.000000000000000e+00
1365 1365 9.000000000000000e+00
1366 26 -1.000000000000000e+00
1366 150 -1.000000000000000e+00
1366 158 -1.000000000000000e+00
1366 613 -2.000000000000000e+00
1366 733 -2.000000000000000e+00
1366 811 -1.000000000000000e+00
1366 1366 9.000000000000000e+00
1367 420 -1.000000000000000e+00
1367 484 -1.000000000000000e+00
1367 751 -2.000000000000000e+00
1367 955 -1.000000000000000e+00
1367 1101 -1.000000000000000e+00
1367 1216 -1.000000000000000e+00
1367 1222 -1.000000000000000e+00
1367 1367 1.000000000000000e+01
1368 51 -1.000000000000000e+00
1368 76 -2.000000000000000e+00
1368 253 -2.000000000000000e+00
1368 461 -1.000000000000000e+00
1368 588 -1.000000000000000e+00
1368 727 -1.000000000000000e+00
1368 898 -1.000000000000000e+00
1368 964 -1.000000000000000e+00
1368 1017 -1.000000000000000e+00
1368 1032 -1.000000000000000e+00
1368 1107 -1.000000000000000e+00
1368 1284 -1.000000000000000e+00
1368 1368 1.400000000000000e+01
1369 23 -2.000000000000000e+00
1369 310 -2.000000000000000e+00
1369 444 -1.000000000000000e+00
1369 634 -1.000000000000000e+00
1369 949 -1.000000000000000e+00
1369 1113 -1.000000000000000e+00
1369 1189 -1.000000000000000e+00
1369 1262 -1.000000000000000e+00
1369 1369 1.100000000000000e+01
1370 103 -1.000000000000000e+00
1370 481 -1.000000000000000e+00
1370 566 -2.000000000000000e+00
1370 793 -1.000000000000000e+00
1370 898 -1.000000000000000e+00
1370 1060 -2.000000000000000e+00
1370 1139 -1.000000000000000e+00
1370 1370 9.000000000000000e+00
1371 30 -1.000000000000000e+00
1371 32 -1.000000000000000e+00
1371 33 -1.000000000000000e+00
1371 35 -1.000000000000000e+00
1371 236 -1.000000000000000e+00
1371 438 -1.000000000000000e+00
1371 500 -1.000000000000000e+00
1371 962 -1.000000000000000e+00
1371 1223 -1.000000000000000e+00
1371 1371 1.000000000000000e+01
1372 223 -1.000000000000000e+00
1372 341 -1.000000000000000e+00
1372 396 -1.000000000000000e+00
1372 1023 -1.000000000000000e+00
1372 1041 -1.000000000000000e+00
1372 1068 -1.000000000000000e+00
1372 1173 -2.000000000000000e+00
1372 1357 -1.000000000000000e+00
1372 1372 1.000000000000000e+01
1373 183 -1.000000000000000e+00
1373 344 -1.000000000000000e+00
1373 723 -1.000000000000000e+00
1373 780 -1.000000000000000e+00
1373 888 -1.000000000000000e+00
1373 1102 -1.000000000000000e+00
1373 1123 -1.000000000000000e+00
1373 1189 -1.000000000000000e+00
1373 1373 8.000000000000000e+00
1374 284 -1.000000000000000e+00
1374 337 -1.000000000000000e+00
1374 1090 -1.000000000000000e+00
1374 1190 -1.000000000000000e+00
1374 1374 5.000000000000000e+00
1375 302 -2.000000000000000e+00
1375 980 -1.000000000000000e+00
1375 1158 -1.000000000000000e+00
1375 1375 4.000000000000000e+00
1376 24 -1.000000000000000e+00
1376 175 -1.000000000000000e+00
1376 644 -1.000000000000000e+00
1376 850 -2.000000000000000e+00
1376 991 -1.000000000000000e+00
1376 1018 -1.000000000000000e+00
1376 1308 -1.000000000000000e+00
1376 1376 8.000000000000000e+00
1377 76 -1.000000000000000e+00
1377 79 -1.000000000000000e+00
1377 294 -1.000000000000000e+00
1377 954 -1.000000000000000e+00
1377 1151 -2.000000000000000e+00
1377 1377 9.000000000000000e+00
1378 423 -1.000000000000000e+00
1378 1031 -1.000000000000000e+00
1378 1039 -1.000000000000000e+00
1378 1079 -2.000000000000000e+00
1378 1289 -1.000000000000000e+00
1378 1378 7.000000000000000e+00
1379 434 -1.000000000000000e+00
1379 513 -1.000000000000000e+00
1379 537 -1.000000000000000e+00
1379 547 -1.000000000000000e+00
1379 584 -1.000000000000000e+00
1379 733 -1.000000000000000e+00
1379 757 -2.000000000000000e+00
1379 816 -2.000000000000000e+00
1379 1017 -1.000000000000000e+00
1379 1160 -1.000000000000000e+00
1379 1232 -1.000000000000000e+00
1379 1359 -1.000000000000000e+00
1379 1379 1.400000000000000e+01
1380 95 -1.000000000000000e+00
1380 543 -2.000000000000000e+00
1380 618 -1.000000000000000e+00
1380 705 -2.000000000000000e+00
1380 1124 -1.000000000000000e+00
1380 1380 7.000000000000000e+00
1381 72 -1.000000000000000e+00
1381 237 -1.000000000000000e+00
1381 403 -1.000000000000000e+00
1381 468 -1.000000000000000e+00
1381 516 -1.000000000000000e+00
1381 709 -1.000000000000000e+00
1381 830 -1.000000000000000e+00
1381 1024 -1.000000000000000e+00
1381 1048 -2.000000000000000e+00
1381 1117 -1.000000000000000e+00
1381 1381 1.100000000000000e+01
1382 814 -1.000000000000000e+00
1382 976 -1.000000000000000e+00
1382 1090 -1.000000000000000e+00
1382 1190 -1.000000000000000e+00
1382 1382 4.000000000000000e+00
1383 15 -1.000000000000000e+00
1383 283 -1.000000000000000e+00
1383 304 -1.000000000000000e+00
1383 964 -1.000000000000000e+00
1383 1156 -1.000000000000000e+00
1383 1180 -1.000000000000000e+00
1383 1248 -2.000000000000000e+00
1383 1383 8.000000000000000e+00
1384 10 -2.000000000000000e+00
1384 89 -1.000000000000000e+00
1384 231 -1.000000000000000e+00
1384 504 -1.000000000000000e+00
1384 613 -1.000000000000000e+00
1384 744 -2.000000000000000e+00
1384 815 -1.000000000000000e+00
1384 929 -1.000000000000000e+00
1384 947 -1.000000000000000e+00
1384 1068 -1.000000000000000e+00
1384 1197 -1.000000000000000e+00
1384 1242 -1.000000000000000e+00
1384 1384 1.500000000000000e+01
1385 364 -1.000000000000000e+00
1385 450 -2.000000000000000e+00
1385 508 -1.000000000000000e+00
1385 547 -1.000000000000000e+00
1385 1059 -1.000000000000000e+00
1385 1184 -2.000000000000000e+00
1385 1186 -1.000000000000000e+00
1385 1385 9.000000000000000e+00
1386 312 -1.000000000000000e+00
1386 390 -1.000000000000000e+00
1386 476 -1.000000000000000e+00
1386 598 -2.000000000000000e+00
1386 739 -1.000000000000000e+00
1386 935 -1.000000000000000e+00
1386 977 -1.000000000000000e+00
1386 1007 -1.000000000000000e+00
1386 1139 -1.000000000000000e+00
1386 1386 1.100000000000000e+01
1387 660 -1.000000000000000e+00
1387 1050 -1.000000000000000e+00
1387 1075 -1.000000000000000e+00
1387 1387 3.000000000000000e+00
1388 12 -1.000000000000000e+00
1388 19 -1.000000000000000e+00
1388 288 -1.000000000000000e+00
1388 466 -1.000000000000000e+00
1388 919 -1.000000000000000e+00
1388 946 -1.000000000000000e+00
1388 1057 -1.000000000000000e+00
1388 1184 -1.000000000000000e+00
1388 1192 -1.000000000000000e+00
1388 1261 -2.000000000000000e+00
1388 1388 1.100000000000000e+01
1389 154 -1.000000000000000e+00
1389 405 -1.000000000000000e+00
1389 510 -1.000000000000000e+00
1389 534 -1.000000000000000e+00
1389 781 -2.000000000000000e+00
1389 1170 -1.000000000000000e+00
1389 1210 -1.000000000000000e+00
1389 1389 8.000000000000000e+00
1390 4 -2.000000000000000e+00
1390 153 -1.000000000000000e+00
1390 220 -2.000000000000000e+00
1390 480 -1.000000000000000e+00
1390 645 -1.000000000000000e+00
1390 709 -1.000000000000000e+00
1390 1093 -1.000000000000000e+00
1390 1132 -1.000000000000000e+00
1390 1159 -1.000000000000000e+00
1390 1171 -1.000000000000000e+00
1390 1390 1.300000000000000e+01
1391 514 -1.000000000000000e+00
1391 583 -1.000000000000000e+00
1391 605 -1.000000000000000e+00
1391 641 -2.000000000000000e+00
1391 898 -1.000000000000000e+00
1391 963 -1.000000000000000e+00
1391 1037 -1.000000000000000e+00
1391 1114 -1.000000000000000e+00
1391 1391 9.000000000000000e+00
1392 51 -1.000000000000000e+00
1392 270 -1.000000000000000e+00
1392 722 -1.000000000000000e+00
1392 766 -2.000000000000000e+00
1392 804 -2.000000000000000e+00
1392 1107 -1.000000000000000e+00
1392 1344 -1.000000000000000e+00
1392 1392 1.000000000000000e+01
1393 216 -1.000000000000000e+00
1393 311 -1.000000000000000e+00
1393 427 -1.000000000000000e+00
1393 612 -1.000000000000000e+00
1393 1083 -1.000000000000000e+00
1393 1393 5.000000000000000e+00
1394 140 -1.000000000000000e+00
1394 258 -2.000000000000000e+00
1394 745 -1.000000000000000e+00
1394 860 -1.000000000000000e+00
1394 1327 -1.000000000000000e+00
1394 1394 6.000000000000000e+00
1395 172 -1.000000000000000e+00
1395 364 -1.000000000000000e+00
1395 407 -1.000000000000000e+00
1395 438 -1.000000000000000e+00
1395 507 -2.000000000000000e+00
1395 617 -1.000000000000000e+00
1395 735 -1.000000000000000e+00
1395 1211 -1.000000000000000e+00
1395 1298 -1.000000000000000e+00
1395 1395 1.000000000000000e+01
1396 200 -1.000000000000000e+00
1396 629 -2.000000000000000e+00
1396 795 -1.000000000000000e+00
1396 974 -1.000000000000000e+00
1396 1040 -1.000000000000000e+00
1396 1268 -1.000000000000000e+00
1396 1396 7.000000000000000e+00
1397 461 -1.000000000000000e+00
1397 653 -1.000000000000000e+00
1397 845 -1.000000000000000e+00
1397 948 -1.000000000000000e+00
1397 1241 -1.000000000000000e+00
1397 1252 -1.000000000000000e+00
1397 1397 1.000000000000000e+01
1398 605 -2.000000000000000e+00
1398 660 -1.000000000000000e+00
1398 820 -1.000000000000000e+00
1398 884 -1.000000000000000e+00
1398 950 -1.000000000000000e+00
1398 957 -1.000000000000000e+00
1398 1163 -1.000000000000000e+00
1398 1185 -1.000000000000000e+00
1398 1201 -2.000000000000000e+00
1398 1367 -1.000000000000000e+00
1398 1398 1.200000000000000e+01
1399 6 -1.000000000000000e+00
1399 192 -2.000000000000000e+00
1399 320 -1.000000000000000e+00
1399 758 -1.000000000000000e+00
1399 994 -1.000000000000000e+00
1399 1399 7.000000000000000e+00
1400 359 -1.000000000000000e+00
1400 535 -2.000000000000000e+00
1400 712 -2.000000000000000e+00
1400 755 -1.000000000000000e+00
1400 898 -1.000000000000000e+00
1400 1292 -1.000000000000000e+00
1400 1400 8.000000000000000e+00
1401 91 -1.000000000000000e+00
1401 130 -1.000000000000000e+00
1401 154 -2.000000000000000e+00
1401 618 -1.000000000000000e+00
1401 827 -1.000000000000000e+00
1401 1055 -1.000000000000000e+00
1401 1213 -1.000000000000000e+00
1401 1401 8.000000000000000e+00
1402 29 -1.000000000000000e+00
1402 50 -1.000000000000000e+00
1402 58 -1.000000000000000e+00
1402 152 -1.000000000000000e+00
1402 628 -1.000000000000000e+00
1402 687 -1.000000000000000e+00
1402 707 -1.000000000000000e+00
1402 1296 -1.000000000000000e+00
1402 1303 -1.000000000000000e+00
1402 1346 -1.000000000000000e+00
1402 1402 1.000000000000000e+01
1403 253 -1.000000000000000e+00
1403 361 -1.000000000000000e+00
1403 1196 -2.000000000000000e+00
1403 1403 4.000000000000000e+00
1404 471 -1.000000000000000e+00
1404 544 -2.000000000000000e+00
1404 781 -1.000000000000000e+00
1404 886 -1.000000000000000e+00
1404 1287 -1.000000000000000e+00
1404 1404 7.000000000000000e+00
1405 39 -1.000000000000000e+00
1405 145 -1.000000000000000e+00
1405 498 -1.000000000000000e+00
1405 648 -2.000000000000000e+00
1405 984 -1.000000000000000e+00
1405 1066 -1.000000000000000e+00
1405 1405 7.000000000000000e+00
1406 532 -1.000000000000000e+00
1406 805 -1.000000000000000e+00
1406 842 -1.000000000000000e+00
1406 1203 -1.000000000000000e+00
1406 1406 5.000000000000000e+00
1407 29 -1.000000000000000e+00
1407 160 -1.000000000000000e+00
1407 212 -1.000000000000000e+00
1407 342 -1.000000000000000e+00
1407 572 -1.000000000000000e+00
1407 703 -2.000000000000000e+00
1407 731 -1.000000000000000e+00
1407 1042 -1.000000000000000e+00
1407 1069 -1.000000000000000e+00
1407 1407 1.000000000000000e+01
1408 760 -1.000000000000000e+00
1408 830 -1.000000000000000e+00
1408 834 -1.000000000000000e+00
1408 942 -1.000000000000000e+00
1408 1397 -2.000000000000000e+00
1408 1408 6.000000000000000e+00
1409 417 -1.000000000000000e+00
1409 496 -2.000000000000000e+00
1409 549 -1.000000000000000e+00
1409 602 -1.000000000000000e+00
1409 786 -1.000000000000000e+00
1409 973 -1.000000000000000e+00
1409 1386 -1.000000000000000e+00
1409 1409 8.000000000000000e+00
1410 27 -1.000000000000000e+00
1410 284 -1.000000000000000e+00
1410 745 -2.000000000000000e+00
1410 819 -1.000000000000000e+00
1410 959 -1.000000000000000e+00
1410 1221 -1.000000000000000e+00
1410 1234 -2.000000000000000e+00
1410 1339 -1.000000000000000e+00
1410 1344 -1.000000000000000e+00
1410 1410 1.200000000000000e+01
1411 105 -1.000000000000000e+00
1411 350 -2.000000000000000e+00
1411 355 -1.000000000000000e+00
1411 600 -1.000000000000000e+00
1411 1131 -1.000000000000000e+00
1411 1176 -1.000000000000000e+00
1411 1181 -1.000000000000000e+00
1411 1411 9.000000000000000e+00
1412 118 -1.000000000000000e+00
1412 471 -1.000000000000000e+00
1412 754 -1.000000000000000e+00
1412 1017 -1.000000000000000e+00
1412 1252 -1.000000000000000e+00
1412 1412 7.000000000000000e+00
1413 266 -2.000000000000000e+00
1413 350 -1.000000000000000e+00
1413 434 -1.000000000000000e+00
1413 530 -1.000000000000000e+00
1413 624 -1.000000000000000e+00
1413 873 -1.000000000000000e+00
1413 973 -1.000000000000000e+00
1413 1035 -2.000000000000000e+00
1413 1244 -1.000000000000000e+00
1413 1266 -1.000000000000000e+00
1413 1372 -1.000000000000000e+00
1413 1413 1.300000000000000e+01
1414 21 -1.000000000000000e+00
1414 523 -1.000000000000000e+00
1414 851 -2.000000000000000e+00
1414 960 -2.000000000000000e+00
1414 1164 -1.000000000000000e+00
1414 1317 -1.000000000000000e+00
1414 1414 8.000000000000000e+00
1415 89 -1.000000000000000e+00
1415 239 -1.000000000000000e+00
1415 303 -1.000000000000000e+00
1415 624 -1.000000000000000e+00
1415 1415 4.000000000000000e+00
1416 182 -1.000000000000000e+00
1416 539 -1.000000000000000e+00
1416 658 -2.000000000000000e+00
1416 747 -1.000000000000000e+00
1416 785 -1.000000000000000e+00
1416 1143 -1.000000000000000e+00
1416 1416 9.000000000000000e+00
1417 247 -1.000000000000000e+00
1417 474 -1.000000000000000e+00
1417 899 -2.000000000000000e+00
1417 1188 -2.000000000000000e+00
1417 1417 6.000000000000000e+00
1418 18 -1.000000000000000e+00
1418 208 -1.000000000000000e+00
1418 214 -2.000000000000000e+00
1418 385 -2.000000000000000e+00
1418 673 -1.000000000000000e+00
1418 799 -1.000000000000000e+00
1418 840 -1.000000000000000e+00
1418 1190 -1.000000000000000e+00
1418 1392 -1.000000000000000e+00
1418 1418 1.300000000000000e+01
1419 86 -1.000000000000000e+00
1419 162 -1.000000000000000e+00
1419 174 -1.000000000000000e+00
1419 263 -1.000000000000000e+00
1419 478 -1.000000000000000e+00
1419 919 -1.000000000000000e+00
1419 985 -2.000000000000000e+00
1419 1419 8.000000000000000e+00
1420 46 -1.000000000000000e+00
1420 181 -1.000000000000000e+00
1420 344 -1.000000000000000e+00
1420 384 -1.000000000000000e+00
1420 556 -1.000000000000000e+00
1420 826 -2.000000000000000e+00
1420 1112 -2.000000000000000e+00
1420 1251 -1.000000000000000e+00
1420 1420 1.100000000000000e+01
1421 58 -1.000000000000000e+00
1421 59 -1.000000000000000e+00
1421 122 -1.000000000000000e+00
1421 157 -1.000000000000000e+00
1421 574 -1.000000000000000e+00
1421 933 -1.000000000000000e+00
1421 1241 -2.000000000000000e+00
1421 1421 9.000000000000000e+00
1422 412 -1.000000000000000e+00
1422 449 -1.000000000000000e+00
1422 624 -2.000000000000000e+00
1422 635 -1.000000000000000e+00
1422 963 -2.000000000000000e+00
1422 1404 -1.000000000000000e+00
1422 1422 8.000000000000000e+00
1423 263 -1.000000000000000e+00
1423 617 -1.000000000000000e+00
1423 709 -1.000000000000000e+00
1423 746 -1.000000000000000e+00
1423 906 -1.000000000000000e+00
1423 980 -1.000000000000000e+00
1423 1198 -2.000000000000000e+00
1423 1423 8.000000000000000e+00
1424 180 -1.000000000000000e+00
1424 216 -1.000000000000000e+00
1424 226 -1.000000000000000e+00
1424 376 -2.000000000000000e+00
1424 427 -2.000000000000000e+00
1424 453 -1.000000000000000e+00
1424 719 -1.000000000000000e+00
1424 937 -1.000000000000000e+00
1424 998 -1.000000000000000e+00
1424 1091 -1.000000000000000e+00
1424 1371 -1.000000000000000e+00
1424 1397 -1.000000000000000e+00
1424 1424 1.500000000000000e+01
1425 429 -1.000000000000000e+00
1425 445 -1.000000000000000e+00
1425 691 -1.000000000000000e+00
1425 770 -1.000000000000000e+00
1425 1089 -1.000000000000000e+00
1425 1266 -2.000000000000000e+00
1425 1425 8.000000000000000e+00
1426 97 -1.000000000000000e+00
1426 154 -1.000000000000000e+00
1426 180 -1.000000000000000e+00
1426 308 -2.000000000000000e+00
1426 870 -1.000000000000000e+00
1426 899 -1.000000000000000e+00
1426 997 -1.000000000000000e+00
1426 1023 -2.000000000000000e+00
1426 1119 -1.000000000000000e+00
1426 1426 1.100000000000000e+01
1427 168 -2.000000000000000e+00
1427 887 -1.000000000000000e+00
1427 952 -1.000000000000000e+00
1427 1004 -1.000000000000000e+00
1427 1094 -1.000000000000000e+00
1427 1143 -1.000000000000000e+00
1427 1286 -2.000000000000000e+00
1427 1427 9.000000000000000e+00
1428 2 -1.000000000000000e+00
1428 16 -1.000000000000000e+00
1428 54 -2.000000000000000e+00
1428 102 -1.000000000000000e+00
1428 521 -1.000000000000000e+00
1428 695 -2.000000000000000e+00
1428 986 -1.000000000000000e+00
1428 1156 -1.000000000000000e+00
1428 1348 -1.000000000000000e+00
1428 1428 1.100000000000000e+01
1429 233 -1.000000000000000e+00
1429 454 -1.000000000000000e+00
1429 709 -1.000000000000000e+00
1429 1429 3.000000000000000e+00
1430 53 -2.000000000000000e+00
1430 127 -1.000000000000000e+00
1430 228 -1.000000000000000e+00
1430 1056 -1.000000000000000e+00
1430 1199 -1.000000000000000e+00
1430 1430 6.000000000000000e+00
1431 249 -1.000000000000000e+00
1431 407 -1.000000000000000e+00
1431 561 -1.000000000000000e+00
1431 884 -1.000000000000000e+00
1431 1142 -1.000000000000000e+00
1431 1155 -2.000000000000000e+00
1431 1424 -1.000000000000000e+00
1431 1431 8.000000000000000e+00
1432 207 -2.000000000000000e+00
1432 384 -1.000000000000000e+00
1432 554 -2.000000000000000e+00
1432 636 -1.000000000000000e+00
1432 692 -1.000000000000000e+00
1432 866 -1.000000000000000e+00
1432 946 -1.000000000000000e+00
1432 1019 -1.000000000000000e+00
1432 1028 -1.000000000000000e+00
1432 1132 -1.000000000000000e+00
1432 1241 -1.000000000000000e+00
1432 1432 1.400000000000000e+01
1433 156 -1.000000000000000e+00
1433 200 -1.000000000000000e+00
1433 209 -1.000000000000000e+00
1433 459 -1.000000000000000e+00
1433 506 -1.000000000000000e+00
1433 629 -2.000000000000000e+00
1433 667 -1.000000000000000e+00
1433 769 -1.000000000000000e+00
1433 1105 -1.000000000000000e+00
1433 1172 -1.000000000000000e+00
1433 1215 -1.000000000000000e+00
1433 1366 -1.000000000000000e+00
1433 1433 1.300000000000000e+01
1434 5 -2.000000000000000e+00
1434 8 -2.000000000000000e+00
1434 49 -1.000000000000000e+00
1434 89 -1.000000000000000e+00
1434 129 -1.000000000000000e+00
1434 150 -1.000000000000000e+00
1434 541 -1.000000000000000e+00
1434 960 -1.000000000000000e+00
1434 1218 -1.000000000000000e+00
1434 1434 1.100000000000000e+01
1435 109 -1.000000000000000e+00
1435 559 -1.000000000000000e+00
1435 597 -2.000000000000000e+00
1435 882 -2.000000000000000e+00
1435 1073 -1.000000000000000e+00
1435 1267 -1.000000000000000e+00
1435 1432 -1.000000000000000e+00
1435 1435 9.000000000000000e+00
1436 82 -1.000000000000000e+00
1436 92 -1.000000000000000e+00
1436 106 -1.000000000000000e+00
1436 379 -2.000000000000000e+00
1436 482 -1.000000000000000e+00
1436 554 -1.000000000000000e+00
1436 606 -1.000000000000000e+00
1436 628 -1.000000000000000e+00
1436 653 -2.000000000000000e+00
1436 690 -1.000000000000000e+00
1436 770 -1.000000000000000e+00
1436 864 -1.000000000000000e+00
1436 963 -1.000000000000000e+00
1436 1280 -1.000000000000000e+00
1436 1283 -1.000000000000000e+00
1436 1436 1.800000000000000e+01
1437 587 -1.000000000000000e+00
1437 803 -1.000000000000000e+00
1437 835 -2.000000000000000e+00
1437 858 -2.000000000000000e+00
1437 995 -1.000000000000000e+00
1437 1437 7.000000000000000e+00
1438 108 -2.000000000000000e+00
1438 183 -1.000000000000000e+00
1438 615 -1.000000000000000e+00
1438 747 -1.000000000000000e+00
1438 797 -1.000000000000000e+00
1438 1110 -1.000000000000000e+00
1438 1177 -1.000000000000000e+00
1438 1267 -1.000000000000000e+00
1438 1327 -1.000000000000000e+00
1438 1438 1.000000000000000e+01
1439 30 -1.000000000000000e+00
1439 31 -1.000000000000000e+00
1439 380 -1.000000000000000e+00
1439 736 -1.000000000000000e+00
1439 745 -1.000000000000000e+00
1439 1105 -1.000000000000000e+00
1439 1331 -2.000000000000000e+00
1439 1439 8.000000000000000e+00
1440 179 -2.000000000000000e+00
1440 240 -1.000000000000000e+00
1440 747 -1.000000000000000e+00
1440 799 -1.000000000000000e+00
1440 913 -1.000000000000000e+00
1440 919 -1.000000000000000e+00
1440 1148 -1.000000000000000e+00
1440 1188 -1.000000000000000e+00
1440 1314 -1.000000000000000e+00
1440 1440 1.000000000000000e+01
1441 47 -2.000000000000000e+00
1441 155 -1.000000000000000e+00
1441 1421 -1.000000000000000e+00
1441 1441 4.000000000000000e+00
1442 113 -1.000000000000000e+00
1442 548 -2.000000000000000e+00
1442 832 -1.000000000000000e+00
1442 1278 -1.000000000000000e+00
1442 1418 -1.000000000000000e+00
1442 1442 6.000000000000000e+00
1443 176 -2.000000000000000e+00
1443 263 -1.000000000000000e+00
1443 437 -1.000000000000000e+00
1443 482 -1.000000000000000e+00
1443 710 -1.000000000000000e+00
1443 740 -1.000000000000000e+00
1443 825 -2.000000000000000e+00
1443 834 -1.000000000000000e+00
1443 1049 -1.000000000000000e+00
1443 1051 -1.000000000000000e+00
1443 1399 -1.000000000000000e+00
1443 1443 1.300000000000000e+01
1444 15 -1.000000000000000e+00
1444 20 -1.000000000000000e+00
1444 94 -1.000000000000000e+00
1444 469 -1.000000000000000e+00
1444 603 -1.000000000000000e+00
1444 638 -1.000000000000000e+00
1444 996 -1.000000000000000e+00
1444 1279 -2.000000000000000e+00
1444 1358 -1.000000000000000e+00
1444 1444 1.000000000000000e+01
1445 283 -1.000000000000000e+00
1445 571 -1.000000000000000e+00
1445 862 -1.000000000000000e+00
1445 945 -1.000000000000000e+00
1445 1199 -1.000000000000000e+00
1445 1436 -1.000000000000000e+00
1445 1445 6.000000000000000e+00
1446 233 -1.000000000000000e+00
1446 246 -1.000000000000000e+00
1446 387 -2.000000000000000e+00
1446 542 -1.000000000000000e+00
1446 544 -1.000000000000000e+00
1446 743 -2.000000000000000e+00
1446 1099 -1.000000000000000e+00
1446 1103 -1.000000000000000e+00
1446 1246 -1.000000000000000e+00
1446 1446 1.100000000000000e+01
1447 370 -1.000000000000000e+00
1447 513 -1.000000000000000e+00
1447 579 -1.000000000000000e+00
1447 630 -2.000000000000000e+00
1447 962 -1.000000000000000e+00
1447 1041 -1.000000000000000e+00
1447 1139 -2.000000000000000e+00
1447 1195 -1.000000000000000e+00
1447 1447 1.000000000000000e+01
1448 14 -1.000000000000000e+00
1448 209 -1.000000000000000e+00
1448 286 -2.000000000000000e+00
1448 315 -1.000000000000000e+00
1448 881 -1.000000000000000e+00
1448 1123 -1.000000000000000e+00
1448 1448 7.000000000000000e+00
1449 86 -1.000000000000000e+00
1449 447 -1.000000000000000e+00
1449 466 -1.000000000000000e+00
1449 470 -1.000000000000000e+00
1449 704 -1.000000000000000e+00
1449 830 -1.000000000000000e+00
1449 973 -1.000000000000000e+00
1449 1046 -2.000000000000000e+00
1449 1088 -1.000000000000000e+00
1449 1143 -1.000000000000000e+00
1449 1377 -1.000000000000000e+00
1449 1449 1.200000000000000e+01
1450 35 -1.000000000000000e+00
1450 61 -1.000000000000000e+00
1450 194 -1.000000000000000e+00
1450 284 -2.000000000000000e+00
1450 351 -1.000000000000000e+00
1450 1046 -1.000000000000000e+00
1450 1090 -2.000000000000000e+00
1450 1249 -1.000000000000000e+00
1450 1266 -1.000000000000000e+00
1450 1342 -1.000000000000000e+00
1450 1374 -1.000000000000000e+00
1450 1450 1.300000000000000e+01
1451 153 -1.000000000000000e+00
1451 263 -1.000000000000000e+00
1451 326 -2.000000000000000e+00
1451 578 -1.000000000000000e+00
1451 705 -1.000000000000000e+00
1451 867 -1.000000000000000e+00
1451 908 -1.000000000000000e+00
1451 1008 -1.000000000000000e+00
1451 1451 9.000000000000000e+00
1452 258 -1.000000000000000e+00
1452 742 -1.000000000000000e+00
1452 957 -2.000000000000000e+00
1452 1066 -1.000000000000000e+00
1452 1178 -1.000000000000000e+00
1452 1452 7.000000000000000e+00
1453 62 -1.000000000000000e+00
1453 224 -1.000000000000000e+00
1453 318 -1.000000000000000e+00
1453 339 -1.000000000000000e+00
1453 576 -1.000000000000000e+00
1453 1270 -1.000000000000000e+00
1453 1333 -1.000000000000000e+00
1453 1453 7.000000000000000e+00
1454 272 -2.000000000000000e+00
1454 668 -2.000000000000000e+00
1454 842 -1.000000000000000e+00
1454 907 -1.000000000000000e+00
1454 945 -1.000000000000000e+00
1454 1286 -1.000000000000000e+00
1454 1454 9.000000000000000e+00
1455 91 -1.000000000000000e+00
1455 149 -1.000000000000000e+00
1455 366 -1.000000000000000e+00
1455 576 -1.000000000000000e+00
1455 636 -1.000000000000000e+00
1455 790 -1.000000000000000e+00
1455 871 -2.000000000000000e+00
1455 1357 -1.000000000000000e+00
1455 1455 9.000000000000000e+00
1456 13 -1.000000000000000e+00
1456 36 -1.000000000000000e+00
1456 182 -1.000000000000000e+00
1456 199 -1.000000000000000e+00
1456 259 -1.000000000000000e+00
1456 274 -1.000000000000000e+00
1456 317 -1.000000000000000e+00
1456 392 -1.000000000000000e+00
1456 648 -1.000000000000000e+00
1456 746 -1.000000000000000e+00
1456 881 -1.000000000000000e+00
1456 1077 -1.000000000000000e+00
1456 1094 -1.000000000000000e+00
1456 1153 -2.000000000000000e+00
1456 1319 -1.000000000000000e+00
1456 1456 1.800000000000000e+01
1457 35 -1.000000000000000e+00
1457 52 -2.000000000000000e+00
1457 385 -1.000000000000000e+00
1457 682 -1.000000000000000e+00
1457 776 -1.000000000000000e+00
1457 1282 -1.000000000000000e+00
1457 1397 -1.000000000000000e+00
1457 1457 8.000000000000000e+00
1458 203 -1.000000000000000e+00
1458 233 -1.000000000000000e+00
1458 569 -1.000000000000000e+00
1458 816 -1.000000000000000e+00
1458 861 -1.000000000000000e+00
1458 879 -2.000000000000000e+00
1458 1002 -1.000000000000000e+00
1458 1458 8.000000000000000e+00
1459 188 -1.000000000000000e+00
1459 818 -1.000000000000000e+00
1459 972 -2.000000000000000e+00
1459 1002 -2.000000000000000e+00
1459 1272 -1.000000000000000e+00
1459 1278 -1.000000000000000e+00
1459 1459 8.000000000000000e+00
1460 19 -1.000000000000000e+00
1460 63 -1.000000000000000e+00
1460 249 -1.000000000000000e+00
1460 324 -1.000000000000000e+00
1460 364 -1.000000000000000e+00
1460 459 -1.000000000000000e+00
1460 658 -1.000000000000000e+00
1460 1056 -1.000000000000000e+00
1460 1335 -1.000000000000000e+00
1460 1416 -2.000000000000000e+00
1460 1460 1.100000000000000e+01
1461 164 -1.000000000000000e+00
1461 243 -1.000000000000000e+00
1461 295 -1.000000000000000e+00
1461 492 -1.000000000000000e+00
1461 632 -1.000000000000000e+00
1461 724 -2.000000000000000e+00
1461 1311 -1.000000000000000e+00
1461 1425 -1.000000000000000e+00
1461 1461 9.000000000000000e+00
1462 162 -2.000000000000000e+00
1462 194 -1.000000000000000e+00
1462 771 -1.000000000000000e+00
1462 817 -1.000000000000000e+00
1462 840 -1.000000000000000e+00
1462 865 -1.000000000000000e+00
1462 887 -1.000000000000000e+00
1462 1121 -1.000000000000000e+00
1462 1462 9.000000000000000e+00
1463 294 -1.000000000000000e+00
1463 828 -2.000000000000000e+00
1463 838 -1.000000000000000e+00
1463 1342 -1.000000000000000e+00
1463 1463 5.000000000000000e+00
1464 839 -1.000000000000000e+00
1464 944 -1.000000000000000e+00
1464 1116 -1.000000000000000e+00
1464 1210 -2.000000000000000e+00
1464 1288 -1.000000000000000e+00
1464 1420 -1.000000000000000e+00
1464 1464 7.000000000000000e+00
1465 195 -1.000000000000000e+00
1465 317 -1.000000000000000e+00
1465 340 -1.000000000000000e+00
1465 527 -1.000000000000000e+00
1465 582 -1.000000000000000e+00
1465 1100 -1.000000000000000e+00
1465 1207 -1.000000000000000e+00
1465 1347 -1.000000000000000e+00
1465 1384 -1.000000000000000e+00
1465 1465 9.000000000000000e+00
1466 362 -2.000000000000000e+00
1466 529 -1.000000000000000e+00
1466 797 -2.000000000000000e+00
1466 824 -1.000000000000000e+00
1466 976 -1.000000000000000e+00
1466 1466 7.000000000000000e+00
1467 75 -2.000000000000000e+00
1467 202 -1.000000000000000e+00
1467 497 -1.000000000000000e+00
1467 509 -1.000000000000000e+00
1467 763 -1.000000000000000e+00
1467 962 -2.000000000000000e+00
1467 1129 -1.000000000000000e+00
1467 1467 9.000000000000000e+00
1468 13 -1.000000000000000e+00
1468 219 -1.000000000000000e+00
1468 658 -1.000000000000000e+00
1468 710 -2.000000000000000e+00
1468 1152 -1.000000000000000e+00
1468 1168 -1.000000000000000e+00
1468 1253 -1.000000000000000e+00
1468 1377 -1.000000000000000e+00
1468 1468 9.000000000000000e+00
1469 76 -1.000000000000000e+00
1469 314 -1.000000000000000e+00
1469 364 -1.000000000000000e+00
1469 524 -1.000000000000000e+00
1469 572 -1.000000000000000e+00
1469 632 -1.000000000000000e+00
1469 633 -1.000000000000000e+00
1469 664 -2.000000000000000e+00
1469 713 -1.000000000000000e+00
1469 782 -1.000000000000000e+00
1469 813 -1.000000000000000e+00
1469 1226 -1.000000000000000e+00
1469 1469 1.300000000000000e+01
1470 245 -1.000000000000000e+00
1470 315 -1.000000000000000e+00
1470 438 -1.000000000000000e+00
1470 760 -1.000000000000000e+00
1470 983 -2.000000000000000e+00
1470 990 -1.000000000000000e+00
1470 1090 -1.000000000000000e+00
1470 1219 -1.000000000000000e+00
1470 1265 -1.000000000000000e+00
1470 1280 -1.000000000000000e+00
1470 1470 1.100000000000000e+01
1471 154 -1.000000000000000e+00
1471 182 -1.000000000000000e+00
1471 235 -2.000000000000000e+00
1471 241 -1.000000000000000e+00
1471 295 -1.000000000000000e+00
1471 360 -1.000000000000000e+00
1471 448 -1.000000000000000e+00
1471 626 -1.000000000000000e+00
1471 646 -1.000000000000000e+00
1471 843 -1.000000000000000e+00
1471 912 -1.000000000000000e+00
1471 929 -1.000000000000000e+00
1471 1471 1.300000000000000e+01
1472 253 -1.000000000000000e+00
1472 396 -2.000000000000000e+00
1472 600 -1.000000000000000e+00
1472 925 -1.000000000000000e+00
1472 1104 -1.000000000000000e+00
1472 1411 -1.000000000000000e+00
1472 1472 7.000000000000000e+00
1473 78 -1.000000000000000e+00
1473 101 -1.000000000000000e+00
1473 124 -2.000000000000000e+00
1473 289 -1.000000000000000e+00
1473 451 -1.000000000000000e+00
1473 706 -1.000000000000000e+00
1473 1097 -1.000000000000000e+00
1473 1473 8.000000000000000e+00
1474 39 -1.000000000000000e+00
1474 471 -2.000000000000000e+00
1474 592 -1.000000000000000e+00
1474 1412 -2.000000000000000e+00
1474 1474 6.000000000000000e+00
1475 7 -1.000000000000000e+00
1475 160 -1.000000000000000e+00
1475 323 -2.000000000000000e+00
1475 446 -1.000000000000000e+00
1475 529 -1.000000000000000e+00
1475 640 -1.000000000000000e+00
1475 1218 -1.000000000000000e+00
1475 1255 -1.000000000000000e+00
1475 1263 -1.000000000000000e+00
1475 1475 1.100000000000000e+01
1476 28 -1.000000000000000e+00
1476 105 -1.000000000000000e+00
1476 241 -1.000000000000000e+00
1476 426 -2.000000000000000e+00
1476 563 -1.000000000000000e+00
1476 1104 -1.000000000000000e+00
1476 1140 -1.000000000000000e+00
1476 1476 9.000000000000000e+00
1477 21 -2.000000000000000e+00
1477 81 -1.000000000000000e+00
1477 120 -1.000000000000000e+00
1477 250 -2.000000000000000e+00
1477 622 -1.000000000000000e+00
1477 642 -1.000000000000000e+00
1477 666 -1.000000000000000e+00
1477 796 -1.000000000000000e+00
1477 915 -1.000000000000000e+00
1477 1001 -1.000000000000000e+00
1477 1196 -1.000000000000000e+00
1477 1216 -1.000000000000000e+00
1477 1477 1.400000000000000e+01
1478 4 -1.000000000000000e+00
1478 580 -1.000000000000000e+00
1478 583 -1.000000000000000e+00
1478 635 -1.000000000000000e+00
1478 683 -1.000000000000000e+00
1478 737 -1.000000000000000e+00
1478 1008 -1.000000000000000e+00
1478 1295 -1.000000000000000e+00
1478 1390 -1.000000000000000e+00
1478 1478 9.000000000000000e+00
1479 402 -2.000000000000000e+00
1479 629 -1.000000000000000e+00
1479 920 -1.000000000000000e+00
1479 1071 -1.000000000000000e+00
1479 1189 -1.000000000000000e+00
1479 1200 -1.000000000000000e+00
1479 1346 -1.000000000000000e+00
1479 1479 8.000000000000000e+00
1480 316 -1.000000000000000e+00
1480 425 -2.000000000000000e+00
1480 544 -1.000000000000000e+00
1480 577 -1.000000000000000e+00
1480 582 -1.000000000000000e+00
1480 666 -1.000000000000000e+00
1480 870 -1.000000000000000e+00
1480 895 -1.000000000000000e+00
1480 994 -1.000000000000000e+00
1480 1015 -1.000000000000000e+00
1480 1097 -1.000000000000000e+00
1480 1131 -1.000000000000000e+00
1480 1270 -1.000000000000000e+00
1480 1361 -1.000000000000000e+00
1480 1480 1.500000000000000e+01
1481 351 -1.000000000000000e+00
1481 581 -2.000000000000000e+00
1481 1095 -1.000000000000000e+00
1481 1481 4.000000000000000e+00
1482 18 -2.000000000000000e+00
1482 20 -1.000000000000000e+00
1482 273 -2.000000000000000e+00
1482 323 -1.000000000000000e+00
1482 414 -1.000000000000000e+00
1482 427 -1.000000000000000e+00
1482 534 -1.000000000000000e+00
1482 535 -1.000000000000000e+00
1482 770 -1.000000000000000e+00
1482 862 -1.000000000000000e+00
1482 1482 1.200000000000000e+01
1483 64 -2.000000000000000e+00
1483 577 -1.000000000000000e+00
1483 771 -1.000000000000000e+00
1483 868 -1.000000000000000e+00
1483 935 -1.000000000000000e+00
1483 1052 -2.000000000000000e+00
1483 1228 -1.000000000000000e+00
1483 1406 -1.000000000000000e+00
1483 1483 1.000000000000000e+01
1484 200 -1.000000000000000e+00
1484 294 -1.000000000000000e+00
1484 386 -1.000000000000000e+00
1484 423 -1.000000000000000e+00
1484 437 -1.000000000000000e+00
1484 803 -1.000000000000000e+00
1484 1067 -1.000000000000000e+00
1484 1178 -1.000000000000000e+00
1484 1484 8.000000000000000e+00
1485 407 -1.000000000000000e+00
1485 1009 -2.000000000000000e+00
1485 1259 -1.000000000000000e+00
1485 1308 -1.000000000000000e+00
1485 1485 5.000000000000000e+00
1486 20 -1.000000000000000e+00
1486 100 -1.000000000000000e+00
1486 101 -1.000000000000000e+00
1486 374 -1.000000000000000e+00
1486 460 -1.000000000000000e+00
1486 511 -1.000000000000000e+00
1486 647 -1.000000000000000e+00
1486 837 -1.000000000000000e+00
1486 1103 -1.000000000000000e+00
1486 1105 -1.000000000000000e+00
1486 1113 -1.000000000000000e+00
1486 1133 -1.000000000000000e+00
1486 1273 -1.000000000000000e+00
1486 1486 1.300000000000000e+01
1487 231 -2.000000000000000e+00
1487 269 -2.000000000000000e+00
1487 279 -1.000000000000000e+00
1487 370 -1.000000000000000e+00
1487 392 -1.000000000000000e+00
1487 941 -1.000000000000000e+00
1487 973 -1.000000000000000e+00
1487 1225 -1.000000000000000e+00
1487 1475 -1.000000000000000e+00
1487 1476 -1.000000000000000e+00
1487 1487 1.200000000000000e+01
1488 260 -1.000000000000000e+00
1488 284 -1.000000000000000e+00
1488 293 -2.000000000000000e+00
1488 314 -2.000000000000000e+00
1488 401 -1.000000000000000e+00
1488 505 -1.000000000000000e+00
1488 514 -1.000000000000000e+00
1488 1294 -1.000000000000000e+00
1488 1378 -1.000000000000000e+00
1488 1452 -1.000000000000000e+00
1488 1488 1.200000000000000e+01
1489 316 -2.000000000000000e+00
1489 407 -1.000000000000000e+00
1489 481 -1.000000000000000e+00
1489 702 -1.000000000000000e+00
1489 1140 -1.000000000000000e+00
1489 1235 -2.000000000000000e+00
1489 1240 -1.000000000000000e+00
1489 1354 -1.000000000000000e+00
1489 1377 -1.000000000000000e+00
1489 1418 -1.000000000000000e+00
1489 1489 1.200000000000000e+01
1490 90 -2.000000000000000e+00
1490 254 -2.000000000000000e+00
1490 672 -1.000000000000000e+00
1490 771 -1.000000000000000e+00
1490 885 -1.000000000000000e+00
1490 1490 7.000000000000000e+00
1491 370 -1.000000000000000e+00
1491 427 -1.000000000000000e+00
1491 432 -1.000000000000000e+00
1491 497 -1.000000000000000e+00
1491 834 -1.000000000000000e+00
1491 918 -1.000000000000000e+00
1491 1028 -1.000000000000000e+00
1491 1153 -1.000000000000000e+00
1491 1367 -1.000000000000000e+00
1491 1369 -1.000000000000000e+00
1491 1456 -2.000000000000000e+00
1491 1491 1.200000000000000e+01
1492 555 -1.000000000000000e+00
1492 619 -1.000000000000000e+00
1492 733 -1.000000000000000e+00
1492 798 -1.000000000000000e+00
1492 841 -1.000000000000000e+00
1492 901 -1.000000000000000e+00
1492 916 -1.000000000000000e+00
1492 1038 -1.000000000000000e+00
1492 1492 8.000000000000000e+00
1493 198 -2.000000000000000e+00
1493 233 -2.000000000000000e+00
1493 237 -1.000000000000000e+00
1493 257 -1.000000000000000e+00
1493 283 -1.000000000000000e+00
1493 307 -1.000000000000000e+00
1493 409 -1.000000000000000e+00
1493 601 -1.000000000000000e+00
1493 665 -1.000000000000000e+00
1493 730 -1.000000000000000e+00
1493 897 -1.000000000000000e+00
1493 1177 -1.000000000000000e+00
1493 1238 -1.000000000000000e+00
1493 1322 -1.000000000000000e+00
1493 1493 1.600000000000000e+01
1494 2 -1.000000000000000e+00
1494 153 -1.000000000000000e+00
1494 189 -1.000000000000000e+00
1494 310 -1.000000000000000e+00
1494 420 -1.000000000000000e+00
1494 501 -1.000000000000000e+00
1494 741 -1.000000000000000e+00
1494 797 -1.000000000000000e+00
1494 1454 -1.000000000000000e+00
1494 1494 9.000000000000000e+00
1495 372 -1.000000000000000e+00
1495 516 -2.000000000000000e+00
1495 519 -1.000000000000000e+00
1495 520 -1.000000000000000e+00
1495 843 -1.000000000000000e+00
1495 1058 -1.000000000000000e+00
1495 1410 -1.000000000000000e+00
1495 1495 8.000000000000000e+00
1496 38 -1.000000000000000e+00
1496 921 -2.000000000000000e+00
1496 1335 -1.000000000000000e+00
1496 1496 4.000000000000000e+00
1497 32 -1.000000000000000e+00
1497 60 -1.000000000000000e+00
1497 239 -1.000000000000000e+00
1497 360 -1.000000000000000e+00
1497 704 -1.000000000000000e+00
1497 948 -1.000000000000000e+00
1497 1195 -2.000000000000000e+00
1497 1322 -2.000000000000000e+00
1497 1497 1.000000000000000e+01
1498 192 -1.000000000000000e+00
1498 535 -1.000000000000000e+00
1498 559 -1.000000000000000e+00
1498 604 -2.000000000000000e+00
1498 796 -1.000000000000000e+00
1498 866 -1.000000000000000e+00
1498 898 -1.000000000000000e+00
1498 934 -1.000000000000000e+00
1498 974 -1.000000000000000e+00
1498 987 -2.000000000000000e+00
1498 1094 -1.000000000000000e+00
1498 1498 1.300000000000000e+01
1499 38 -1.000000000000000e+00
1499 160 -1.000000000000000e+00
1499 444 -1.000000000000000e+00
1499 559 -1.000000000000000e+00
1499 587 -1.000000000000000e+00
1499 660 -1.000000000000000e+00
1499 749 -1.000000000000000e+00
1499 1049 -1.000000000000000e+00
1499 1054 -1.000000000000000e+00
1499 1123 -1.000000000000000e+00
1499 1305 -2.000000000000000e+00
1499 1499 1.200000000000000e+01
1500 30 -1.000000000000000e+00
1500 113 -1.000000000000000e+00
1500 341 -1.000000000000000e+00
1500 872 -1.000000000000000e+00
1500 915 -1.000000000000000e+00
1500 1192 -1.000000000000000e+00
1500 1500 6.000000000000000e+00
