%%MatrixMarket matrix coordinate real symmetric
%
1500 1500 8448
1 1 6.100000000000000e+01
2 1 -2.000000000000000e+00
2 2 8.000000000000000e+00
3 1 -2.000000000000000e+00
3 3 7.000000000000000e+00
4 1 -2.000000000000000e+00
4 2 -1.000000000000000e+00
4 3 -1.000000000000000e+00
4 4 8.000000000000000e+00
5 2 -1.000000000000000e+00
5 3 -1.000000000000000e+00
5 4 -1.000000000000000e+00
5 5 2.300000000000000e+01
6 3 -1.000000000000000e+00
6 4 -1.000000000000000e+00
6 5 -2.000000000000000e+00
6 6 9.000000000000000e+00
7 5 -2.000000000000000e+00
7 6 -1.000000000000000e+00
7 7 7.000000000000000e+00
8 5 -2.000000000000000e+00
8 6 -1.000000000000000e+00
8 7 -1.000000000000000e+00
8 8 9.000000000000000e+00
9 5 -1.000000000000000e+00
9 6 -1.000000000000000e+00
9 8 -1.000000000000000e+00
9 9 8.000000000000000e+00
10 5 -1.000000000000000e+00
10 7 -1.000000000000000e+00
10 8 -1.000000000000000e+00
10 10 7.000000000000000e+00
11 5 -1.000000000000000e+00
11 8 -1.000000000000000e+00
11 9 -1.000000000000000e+00
11 10 -1.000000000000000e+00
11 11 8.000000000000000e+00
12 5 -1.000000000000000e+00
12 9 -1.000000000000000e+00
12 10 -1.000000000000000e+00
12 11 -1.000000000000000e+00
12 12 8.000000000000000e+00
13 5 -1.000000000000000e+00
13 10 -1.000000000000000e+00
13 11 -1.000000000000000e+00
13 13 7.000000000000000e+00
14 5 -1.000000000000000e+00
14 11 -1.000000000000000e+00
14 12 -1.000000000000000e+00
14 13 -1.000000000000000e+00
14 14 9.000000000000000e+00
15 5 -1.000000000000000e+00
15 12 -1.000000000000000e+00
15 13 -1.000000000000000e+00
15 14 -1.000000000000000e+00
15 15 8.000000000000000e+00
16 5 -1.000000000000000e+00
16 13 -1.000000000000000e+00
16 14 -1.000000000000000e+00
16 15 -1.000000000000000e+00
16 16 8.000000000000000e+00
17 5 -1.000000000000000e+00
17 14 -1.000000000000000e+00
17 15 -1.000000000000000e+00
17 16 -1.000000000000000e+00
17 17 8.000000000000000e+00
18 5 -1.000000000000000e+00
18 15 -1.000000000000000e+00
18 16 -1.000000000000000e+00
18 17 -1.000000000000000e+00
18 18 8.000000000000000e+00
19 5 -1.000000000000000e+00
19 16 -1.000000000000000e+00
19 17 -1.000000000000000e+00
19 18 -1.000000000000000e+00
19 19 1.000000000000000e+01
20 5 -1.000000000000000e+00
20 6 -1.000000000000000e+00
20 7 -1.000000000000000e+00
20 8 -1.000000000000000e+00
20 9 -1.000000000000000e+00
20 10 -1.000000000000000e+00
20 11 -1.000000000000000e+00
20 12 -1.000000000000000e+00
20 13 -1.000000000000000e+00
20 14 -1.000000000000000e+00
20 15 -1.000000000000000e+00
20 16 -1.000000000000000e+00
20 17 -2.000000000000000e+00
20 18 -2.000000000000000e+00
20 19 -2.000000000000000e+00
20 20 2.100000000000000e+01
21 5 -1.000000000000000e+00
21 18 -1.000000000000000e+00
21 19 -2.000000000000000e+00
21 20 -1.000000000000000e+00
21 21 8.000000000000000e+00
22 5 -1.000000000000000e+00
22 19 -2.000000000000000e+00
22 20 -1.000000000000000e+00
22 21 -1.000000000000000e+00
22 22 8.000000000000000e+00
23 20 -1.000000000000000e+00
23 21 -1.000000000000000e+00
23 22 -1.000000000000000e+00
23 23 3.000000000000000e+01
24 21 -1.000000000000000e+00
24 22 -1.000000000000000e+00
24 23 -2.000000000000000e+00
24 24 8.000000000000000e+00
25 23 -2.000000000000000e+00
25 24 -1.000000000000000e+00
25 25 8.000000000000000e+00
26 23 -2.000000000000000e+00
26 24 -1.000000000000000e+00
26 25 -1.000000000000000e+00
26 26 9.000000000000000e+00
27 23 -1.000000000000000e+00
27 24 -1.000000000000000e+00
27 25 -1.000000000000000e+00
27 26 -1.000000000000000e+00
27 27 8.000000000000000e+00
28 23 -1.000000000000000e+00
28 25 -1.000000000000000e+00
28 26 -1.000000000000000e+00
28 27 -1.000000000000000e+00
28 28 8.000000000000000e+00
29 23 -1.000000000000000e+00
29 27 -1.000000000000000e+00
29 28 -1.000000000000000e+00
29 29 7.000000000000000e+00
30 23 -1.000000000000000e+00
30 27 -1.000000000000000e+00
30 28 -1.000000000000000e+00
30 29 -1.000000000000000e+00
30 30 8.000000000000000e+00
31 23 -1.000000000000000e+00
31 28 -1.000000000000000e+00
31 29 -1.000000000000000e+00
31 31 7.000000000000000e+00
32 23 -1.000000000000000e+00
32 29 -1.000000000000000e+00
32 30 -1.000000000000000e+00
32 31 -1.000000000000000e+00
32 32 8.000000000000000e+00
33 23 -1.000000000000000e+00
33 30 -1.000000000000000e+00
33 31 -1.000000000000000e+00
33 32 -1.000000000000000e+00
33 33 8.000000000000000e+00
34 23 -1.000000000000000e+00
34 32 -1.000000000000000e+00
34 33 -1.000000000000000e+00
34 34 7.000000000000000e+00
35 23 -1.000000000000000e+00
35 32 -1.000000000000000e+00
35 34 -1.000000000000000e+00
35 35 7.000000000000000e+00
36 23 -1.000000000000000e+00
36 33 -1.000000000000000e+00
36 34 -1.000000000000000e+00
36 35 -1.000000000000000e+00
36 36 8.000000000000000e+00
37 23 -1.000000000000000e+00
37 34 -1.000000000000000e+00
37 35 -1.000000000000000e+00
37 36 -1.000000000000000e+00
37 37 8.000000000000000e+00
38 23 -1.000000000000000e+00
38 35 -1.000000000000000e+00
38 36 -1.000000000000000e+00
38 37 -1.000000000000000e+00
38 38 8.000000000000000e+00
39 23 -1.000000000000000e+00
39 36 -1.000000000000000e+00
39 37 -1.000000000000000e+00
39 38 -1.000000000000000e+00
39 39 8.000000000000000e+00
40 23 -1.000000000000000e+00
40 37 -1.000000000000000e+00
40 38 -1.000000000000000e+00
40 39 -1.000000000000000e+00
40 40 8.000000000000000e+00
41 23 -1.000000000000000e+00
41 38 -1.000000000000000e+00
41 39 -1.000000000000000e+00
41 41 7.000000000000000e+00
42 23 -1.000000000000000e+00
42 39 -1.000000000000000e+00
42 40 -1.000000000000000e+00
42 41 -1.000000000000000e+00
42 42 8.000000000000000e+00
43 23 -1.000000000000000e+00
43 40 -1.000000000000000e+00
43 41 -1.000000000000000e+00
43 42 -1.000000000000000e+00
43 43 8.000000000000000e+00
44 23 -1.000000000000000e+00
44 41 -1.000000000000000e+00
44 42 -1.000000000000000e+00
44 43 -1.000000000000000e+00
44 44 1.000000000000000e+01
45 23 -1.000000000000000e+00
45 24 -1.000000000000000e+00
45 25 -1.000000000000000e+00
45 26 -1.000000000000000e+00
45 27 -1.000000000000000e+00
45 28 -1.000000000000000e+00
45 29 -1.000000000000000e+00
45 30 -1.000000000000000e+00
45 31 -1.000000000000000e+00
45 32 -1.000000000000000e+00
45 33 -1.000000000000000e+00
45 34 -1.000000000000000e+00
45 35 -1.000000000000000e+00
45 36 -1.000000000000000e+00
45 37 -1.000000000000000e+00
45 38 -1.000000000000000e+00
45 39 -1.000000000000000e+00
45 40 -1.000000000000000e+00
45 41 -1.000000000000000e+00
45 42 -2.000000000000000e+00
45 43 -2.000000000000000e+00
45 44 -2.000000000000000e+00
45 45 2.800000000000000e+01
46 23 -1.000000000000000e+00
46 43 -1.000000000000000e+00
46 44 -2.000000000000000e+00
46 45 -1.000000000000000e+00
46 46 8.000000000000000e+00
47 23 -1.000000000000000e+00
47 44 -2.000000000000000e+00
47 45 -1.000000000000000e+00
47 46 -1.000000000000000e+00
47 47 8.000000000000000e+00
48 45 -1.000000000000000e+00
48 46 -1.000000000000000e+00
48 47 -1.000000000000000e+00
48 48 2.500000000000000e+01
49 46 -1.000000000000000e+00
49 48 -2.000000000000000e+00
49 49 7.000000000000000e+00
50 47 -1.000000000000000e+00
50 48 -2.000000000000000e+00
50 49 -1.000000000000000e+00
50 50 8.000000000000000e+00
51 48 -2.000000000000000e+00
51 49 -1.000000000000000e+00
51 50 -1.000000000000000e+00
51 51 8.000000000000000e+00
52 48 -1.000000000000000e+00
52 49 -1.000000000000000e+00
52 50 -1.000000000000000e+00
52 51 -1.000000000000000e+00
52 52 8.000000000000000e+00
53 48 -1.000000000000000e+00
53 50 -1.000000000000000e+00
53 51 -1.000000000000000e+00
53 52 -1.000000000000000e+00
53 53 8.000000000000000e+00
54 48 -1.000000000000000e+00
54 51 -1.000000000000000e+00
54 54 6.000000000000000e+00
55 48 -1.000000000000000e+00
55 52 -1.000000000000000e+00
55 53 -1.000000000000000e+00
55 54 -1.000000000000000e+00
55 55 8.000000000000000e+00
56 48 -1.000000000000000e+00
56 53 -1.000000000000000e+00
56 54 -1.000000000000000e+00
56 55 -1.000000000000000e+00
56 56 8.000000000000000e+00
57 48 -1.000000000000000e+00
57 54 -1.000000000000000e+00
57 55 -1.000000000000000e+00
57 56 -1.000000000000000e+00
57 57 9.000000000000000e+00
58 48 -1.000000000000000e+00
58 55 -1.000000000000000e+00
58 56 -1.000000000000000e+00
58 57 -1.000000000000000e+00
58 58 8.000000000000000e+00
59 48 -1.000000000000000e+00
59 56 -1.000000000000000e+00
59 58 -1.000000000000000e+00
59 59 7.000000000000000e+00
60 48 -1.000000000000000e+00
60 57 -1.000000000000000e+00
60 58 -1.000000000000000e+00
60 59 -1.000000000000000e+00
60 60 8.000000000000000e+00
61 48 -1.000000000000000e+00
61 58 -1.000000000000000e+00
61 59 -1.000000000000000e+00
61 60 -1.000000000000000e+00
61 61 8.000000000000000e+00
62 48 -1.000000000000000e+00
62 59 -1.000000000000000e+00
62 60 -1.000000000000000e+00
62 61 -1.000000000000000e+00
62 62 8.000000000000000e+00
63 48 -1.000000000000000e+00
63 60 -1.000000000000000e+00
63 61 -1.000000000000000e+00
63 62 -1.000000000000000e+00
63 63 8.000000000000000e+00
64 48 -1.000000000000000e+00
64 61 -1.000000000000000e+00
64 62 -1.000000000000000e+00
64 63 -1.000000000000000e+00
64 64 1.100000000000000e+01
65 48 -1.000000000000000e+00
65 49 -1.000000000000000e+00
65 50 -1.000000000000000e+00
65 51 -1.000000000000000e+00
65 52 -1.000000000000000e+00
65 53 -1.000000000000000e+00
65 54 -1.000000000000000e+00
65 55 -1.000000000000000e+00
65 56 -1.000000000000000e+00
65 57 -1.000000000000000e+00
65 58 -1.000000000000000e+00
65 59 -1.000000000000000e+00
65 60 -1.000000000000000e+00
65 61 -1.000000000000000e+00
65 62 -2.000000000000000e+00
65 63 -2.000000000000000e+00
65 64 -2.000000000000000e+00
65 65 2.300000000000000e+01
66 48 -1.000000000000000e+00
66 64 -2.000000000000000e+00
66 66 6.000000000000000e+00
67 48 -1.000000000000000e+00
67 64 -2.000000000000000e+00
67 65 -1.000000000000000e+00
67 66 -1.000000000000000e+00
67 67 8.000000000000000e+00
68 65 -1.000000000000000e+00
68 66 -1.000000000000000e+00
68 68 3.800000000000000e+01
69 68 -2.000000000000000e+00
69 69 7.000000000000000e+00
70 67 -1.000000000000000e+00
70 68 -2.000000000000000e+00
70 69 -1.000000000000000e+00
70 70 9.000000000000000e+00
71 68 -2.000000000000000e+00
71 69 -1.000000000000000e+00
71 70 -1.000000000000000e+00
71 71 9.000000000000000e+00
72 68 -1.000000000000000e+00
72 69 -1.000000000000000e+00
72 70 -1.000000000000000e+00
72 71 -1.000000000000000e+00
72 72 8.000000000000000e+00
73 68 -1.000000000000000e+00
73 70 -1.000000000000000e+00
73 71 -1.000000000000000e+00
73 72 -1.000000000000000e+00
73 73 8.000000000000000e+00
74 68 -1.000000000000000e+00
74 72 -1.000000000000000e+00
74 73 -1.000000000000000e+00
74 74 7.000000000000000e+00
75 68 -1.000000000000000e+00
75 72 -1.000000000000000e+00
75 73 -1.000000000000000e+00
75 74 -1.000000000000000e+00
75 75 8.000000000000000e+00
76 68 -1.000000000000000e+00
76 73 -1.000000000000000e+00
76 75 -1.000000000000000e+00
76 76 7.000000000000000e+00
77 68 -1.000000000000000e+00
77 74 -1.000000000000000e+00
77 75 -1.000000000000000e+00
77 76 -1.000000000000000e+00
77 77 9.000000000000000e+00
78 68 -1.000000000000000e+00
78 75 -1.000000000000000e+00
78 76 -1.000000000000000e+00
78 77 -1.000000000000000e+00
78 78 9.000000000000000e+00
79 68 -1.000000000000000e+00
79 76 -1.000000000000000e+00
79 77 -1.000000000000000e+00
79 78 -1.000000000000000e+00
79 79 8.000000000000000e+00
80 68 -1.000000000000000e+00
80 77 -1.000000000000000e+00
80 78 -1.000000000000000e+00
80 79 -1.000000000000000e+00
80 80 8.000000000000000e+00
81 68 -1.000000000000000e+00
81 78 -1.000000000000000e+00
81 79 -1.000000000000000e+00
81 80 -1.000000000000000e+00
81 81 8.000000000000000e+00
82 68 -1.000000000000000e+00
82 79 -1.000000000000000e+00
82 80 -1.000000000000000e+00
82 81 -1.000000000000000e+00
82 82 8.000000000000000e+00
83 68 -1.000000000000000e+00
83 80 -1.000000000000000e+00
83 81 -1.000000000000000e+00
83 82 -1.000000000000000e+00
83 83 8.000000000000000e+00
84 68 -1.000000000000000e+00
84 81 -1.000000000000000e+00
84 83 -1.000000000000000e+00
84 84 7.000000000000000e+00
85 68 -1.000000000000000e+00
85 82 -1.000000000000000e+00
85 83 -1.000000000000000e+00
85 85 7.000000000000000e+00
86 68 -1.000000000000000e+00
86 83 -1.000000000000000e+00
86 84 -1.000000000000000e+00
86 85 -1.000000000000000e+00
86 86 8.000000000000000e+00
87 68 -1.000000000000000e+00
87 84 -1.000000000000000e+00
87 85 -1.000000000000000e+00
87 86 -1.000000000000000e+00
87 87 1.000000000000000e+01
88 68 -1.000000000000000e+00
88 86 -1.000000000000000e+00
88 87 -1.000000000000000e+00
88 88 7.000000000000000e+00
89 68 -1.000000000000000e+00
89 86 -1.000000000000000e+00
89 87 -1.000000000000000e+00
89 88 -1.000000000000000e+00
89 89 8.000000000000000e+00
90 68 -1.000000000000000e+00
90 87 -1.000000000000000e+00
90 88 -1.000000000000000e+00
90 89 -1.000000000000000e+00
90 90 8.000000000000000e+00
91 68 -1.000000000000000e+00
91 88 -1.000000000000000e+00
91 89 -1.000000000000000e+00
91 90 -1.000000000000000e+00
91 91 8.000000000000000e+00
92 68 -1.000000000000000e+00
92 89 -1.000000000000000e+00
92 90 -1.000000000000000e+00
92 91 -1.000000000000000e+00
92 92 8.000000000000000e+00
93 68 -1.000000000000000e+00
93 90 -1.000000000000000e+00
93 91 -1.000000000000000e+00
93 92 -1.000000000000000e+00
93 93 8.000000000000000e+00
94 68 -1.000000000000000e+00
94 91 -1.000000000000000e+00
94 92 -1.000000000000000e+00
94 93 -1.000000000000000e+00
94 94 9.000000000000000e+00
95 68 -1.000000000000000e+00
95 92 -1.000000000000000e+00
95 93 -1.000000000000000e+00
95 94 -1.000000000000000e+00
95 95 8.000000000000000e+00
96 68 -1.000000000000000e+00
96 93 -1.000000000000000e+00
96 94 -1.000000000000000e+00
96 95 -1.000000000000000e+00
96 96 8.000000000000000e+00
97 68 -1.000000000000000e+00
97 84 -1.000000000000000e+00
97 94 -1.000000000000000e+00
97 95 -1.000000000000000e+00
97 96 -1.000000000000000e+00
97 97 1.100000000000000e+01
98 68 -1.000000000000000e+00
98 69 -1.000000000000000e+00
98 70 -1.000000000000000e+00
98 71 -1.000000000000000e+00
98 72 -1.000000000000000e+00
98 73 -1.000000000000000e+00
98 74 -1.000000000000000e+00
98 75 -1.000000000000000e+00
98 76 -1.000000000000000e+00
98 77 -1.000000000000000e+00
98 78 -1.000000000000000e+00
98 79 -1.000000000000000e+00
98 80 -1.000000000000000e+00
98 81 -1.000000000000000e+00
98 82 -1.000000000000000e+00
98 83 -1.000000000000000e+00
98 84 -1.000000000000000e+00
98 85 -1.000000000000000e+00
98 86 -1.000000000000000e+00
98 87 -1.000000000000000e+00
98 88 -1.000000000000000e+00
98 89 -1.000000000000000e+00
98 90 -1.000000000000000e+00
98 91 -1.000000000000000e+00
98 92 -1.000000000000000e+00
98 93 -1.000000000000000e+00
98 94 -1.000000000000000e+00
98 95 -2.000000000000000e+00
98 96 -2.000000000000000e+00
98 97 -2.000000000000000e+00
98 98 3.600000000000000e+01
99 68 -1.000000000000000e+00
99 96 -1.000000000000000e+00
99 97 -2.000000000000000e+00
99 98 -1.000000000000000e+00
99 99 9.000000000000000e+00
100 68 -1.000000000000000e+00
100 97 -1.000000000000000e+00
100 98 -1.000000000000000e+00
100 99 -1.000000000000000e+00
100 100 7.000000000000000e+00
101 98 -1.000000000000000e+00
101 99 -1.000000000000000e+00
101 100 -1.000000000000000e+00
101 101 9.400000000000000e+01
102 99 -1.000000000000000e+00
102 101 -2.000000000000000e+00
102 102 8.000000000000000e+00
103 9 -1.000000000000000e+00
103 101 -2.000000000000000e+00
103 102 -1.000000000000000e+00
103 103 7.000000000000000e+00
104 101 -2.000000000000000e+00
104 102 -1.000000000000000e+00
104 103 -1.000000000000000e+00
104 104 8.000000000000000e+00
105 102 -1.000000000000000e+00
105 103 -1.000000000000000e+00
105 105 2.800000000000000e+01
106 104 -1.000000000000000e+00
106 105 -2.000000000000000e+00
106 106 7.000000000000000e+00
107 104 -1.000000000000000e+00
107 105 -2.000000000000000e+00
107 106 -1.000000000000000e+00
107 107 8.000000000000000e+00
108 105 -2.000000000000000e+00
108 106 -1.000000000000000e+00
108 107 -1.000000000000000e+00
108 108 9.000000000000000e+00
109 105 -1.000000000000000e+00
109 106 -1.000000000000000e+00
109 108 -1.000000000000000e+00
109 109 7.000000000000000e+00
110 105 -1.000000000000000e+00
110 107 -1.000000000000000e+00
110 108 -1.000000000000000e+00
110 109 -1.000000000000000e+00
110 110 9.000000000000000e+00
111 105 -1.000000000000000e+00
111 108 -1.000000000000000e+00
111 109 -1.000000000000000e+00
111 110 -1.000000000000000e+00
111 111 8.000000000000000e+00
112 105 -1.000000000000000e+00
112 109 -1.000000000000000e+00
112 110 -1.000000000000000e+00
112 111 -1.000000000000000e+00
112 112 1.100000000000000e+01
113 105 -1.000000000000000e+00
113 110 -1.000000000000000e+00
113 111 -1.000000000000000e+00
113 112 -1.000000000000000e+00
113 113 8.000000000000000e+00
114 105 -1.000000000000000e+00
114 111 -1.000000000000000e+00
114 112 -1.000000000000000e+00
114 113 -1.000000000000000e+00
114 114 8.000000000000000e+00
115 105 -1.000000000000000e+00
115 112 -1.000000000000000e+00
115 114 -1.000000000000000e+00
115 115 8.000000000000000e+00
116 105 -1.000000000000000e+00
116 113 -1.000000000000000e+00
116 114 -1.000000000000000e+00
116 115 -1.000000000000000e+00
116 116 1.000000000000000e+01
117 105 -1.000000000000000e+00
117 114 -1.000000000000000e+00
117 115 -1.000000000000000e+00
117 116 -1.000000000000000e+00
117 117 8.000000000000000e+00
118 105 -1.000000000000000e+00
118 115 -1.000000000000000e+00
118 116 -1.000000000000000e+00
118 117 -1.000000000000000e+00
118 118 8.000000000000000e+00
119 105 -1.000000000000000e+00
119 116 -1.000000000000000e+00
119 117 -1.000000000000000e+00
119 118 -1.000000000000000e+00
119 119 8.000000000000000e+00
120 105 -1.000000000000000e+00
120 117 -1.000000000000000e+00
120 118 -1.000000000000000e+00
120 120 7.000000000000000e+00
121 105 -1.000000000000000e+00
121 118 -1.000000000000000e+00
121 119 -1.000000000000000e+00
121 120 -1.000000000000000e+00
121 121 8.000000000000000e+00
122 105 -1.000000000000000e+00
122 119 -1.000000000000000e+00
122 121 -1.000000000000000e+00
122 122 7.000000000000000e+00
123 105 -1.000000000000000e+00
123 120 -1.000000000000000e+00
123 121 -1.000000000000000e+00
123 122 -1.000000000000000e+00
123 123 8.000000000000000e+00
124 105 -1.000000000000000e+00
124 121 -1.000000000000000e+00
124 123 -1.000000000000000e+00
124 124 8.000000000000000e+00
125 105 -1.000000000000000e+00
125 122 -1.000000000000000e+00
125 123 -1.000000000000000e+00
125 124 -1.000000000000000e+00
125 125 1.000000000000000e+01
126 105 -1.000000000000000e+00
126 106 -1.000000000000000e+00
126 107 -1.000000000000000e+00
126 108 -1.000000000000000e+00
126 109 -1.000000000000000e+00
126 110 -1.000000000000000e+00
126 111 -1.000000000000000e+00
126 112 -1.000000000000000e+00
126 113 -1.000000000000000e+00
126 114 -1.000000000000000e+00
126 115 -1.000000000000000e+00
126 116 -1.000000000000000e+00
126 117 -1.000000000000000e+00
126 118 -1.000000000000000e+00
126 119 -1.000000000000000e+00
126 120 -1.000000000000000e+00
126 121 -1.000000000000000e+00
126 122 -1.000000000000000e+00
126 123 -2.000000000000000e+00
126 124 -2.000000000000000e+00
126 125 -2.000000000000000e+00
126 126 2.700000000000000e+01
127 105 -1.000000000000000e+00
127 124 -1.000000000000000e+00
127 125 -2.000000000000000e+00
127 126 -1.000000000000000e+00
127 127 8.000000000000000e+00
128 105 -1.000000000000000e+00
128 125 -2.000000000000000e+00
128 126 -1.000000000000000e+00
128 127 -1.000000000000000e+00
128 128 8.000000000000000e+00
129 126 -1.000000000000000e+00
129 127 -1.000000000000000e+00
129 129 1.300000000000000e+01
130 127 -1.000000000000000e+00
130 128 -1.000000000000000e+00
130 129 -2.000000000000000e+00
130 130 1.400000000000000e+01
131 128 -1.000000000000000e+00
131 129 -2.000000000000000e+00
131 130 -1.000000000000000e+00
131 131 7.000000000000000e+00
132 129 -2.000000000000000e+00
132 130 -2.000000000000000e+00
132 131 -1.000000000000000e+00
132 132 8.000000000000000e+00
133 129 -1.000000000000000e+00
133 130 -2.000000000000000e+00
133 131 -1.000000000000000e+00
133 132 -1.000000000000000e+00
133 133 9.000000000000000e+00
134 129 -1.000000000000000e+00
134 130 -1.000000000000000e+00
134 131 -1.000000000000000e+00
134 132 -1.000000000000000e+00
134 133 -1.000000000000000e+00
134 134 8.000000000000000e+00
135 129 -1.000000000000000e+00
135 130 -1.000000000000000e+00
135 132 -1.000000000000000e+00
135 133 -1.000000000000000e+00
135 134 -1.000000000000000e+00
135 135 9.000000000000000e+00
136 129 -1.000000000000000e+00
136 130 -1.000000000000000e+00
136 133 -1.000000000000000e+00
136 134 -1.000000000000000e+00
136 135 -1.000000000000000e+00
136 136 8.000000000000000e+00
137 129 -1.000000000000000e+00
137 130 -1.000000000000000e+00
137 134 -1.000000000000000e+00
137 135 -1.000000000000000e+00
137 136 -1.000000000000000e+00
137 137 8.000000000000000e+00
138 99 -1.000000000000000e+00
138 136 -1.000000000000000e+00
138 137 -1.000000000000000e+00
138 138 2.200000000000000e+01
139 136 -1.000000000000000e+00
139 137 -1.000000000000000e+00
139 138 -2.000000000000000e+00
139 139 2.500000000000000e+01
140 137 -1.000000000000000e+00
140 138 -2.000000000000000e+00
140 139 -2.000000000000000e+00
140 140 9.000000000000000e+00
141 138 -1.000000000000000e+00
141 139 -2.000000000000000e+00
141 140 -1.000000000000000e+00
141 141 8.000000000000000e+00
142 138 -1.000000000000000e+00
142 139 -2.000000000000000e+00
142 140 -1.000000000000000e+00
142 141 -1.000000000000000e+00
142 142 9.000000000000000e+00
143 138 -1.000000000000000e+00
143 139 -1.000000000000000e+00
143 140 -1.000000000000000e+00
143 141 -1.000000000000000e+00
143 142 -1.000000000000000e+00
143 143 8.000000000000000e+00
144 138 -1.000000000000000e+00
144 139 -1.000000000000000e+00
144 142 -1.000000000000000e+00
144 143 -1.000000000000000e+00
144 144 7.000000000000000e+00
145 138 -1.000000000000000e+00
145 139 -1.000000000000000e+00
145 142 -1.000000000000000e+00
145 143 -1.000000000000000e+00
145 144 -1.000000000000000e+00
145 145 9.000000000000000e+00
146 138 -1.000000000000000e+00
146 139 -1.000000000000000e+00
146 143 -1.000000000000000e+00
146 144 -1.000000000000000e+00
146 145 -1.000000000000000e+00
146 146 8.000000000000000e+00
147 138 -1.000000000000000e+00
147 139 -1.000000000000000e+00
147 144 -1.000000000000000e+00
147 145 -1.000000000000000e+00
147 146 -1.000000000000000e+00
147 147 8.000000000000000e+00
148 138 -1.000000000000000e+00
148 139 -1.000000000000000e+00
148 145 -1.000000000000000e+00
148 146 -1.000000000000000e+00
148 147 -1.000000000000000e+00
148 148 8.000000000000000e+00
149 138 -1.000000000000000e+00
149 139 -1.000000000000000e+00
149 146 -1.000000000000000e+00
149 147 -1.000000000000000e+00
149 148 -1.000000000000000e+00
149 149 8.000000000000000e+00
150 138 -1.000000000000000e+00
150 139 -1.000000000000000e+00
150 147 -1.000000000000000e+00
150 148 -1.000000000000000e+00
150 149 -1.000000000000000e+00
150 150 8.000000000000000e+00
151 138 -1.000000000000000e+00
151 139 -1.000000000000000e+00
151 148 -1.000000000000000e+00
151 149 -1.000000000000000e+00
151 150 -1.000000000000000e+00
151 151 8.000000000000000e+00
152 138 -1.000000000000000e+00
152 139 -1.000000000000000e+00
152 150 -1.000000000000000e+00
152 151 -1.000000000000000e+00
152 152 7.000000000000000e+00
153 138 -1.000000000000000e+00
153 139 -1.000000000000000e+00
153 150 -1.000000000000000e+00
153 151 -1.000000000000000e+00
153 152 -1.000000000000000e+00
153 153 8.000000000000000e+00
154 138 -1.000000000000000e+00
154 139 -2.000000000000000e+00
154 151 -1.000000000000000e+00
154 152 -1.000000000000000e+00
154 154 7.000000000000000e+00
155 152 -1.000000000000000e+00
155 153 -1.000000000000000e+00
155 155 2.800000000000000e+01
156 153 -1.000000000000000e+00
156 154 -1.000000000000000e+00
156 155 -2.000000000000000e+00
156 156 8.000000000000000e+00
157 154 -1.000000000000000e+00
157 155 -2.000000000000000e+00
157 156 -1.000000000000000e+00
157 157 8.000000000000000e+00
158 155 -2.000000000000000e+00
158 156 -1.000000000000000e+00
158 158 7.000000000000000e+00
159 155 -1.000000000000000e+00
159 156 -1.000000000000000e+00
159 157 -1.000000000000000e+00
159 158 -1.000000000000000e+00
159 159 8.000000000000000e+00
160 155 -1.000000000000000e+00
160 157 -1.000000000000000e+00
160 158 -1.000000000000000e+00
160 159 -1.000000000000000e+00
160 160 8.000000000000000e+00
161 155 -1.000000000000000e+00
161 158 -1.000000000000000e+00
161 159 -1.000000000000000e+00
161 160 -1.000000000000000e+00
161 161 8.000000000000000e+00
162 155 -1.000000000000000e+00
162 159 -1.000000000000000e+00
162 160 -1.000000000000000e+00
162 161 -1.000000000000000e+00
162 162 9.000000000000000e+00
163 155 -1.000000000000000e+00
163 160 -1.000000000000000e+00
163 161 -1.000000000000000e+00
163 162 -1.000000000000000e+00
163 163 9.000000000000000e+00
164 155 -1.000000000000000e+00
164 161 -1.000000000000000e+00
164 162 -1.000000000000000e+00
164 163 -1.000000000000000e+00
164 164 8.000000000000000e+00
165 155 -1.000000000000000e+00
165 162 -1.000000000000000e+00
165 163 -1.000000000000000e+00
165 164 -1.000000000000000e+00
165 165 8.000000000000000e+00
166 155 -1.000000000000000e+00
166 163 -1.000000000000000e+00
166 164 -1.000000000000000e+00
166 165 -1.000000000000000e+00
166 166 8.000000000000000e+00
167 155 -1.000000000000000e+00
167 164 -1.000000000000000e+00
167 165 -1.000000000000000e+00
167 166 -1.000000000000000e+00
167 167 8.000000000000000e+00
168 155 -1.000000000000000e+00
168 165 -1.000000000000000e+00
168 166 -1.000000000000000e+00
168 168 8.000000000000000e+00
169 155 -1.000000000000000e+00
169 166 -1.000000000000000e+00
169 167 -1.000000000000000e+00
169 168 -1.000000000000000e+00
169 169 8.000000000000000e+00
170 167 -1.000000000000000e+00
170 169 -1.000000000000000e+00
170 170 3.400000000000000e+01
171 170 -2.000000000000000e+00
171 171 6.000000000000000e+00
172 169 -1.000000000000000e+00
172 170 -2.000000000000000e+00
172 171 -1.000000000000000e+00
172 172 8.000000000000000e+00
173 170 -2.000000000000000e+00
173 171 -1.000000000000000e+00
173 172 -1.000000000000000e+00
173 173 8.000000000000000e+00
174 170 -1.000000000000000e+00
174 171 -1.000000000000000e+00
174 172 -1.000000000000000e+00
174 173 -1.000000000000000e+00
174 174 8.000000000000000e+00
175 170 -1.000000000000000e+00
175 172 -1.000000000000000e+00
175 173 -1.000000000000000e+00
175 175 8.000000000000000e+00
176 174 -1.000000000000000e+00
176 175 -1.000000000000000e+00
176 176 5.800000000000000e+01
177 174 -1.000000000000000e+00
177 175 -1.000000000000000e+00
177 176 -2.000000000000000e+00
177 177 8.000000000000000e+00
178 175 -1.000000000000000e+00
178 176 -2.000000000000000e+00
178 177 -1.000000000000000e+00
178 178 8.000000000000000e+00
179 176 -2.000000000000000e+00
179 177 -1.000000000000000e+00
179 178 -1.000000000000000e+00
179 179 8.000000000000000e+00
180 176 -1.000000000000000e+00
180 177 -1.000000000000000e+00
180 178 -1.000000000000000e+00
180 179 -1.000000000000000e+00
180 180 8.000000000000000e+00
181 176 -1.000000000000000e+00
181 179 -1.000000000000000e+00
181 180 -1.000000000000000e+00
181 181 8.000000000000000e+00
182 176 -1.000000000000000e+00
182 181 -1.000000000000000e+00
182 182 6.000000000000000e+00
183 173 -1.000000000000000e+00
183 176 -1.000000000000000e+00
183 180 -1.000000000000000e+00
183 181 -1.000000000000000e+00
183 182 -1.000000000000000e+00
183 183 9.000000000000000e+00
184 176 -1.000000000000000e+00
184 181 -1.000000000000000e+00
184 182 -1.000000000000000e+00
184 183 -1.000000000000000e+00
184 184 9.000000000000000e+00
185 101 -1.000000000000000e+00
185 182 -1.000000000000000e+00
185 183 -1.000000000000000e+00
185 185 1.000000000000000e+01
186 183 -1.000000000000000e+00
186 184 -1.000000000000000e+00
186 186 5.000000000000000e+00
187 176 -1.000000000000000e+00
187 184 -1.000000000000000e+00
187 185 -1.000000000000000e+00
187 186 -1.000000000000000e+00
187 187 1.000000000000000e+01
188 176 -1.000000000000000e+00
188 185 -1.000000000000000e+00
188 186 -1.000000000000000e+00
188 187 -1.000000000000000e+00
188 188 8.000000000000000e+00
189 176 -1.000000000000000e+00
189 187 -1.000000000000000e+00
189 188 -1.000000000000000e+00
189 189 7.000000000000000e+00
190 176 -1.000000000000000e+00
190 187 -1.000000000000000e+00
190 188 -1.000000000000000e+00
190 189 -1.000000000000000e+00
190 190 8.000000000000000e+00
191 176 -1.000000000000000e+00
191 188 -1.000000000000000e+00
191 189 -1.000000000000000e+00
191 190 -1.000000000000000e+00
191 191 9.000000000000000e+00
192 9 -1.000000000000000e+00
192 176 -1.000000000000000e+00
192 189 -1.000000000000000e+00
192 190 -1.000000000000000e+00
192 191 -1.000000000000000e+00
192 192 9.000000000000000e+00
193 176 -1.000000000000000e+00
193 190 -1.000000000000000e+00
193 191 -1.000000000000000e+00
193 192 -1.000000000000000e+00
193 193 8.000000000000000e+00
194 176 -1.000000000000000e+00
194 191 -1.000000000000000e+00
194 192 -1.000000000000000e+00
194 193 -1.000000000000000e+00
194 194 9.000000000000000e+00
195 176 -1.000000000000000e+00
195 192 -1.000000000000000e+00
195 193 -1.000000000000000e+00
195 194 -1.000000000000000e+00
195 195 8.000000000000000e+00
196 176 -1.000000000000000e+00
196 193 -1.000000000000000e+00
196 194 -1.000000000000000e+00
196 196 8.000000000000000e+00
197 176 -1.000000000000000e+00
197 194 -1.000000000000000e+00
197 195 -1.000000000000000e+00
197 197 7.000000000000000e+00
198 176 -1.000000000000000e+00
198 184 -1.000000000000000e+00
198 196 -1.000000000000000e+00
198 197 -1.000000000000000e+00
198 198 8.000000000000000e+00
199 176 -1.000000000000000e+00
199 196 -1.000000000000000e+00
199 197 -1.000000000000000e+00
199 198 -1.000000000000000e+00
199 199 8.000000000000000e+00
200 176 -1.000000000000000e+00
200 197 -1.000000000000000e+00
200 199 -1.000000000000000e+00
200 200 7.000000000000000e+00
201 176 -1.000000000000000e+00
201 198 -1.000000000000000e+00
201 199 -1.000000000000000e+00
201 200 -1.000000000000000e+00
201 201 8.000000000000000e+00
202 176 -1.000000000000000e+00
202 199 -1.000000000000000e+00
202 200 -1.000000000000000e+00
202 201 -1.000000000000000e+00
202 202 1.000000000000000e+01
203 176 -1.000000000000000e+00
203 200 -1.000000000000000e+00
203 201 -1.000000000000000e+00
203 202 -1.000000000000000e+00
203 203 9.000000000000000e+00
204 176 -1.000000000000000e+00
204 201 -1.000000000000000e+00
204 202 -1.000000000000000e+00
204 203 -1.000000000000000e+00
204 204 8.000000000000000e+00
205 101 -1.000000000000000e+00
205 204 -1.000000000000000e+00
205 205 6.000000000000000e+00
206 101 -1.000000000000000e+00
206 203 -1.000000000000000e+00
206 204 -1.000000000000000e+00
206 205 -1.000000000000000e+00
206 206 8.000000000000000e+00
207 101 -1.000000000000000e+00
207 204 -1.000000000000000e+00
207 205 -1.000000000000000e+00
207 206 -1.000000000000000e+00
207 207 8.000000000000000e+00
208 101 -1.000000000000000e+00
208 205 -1.000000000000000e+00
208 206 -1.000000000000000e+00
208 207 -1.000000000000000e+00
208 208 9.000000000000000e+00
209 101 -1.000000000000000e+00
209 206 -1.000000000000000e+00
209 208 -1.000000000000000e+00
209 209 9.000000000000000e+00
210 101 -1.000000000000000e+00
210 207 -1.000000000000000e+00
210 208 -1.000000000000000e+00
210 209 -1.000000000000000e+00
210 210 1.000000000000000e+01
211 101 -1.000000000000000e+00
211 208 -1.000000000000000e+00
211 209 -1.000000000000000e+00
211 210 -1.000000000000000e+00
211 211 8.000000000000000e+00
212 209 -1.000000000000000e+00
212 210 -1.000000000000000e+00
212 212 3.400000000000000e+01
213 210 -1.000000000000000e+00
213 211 -1.000000000000000e+00
213 212 -2.000000000000000e+00
213 213 8.000000000000000e+00
214 211 -1.000000000000000e+00
214 212 -2.000000000000000e+00
214 213 -1.000000000000000e+00
214 214 8.000000000000000e+00
215 212 -2.000000000000000e+00
215 214 -1.000000000000000e+00
215 215 7.000000000000000e+00
216 212 -1.000000000000000e+00
216 213 -1.000000000000000e+00
216 214 -1.000000000000000e+00
216 216 7.000000000000000e+00
217 140 -1.000000000000000e+00
217 212 -1.000000000000000e+00
217 215 -1.000000000000000e+00
217 217 6.000000000000000e+00
218 212 -1.000000000000000e+00
218 215 -1.000000000000000e+00
218 216 -1.000000000000000e+00
218 218 7.000000000000000e+00
219 212 -1.000000000000000e+00
219 216 -1.000000000000000e+00
219 217 -1.000000000000000e+00
219 218 -1.000000000000000e+00
219 219 8.000000000000000e+00
220 212 -1.000000000000000e+00
220 217 -1.000000000000000e+00
220 218 -1.000000000000000e+00
220 219 -1.000000000000000e+00
220 220 9.000000000000000e+00
221 57 -1.000000000000000e+00
221 212 -1.000000000000000e+00
221 218 -1.000000000000000e+00
221 219 -1.000000000000000e+00
221 220 -1.000000000000000e+00
221 221 9.000000000000000e+00
222 212 -1.000000000000000e+00
222 219 -1.000000000000000e+00
222 220 -1.000000000000000e+00
222 221 -1.000000000000000e+00
222 222 8.000000000000000e+00
223 212 -1.000000000000000e+00
223 220 -1.000000000000000e+00
223 221 -1.000000000000000e+00
223 222 -1.000000000000000e+00
223 223 8.000000000000000e+00
224 212 -1.000000000000000e+00
224 221 -1.000000000000000e+00
224 222 -1.000000000000000e+00
224 223 -1.000000000000000e+00
224 224 8.000000000000000e+00
225 212 -1.000000000000000e+00
225 222 -1.000000000000000e+00
225 223 -1.000000000000000e+00
225 224 -1.000000000000000e+00
225 225 8.000000000000000e+00
226 212 -1.000000000000000e+00
226 223 -1.000000000000000e+00
226 224 -1.000000000000000e+00
226 225 -1.000000000000000e+00
226 226 8.000000000000000e+00
227 212 -1.000000000000000e+00
227 224 -1.000000000000000e+00
227 225 -1.000000000000000e+00
227 226 -1.000000000000000e+00
227 227 8.000000000000000e+00
228 212 -1.000000000000000e+00
228 225 -1.000000000000000e+00
228 226 -1.000000000000000e+00
228 227 -1.000000000000000e+00
228 228 8.000000000000000e+00
229 212 -1.000000000000000e+00
229 226 -1.000000000000000e+00
229 227 -1.000000000000000e+00
229 228 -1.000000000000000e+00
229 229 8.000000000000000e+00
230 212 -1.000000000000000e+00
230 227 -1.000000000000000e+00
230 228 -1.000000000000000e+00
230 229 -1.000000000000000e+00
230 230 8.000000000000000e+00
231 212 -1.000000000000000e+00
231 228 -1.000000000000000e+00
231 229 -1.000000000000000e+00
231 230 -1.000000000000000e+00
231 231 8.000000000000000e+00
232 212 -1.000000000000000e+00
232 229 -1.000000000000000e+00
232 230 -1.000000000000000e+00
232 231 -1.000000000000000e+00
232 232 8.000000000000000e+00
233 212 -1.000000000000000e+00
233 230 -1.000000000000000e+00
233 231 -1.000000000000000e+00
233 232 -1.000000000000000e+00
233 233 9.000000000000000e+00
234 212 -1.000000000000000e+00
234 232 -1.000000000000000e+00
234 233 -1.000000000000000e+00
234 234 7.000000000000000e+00
235 212 -1.000000000000000e+00
235 232 -1.000000000000000e+00
235 233 -1.000000000000000e+00
235 234 -1.000000000000000e+00
235 235 8.000000000000000e+00
236 212 -1.000000000000000e+00
236 233 -1.000000000000000e+00
236 234 -1.000000000000000e+00
236 235 -1.000000000000000e+00
236 236 8.000000000000000e+00
237 212 -1.000000000000000e+00
237 234 -1.000000000000000e+00
237 235 -1.000000000000000e+00
237 236 -1.000000000000000e+00
237 237 1.000000000000000e+01
238 212 -1.000000000000000e+00
238 213 -1.000000000000000e+00
238 214 -1.000000000000000e+00
238 215 -1.000000000000000e+00
238 216 -1.000000000000000e+00
238 217 -1.000000000000000e+00
238 218 -1.000000000000000e+00
238 219 -1.000000000000000e+00
238 220 -1.000000000000000e+00
238 221 -1.000000000000000e+00
238 222 -1.000000000000000e+00
238 223 -1.000000000000000e+00
238 224 -1.000000000000000e+00
238 225 -1.000000000000000e+00
238 226 -1.000000000000000e+00
238 227 -1.000000000000000e+00
238 228 -1.000000000000000e+00
238 229 -1.000000000000000e+00
238 230 -1.000000000000000e+00
238 231 -1.000000000000000e+00
238 232 -1.000000000000000e+00
238 233 -1.000000000000000e+00
238 234 -1.000000000000000e+00
238 235 -2.000000000000000e+00
238 236 -2.000000000000000e+00
238 237 -1.000000000000000e+00
238 238 3.100000000000000e+01
239 212 -1.000000000000000e+00
239 236 -1.000000000000000e+00
239 237 -2.000000000000000e+00
239 238 -1.000000000000000e+00
239 239 8.000000000000000e+00
240 212 -1.000000000000000e+00
240 237 -2.000000000000000e+00
240 238 -1.000000000000000e+00
240 239 -1.000000000000000e+00
240 240 8.000000000000000e+00
241 1 -1.000000000000000e+00
241 238 -1.000000000000000e+00
241 241 6.000000000000000e+00
242 1 -1.000000000000000e+00
242 239 -1.000000000000000e+00
242 241 -1.000000000000000e+00
242 242 7.000000000000000e+00
243 1 -1.000000000000000e+00
243 240 -1.000000000000000e+00
243 241 -1.000000000000000e+00
243 242 -1.000000000000000e+00
243 243 8.000000000000000e+00
244 1 -1.000000000000000e+00
244 241 -1.000000000000000e+00
244 242 -1.000000000000000e+00
244 243 -1.000000000000000e+00
244 244 8.000000000000000e+00
245 1 -1.000000000000000e+00
245 242 -1.000000000000000e+00
245 244 -1.000000000000000e+00
245 245 7.000000000000000e+00
246 1 -1.000000000000000e+00
246 244 -1.000000000000000e+00
246 245 -1.000000000000000e+00
246 246 7.000000000000000e+00
247 1 -1.000000000000000e+00
247 244 -1.000000000000000e+00
247 245 -1.000000000000000e+00
247 246 -1.000000000000000e+00
247 247 8.000000000000000e+00
248 1 -1.000000000000000e+00
248 245 -1.000000000000000e+00
248 246 -1.000000000000000e+00
248 247 -1.000000000000000e+00
248 248 8.000000000000000e+00
249 1 -1.000000000000000e+00
249 246 -1.000000000000000e+00
249 247 -1.000000000000000e+00
249 248 -1.000000000000000e+00
249 249 9.000000000000000e+00
250 1 -1.000000000000000e+00
250 247 -1.000000000000000e+00
250 248 -1.000000000000000e+00
250 249 -1.000000000000000e+00
250 250 8.000000000000000e+00
251 1 -1.000000000000000e+00
251 248 -1.000000000000000e+00
251 250 -1.000000000000000e+00
251 251 7.000000000000000e+00
252 1 -1.000000000000000e+00
252 249 -1.000000000000000e+00
252 250 -1.000000000000000e+00
252 251 -1.000000000000000e+00
252 252 8.000000000000000e+00
253 1 -1.000000000000000e+00
253 250 -1.000000000000000e+00
253 251 -1.000000000000000e+00
253 252 -1.000000000000000e+00
253 253 8.000000000000000e+00
254 251 -1.000000000000000e+00
254 252 -1.000000000000000e+00
254 254 7.000000000000000e+01
255 253 -1.000000000000000e+00
255 254 -2.000000000000000e+00
255 255 8.000000000000000e+00
256 253 -1.000000000000000e+00
256 254 -2.000000000000000e+00
256 255 -1.000000000000000e+00
256 256 8.000000000000000e+00
257 254 -2.000000000000000e+00
257 255 -1.000000000000000e+00
257 256 -1.000000000000000e+00
257 257 8.000000000000000e+00
258 254 -1.000000000000000e+00
258 255 -1.000000000000000e+00
258 256 -1.000000000000000e+00
258 257 -1.000000000000000e+00
258 258 8.000000000000000e+00
259 254 -1.000000000000000e+00
259 256 -1.000000000000000e+00
259 257 -1.000000000000000e+00
259 258 -1.000000000000000e+00
259 259 8.000000000000000e+00
260 254 -1.000000000000000e+00
260 257 -1.000000000000000e+00
260 258 -1.000000000000000e+00
260 259 -1.000000000000000e+00
260 260 8.000000000000000e+00
261 254 -1.000000000000000e+00
261 258 -1.000000000000000e+00
261 259 -1.000000000000000e+00
261 260 -1.000000000000000e+00
261 261 8.000000000000000e+00
262 254 -1.000000000000000e+00
262 259 -1.000000000000000e+00
262 260 -1.000000000000000e+00
262 261 -1.000000000000000e+00
262 262 8.000000000000000e+00
263 254 -1.000000000000000e+00
263 260 -1.000000000000000e+00
263 261 -1.000000000000000e+00
263 262 -1.000000000000000e+00
263 263 8.000000000000000e+00
264 254 -1.000000000000000e+00
264 261 -1.000000000000000e+00
264 262 -1.000000000000000e+00
264 263 -1.000000000000000e+00
264 264 8.000000000000000e+00
265 254 -1.000000000000000e+00
265 262 -1.000000000000000e+00
265 263 -1.000000000000000e+00
265 264 -1.000000000000000e+00
265 265 8.000000000000000e+00
266 254 -1.000000000000000e+00
266 263 -1.000000000000000e+00
266 264 -1.000000000000000e+00
266 265 -1.000000000000000e+00
266 266 9.000000000000000e+00
267 254 -1.000000000000000e+00
267 264 -1.000000000000000e+00
267 265 -1.000000000000000e+00
267 266 -1.000000000000000e+00
267 267 8.000000000000000e+00
268 254 -1.000000000000000e+00
268 266 -1.000000000000000e+00
268 267 -1.000000000000000e+00
268 268 7.000000000000000e+00
269 254 -1.000000000000000e+00
269 266 -1.000000000000000e+00
269 267 -1.000000000000000e+00
269 268 -1.000000000000000e+00
269 269 8.000000000000000e+00
270 254 -1.000000000000000e+00
270 267 -1.000000000000000e+00
270 268 -1.000000000000000e+00
270 269 -1.000000000000000e+00
270 270 8.000000000000000e+00
271 268 -1.000000000000000e+00
271 269 -1.000000000000000e+00
271 271 4.000000000000000e+01
272 269 -1.000000000000000e+00
272 270 -1.000000000000000e+00
272 271 -2.000000000000000e+00
272 272 8.000000000000000e+00
273 270 -1.000000000000000e+00
273 271 -2.000000000000000e+00
273 273 7.000000000000000e+00
274 271 -2.000000000000000e+00
274 272 -1.000000000000000e+00
274 273 -1.000000000000000e+00
274 274 8.000000000000000e+00
275 271 -1.000000000000000e+00
275 272 -1.000000000000000e+00
275 273 -1.000000000000000e+00
275 274 -1.000000000000000e+00
275 275 8.000000000000000e+00
276 187 -1.000000000000000e+00
276 271 -1.000000000000000e+00
276 273 -1.000000000000000e+00
276 274 -1.000000000000000e+00
276 275 -1.000000000000000e+00
276 276 8.000000000000000e+00
277 271 -1.000000000000000e+00
277 274 -1.000000000000000e+00
277 275 -1.000000000000000e+00
277 276 -1.000000000000000e+00
277 277 8.000000000000000e+00
278 271 -1.000000000000000e+00
278 275 -1.000000000000000e+00
278 276 -1.000000000000000e+00
278 277 -1.000000000000000e+00
278 278 8.000000000000000e+00
279 155 -1.000000000000000e+00
279 271 -1.000000000000000e+00
279 277 -1.000000000000000e+00
279 278 -1.000000000000000e+00
279 279 7.000000000000000e+00
280 271 -1.000000000000000e+00
280 277 -1.000000000000000e+00
280 278 -1.000000000000000e+00
280 280 8.000000000000000e+00
281 82 -1.000000000000000e+00
281 271 -1.000000000000000e+00
281 278 -1.000000000000000e+00
281 279 -1.000000000000000e+00
281 280 -1.000000000000000e+00
281 281 9.000000000000000e+00
282 271 -1.000000000000000e+00
282 279 -1.000000000000000e+00
282 280 -1.000000000000000e+00
282 281 -1.000000000000000e+00
282 282 8.000000000000000e+00
283 271 -1.000000000000000e+00
283 280 -1.000000000000000e+00
283 281 -1.000000000000000e+00
283 282 -1.000000000000000e+00
283 283 8.000000000000000e+00
284 195 -1.000000000000000e+00
284 271 -1.000000000000000e+00
284 281 -1.000000000000000e+00
284 282 -1.000000000000000e+00
284 284 8.000000000000000e+00
285 271 -1.000000000000000e+00
285 282 -1.000000000000000e+00
285 283 -1.000000000000000e+00
285 284 -1.000000000000000e+00
285 285 8.000000000000000e+00
286 271 -1.000000000000000e+00
286 283 -1.000000000000000e+00
286 284 -1.000000000000000e+00
286 285 -1.000000000000000e+00
286 286 8.000000000000000e+00
287 271 -1.000000000000000e+00
287 284 -1.000000000000000e+00
287 285 -1.000000000000000e+00
287 286 -1.000000000000000e+00
287 287 8.000000000000000e+00
288 240 -1.000000000000000e+00
288 271 -1.000000000000000e+00
288 285 -1.000000000000000e+00
288 286 -1.000000000000000e+00
288 287 -1.000000000000000e+00
288 288 9.000000000000000e+00
289 271 -1.000000000000000e+00
289 286 -1.000000000000000e+00
289 287 -1.000000000000000e+00
289 288 -1.000000000000000e+00
289 289 8.000000000000000e+00
290 271 -1.000000000000000e+00
290 287 -1.000000000000000e+00
290 288 -1.000000000000000e+00
290 289 -1.000000000000000e+00
290 290 8.000000000000000e+00
291 271 -1.000000000000000e+00
291 288 -1.000000000000000e+00
291 289 -1.000000000000000e+00
291 290 -1.000000000000000e+00
291 291 8.000000000000000e+00
292 271 -1.000000000000000e+00
292 289 -1.000000000000000e+00
292 290 -1.000000000000000e+00
292 291 -1.000000000000000e+00
292 292 8.000000000000000e+00
293 271 -1.000000000000000e+00
293 290 -1.000000000000000e+00
293 291 -1.000000000000000e+00
293 292 -1.000000000000000e+00
293 293 8.000000000000000e+00
294 271 -1.000000000000000e+00
294 291 -1.000000000000000e+00
294 292 -1.000000000000000e+00
294 293 -1.000000000000000e+00
294 294 9.000000000000000e+00
295 271 -2.000000000000000e+00
295 292 -1.000000000000000e+00
295 293 -1.000000000000000e+00
295 294 -1.000000000000000e+00
295 295 8.000000000000000e+00
296 271 -1.000000000000000e+00
296 293 -1.000000000000000e+00
296 294 -1.000000000000000e+00
296 295 -1.000000000000000e+00
296 296 9.000000000000000e+00
297 271 -1.000000000000000e+00
297 296 -1.000000000000000e+00
297 297 7.000000000000000e+00
298 271 -1.000000000000000e+00
298 295 -1.000000000000000e+00
298 296 -1.000000000000000e+00
298 297 -1.000000000000000e+00
298 298 9.000000000000000e+00
299 271 -1.000000000000000e+00
299 296 -1.000000000000000e+00
299 297 -1.000000000000000e+00
299 298 -1.000000000000000e+00
299 299 8.000000000000000e+00
300 271 -1.000000000000000e+00
300 297 -1.000000000000000e+00
300 299 -1.000000000000000e+00
300 300 7.000000000000000e+00
301 271 -1.000000000000000e+00
301 298 -1.000000000000000e+00
301 299 -1.000000000000000e+00
301 300 -1.000000000000000e+00
301 301 1.000000000000000e+01
302 271 -1.000000000000000e+00
302 272 -1.000000000000000e+00
302 273 -1.000000000000000e+00
302 274 -1.000000000000000e+00
302 275 -1.000000000000000e+00
302 276 -1.000000000000000e+00
302 277 -1.000000000000000e+00
302 278 -1.000000000000000e+00
302 279 -1.000000000000000e+00
302 280 -1.000000000000000e+00
302 281 -1.000000000000000e+00
302 282 -1.000000000000000e+00
302 283 -1.000000000000000e+00
302 284 -1.000000000000000e+00
302 285 -1.000000000000000e+00
302 286 -1.000000000000000e+00
302 287 -1.000000000000000e+00
302 288 -1.000000000000000e+00
302 289 -1.000000000000000e+00
302 290 -1.000000000000000e+00
302 291 -1.000000000000000e+00
302 292 -1.000000000000000e+00
302 293 -1.000000000000000e+00
302 294 -1.000000000000000e+00
302 295 -1.000000000000000e+00
302 296 -1.000000000000000e+00
302 297 -1.000000000000000e+00
302 298 -1.000000000000000e+00
302 299 -2.000000000000000e+00
302 300 -2.000000000000000e+00
302 301 -2.000000000000000e+00
302 302 3.700000000000000e+01
303 271 -1.000000000000000e+00
303 300 -1.000000000000000e+00
303 301 -1.000000000000000e+00
303 302 -1.000000000000000e+00
303 303 7.000000000000000e+00
304 271 -1.000000000000000e+00
304 301 -2.000000000000000e+00
304 302 -1.000000000000000e+00
304 303 -1.000000000000000e+00
304 304 8.000000000000000e+00
305 303 -1.000000000000000e+00
305 304 -1.000000000000000e+00
305 305 3.700000000000000e+01
306 303 -1.000000000000000e+00
306 304 -1.000000000000000e+00
306 306 2.900000000000000e+01
307 304 -1.000000000000000e+00
307 306 -2.000000000000000e+00
307 307 7.000000000000000e+00
308 142 -1.000000000000000e+00
308 305 -1.000000000000000e+00
308 306 -2.000000000000000e+00
308 307 -1.000000000000000e+00
308 308 8.000000000000000e+00
309 71 -1.000000000000000e+00
309 306 -2.000000000000000e+00
309 307 -1.000000000000000e+00
309 308 -1.000000000000000e+00
309 309 1.000000000000000e+01
310 306 -1.000000000000000e+00
310 307 -1.000000000000000e+00
310 309 -1.000000000000000e+00
310 310 7.000000000000000e+00
311 306 -1.000000000000000e+00
311 308 -1.000000000000000e+00
311 309 -1.000000000000000e+00
311 310 -1.000000000000000e+00
311 311 8.000000000000000e+00
312 306 -1.000000000000000e+00
312 309 -1.000000000000000e+00
312 310 -1.000000000000000e+00
312 311 -1.000000000000000e+00
312 312 8.000000000000000e+00
313 306 -1.000000000000000e+00
313 310 -1.000000000000000e+00
313 311 -1.000000000000000e+00
313 312 -1.000000000000000e+00
313 313 9.000000000000000e+00
314 306 -1.000000000000000e+00
314 311 -1.000000000000000e+00
314 312 -1.000000000000000e+00
314 313 -1.000000000000000e+00
314 314 8.000000000000000e+00
315 306 -1.000000000000000e+00
315 312 -1.000000000000000e+00
315 313 -1.000000000000000e+00
315 315 8.000000000000000e+00
316 306 -1.000000000000000e+00
316 313 -1.000000000000000e+00
316 314 -1.000000000000000e+00
316 315 -1.000000000000000e+00
316 316 8.000000000000000e+00
317 306 -1.000000000000000e+00
317 314 -1.000000000000000e+00
317 315 -1.000000000000000e+00
317 316 -1.000000000000000e+00
317 317 8.000000000000000e+00
318 306 -1.000000000000000e+00
318 315 -1.000000000000000e+00
318 316 -1.000000000000000e+00
318 317 -1.000000000000000e+00
318 318 9.000000000000000e+00
319 306 -1.000000000000000e+00
319 317 -1.000000000000000e+00
319 318 -1.000000000000000e+00
319 319 7.000000000000000e+00
320 306 -1.000000000000000e+00
320 317 -1.000000000000000e+00
320 318 -1.000000000000000e+00
320 319 -1.000000000000000e+00
320 320 8.000000000000000e+00
321 306 -1.000000000000000e+00
321 318 -1.000000000000000e+00
321 319 -1.000000000000000e+00
321 320 -1.000000000000000e+00
321 321 9.000000000000000e+00
322 252 -1.000000000000000e+00
322 306 -1.000000000000000e+00
322 319 -1.000000000000000e+00
322 320 -1.000000000000000e+00
322 322 8.000000000000000e+00
323 306 -1.000000000000000e+00
323 320 -1.000000000000000e+00
323 321 -1.000000000000000e+00
323 322 -1.000000000000000e+00
323 323 8.000000000000000e+00
324 306 -1.000000000000000e+00
324 321 -1.000000000000000e+00
324 323 -1.000000000000000e+00
324 324 7.000000000000000e+00
325 306 -1.000000000000000e+00
325 322 -1.000000000000000e+00
325 323 -1.000000000000000e+00
325 325 7.000000000000000e+00
326 306 -1.000000000000000e+00
326 323 -1.000000000000000e+00
326 324 -1.000000000000000e+00
326 325 -1.000000000000000e+00
326 326 8.000000000000000e+00
327 214 -1.000000000000000e+00
327 306 -1.000000000000000e+00
327 324 -1.000000000000000e+00
327 325 -1.000000000000000e+00
327 326 -1.000000000000000e+00
327 327 1.100000000000000e+01
328 306 -1.000000000000000e+00
328 307 -1.000000000000000e+00
328 308 -1.000000000000000e+00
328 309 -1.000000000000000e+00
328 310 -1.000000000000000e+00
328 311 -1.000000000000000e+00
328 312 -1.000000000000000e+00
328 313 -1.000000000000000e+00
328 314 -1.000000000000000e+00
328 315 -1.000000000000000e+00
328 316 -1.000000000000000e+00
328 317 -1.000000000000000e+00
328 318 -1.000000000000000e+00
328 319 -1.000000000000000e+00
328 320 -1.000000000000000e+00
328 321 -1.000000000000000e+00
328 322 -1.000000000000000e+00
328 323 -1.000000000000000e+00
328 324 -1.000000000000000e+00
328 325 -2.000000000000000e+00
328 326 -2.000000000000000e+00
328 327 -2.000000000000000e+00
328 328 2.800000000000000e+01
329 306 -1.000000000000000e+00
329 327 -2.000000000000000e+00
329 328 -1.000000000000000e+00
329 329 7.000000000000000e+00
330 306 -1.000000000000000e+00
330 327 -2.000000000000000e+00
330 328 -1.000000000000000e+00
330 329 -1.000000000000000e+00
330 330 8.000000000000000e+00
331 328 -1.000000000000000e+00
331 329 -1.000000000000000e+00
331 331 5.700000000000000e+01
332 329 -1.000000000000000e+00
332 330 -1.000000000000000e+00
332 331 -2.000000000000000e+00
332 332 9.000000000000000e+00
333 330 -1.000000000000000e+00
333 331 -2.000000000000000e+00
333 332 -1.000000000000000e+00
333 333 9.000000000000000e+00
334 331 -2.000000000000000e+00
334 332 -1.000000000000000e+00
334 333 -1.000000000000000e+00
334 334 8.000000000000000e+00
335 331 -1.000000000000000e+00
335 332 -1.000000000000000e+00
335 333 -1.000000000000000e+00
335 334 -1.000000000000000e+00
335 335 8.000000000000000e+00
336 331 -1.000000000000000e+00
336 333 -1.000000000000000e+00
336 334 -1.000000000000000e+00
336 335 -1.000000000000000e+00
336 336 8.000000000000000e+00
337 302 -1.000000000000000e+00
337 331 -1.000000000000000e+00
337 334 -1.000000000000000e+00
337 335 -1.000000000000000e+00
337 336 -1.000000000000000e+00
337 337 9.000000000000000e+00
338 331 -1.000000000000000e+00
338 335 -1.000000000000000e+00
338 336 -1.000000000000000e+00
338 337 -1.000000000000000e+00
338 338 8.000000000000000e+00
339 331 -1.000000000000000e+00
339 336 -1.000000000000000e+00
339 337 -1.000000000000000e+00
339 338 -1.000000000000000e+00
339 339 8.000000000000000e+00
340 331 -1.000000000000000e+00
340 337 -1.000000000000000e+00
340 338 -1.000000000000000e+00
340 339 -1.000000000000000e+00
340 340 9.000000000000000e+00
341 331 -1.000000000000000e+00
341 338 -1.000000000000000e+00
341 339 -1.000000000000000e+00
341 340 -1.000000000000000e+00
341 341 8.000000000000000e+00
342 331 -1.000000000000000e+00
342 339 -1.000000000000000e+00
342 340 -1.000000000000000e+00
342 341 -1.000000000000000e+00
342 342 8.000000000000000e+00
343 331 -1.000000000000000e+00
343 340 -1.000000000000000e+00
343 341 -1.000000000000000e+00
343 342 -1.000000000000000e+00
343 343 8.000000000000000e+00
344 331 -1.000000000000000e+00
344 341 -1.000000000000000e+00
344 342 -1.000000000000000e+00
344 343 -1.000000000000000e+00
344 344 8.000000000000000e+00
345 331 -1.000000000000000e+00
345 342 -1.000000000000000e+00
345 343 -1.000000000000000e+00
345 345 7.000000000000000e+00
346 331 -1.000000000000000e+00
346 343 -1.000000000000000e+00
346 345 -1.000000000000000e+00
346 346 7.000000000000000e+00
347 331 -1.000000000000000e+00
347 344 -1.000000000000000e+00
347 345 -1.000000000000000e+00
347 346 -1.000000000000000e+00
347 347 8.000000000000000e+00
348 331 -1.000000000000000e+00
348 345 -1.000000000000000e+00
348 346 -1.000000000000000e+00
348 347 -1.000000000000000e+00
348 348 8.000000000000000e+00
349 331 -1.000000000000000e+00
349 346 -1.000000000000000e+00
349 347 -1.000000000000000e+00
349 348 -1.000000000000000e+00
349 349 9.000000000000000e+00
350 331 -1.000000000000000e+00
350 347 -1.000000000000000e+00
350 349 -1.000000000000000e+00
350 350 8.000000000000000e+00
351 331 -1.000000000000000e+00
351 348 -1.000000000000000e+00
351 350 -1.000000000000000e+00
351 351 7.000000000000000e+00
352 331 -1.000000000000000e+00
352 349 -1.000000000000000e+00
352 351 -1.000000000000000e+00
352 352 7.000000000000000e+00
353 331 -1.000000000000000e+00
353 350 -1.000000000000000e+00
353 351 -1.000000000000000e+00
353 352 -1.000000000000000e+00
353 353 8.000000000000000e+00
354 331 -1.000000000000000e+00
354 351 -1.000000000000000e+00
354 352 -1.000000000000000e+00
354 353 -1.000000000000000e+00
354 354 8.000000000000000e+00
355 331 -1.000000000000000e+00
355 352 -1.000000000000000e+00
355 353 -1.000000000000000e+00
355 354 -1.000000000000000e+00
355 355 8.000000000000000e+00
356 331 -1.000000000000000e+00
356 353 -1.000000000000000e+00
356 355 -1.000000000000000e+00
356 356 8.000000000000000e+00
357 331 -1.000000000000000e+00
357 354 -1.000000000000000e+00
357 355 -1.000000000000000e+00
357 356 -1.000000000000000e+00
357 357 8.000000000000000e+00
358 186 -1.000000000000000e+00
358 331 -1.000000000000000e+00
358 355 -1.000000000000000e+00
358 356 -1.000000000000000e+00
358 357 -1.000000000000000e+00
358 358 9.000000000000000e+00
359 203 -1.000000000000000e+00
359 331 -1.000000000000000e+00
359 356 -1.000000000000000e+00
359 357 -1.000000000000000e+00
359 358 -1.000000000000000e+00
359 359 3.500000000000000e+01
360 331 -1.000000000000000e+00
360 332 -1.000000000000000e+00
360 333 -1.000000000000000e+00
360 334 -1.000000000000000e+00
360 335 -1.000000000000000e+00
360 336 -1.000000000000000e+00
360 337 -1.000000000000000e+00
360 338 -1.000000000000000e+00
360 339 -1.000000000000000e+00
360 340 -1.000000000000000e+00
360 341 -1.000000000000000e+00
360 342 -1.000000000000000e+00
360 343 -1.000000000000000e+00
360 344 -1.000000000000000e+00
360 345 -1.000000000000000e+00
360 346 -1.000000000000000e+00
360 347 -1.000000000000000e+00
360 348 -1.000000000000000e+00
360 349 -1.000000000000000e+00
360 350 -1.000000000000000e+00
360 351 -1.000000000000000e+00
360 352 -1.000000000000000e+00
360 353 -1.000000000000000e+00
360 354 -1.000000000000000e+00
360 355 -1.000000000000000e+00
360 356 -1.000000000000000e+00
360 357 -2.000000000000000e+00
360 358 -1.000000000000000e+00
360 359 -2.000000000000000e+00
360 360 3.400000000000000e+01
361 331 -1.000000000000000e+00
361 358 -1.000000000000000e+00
361 359 -2.000000000000000e+00
361 360 -1.000000000000000e+00
361 361 8.000000000000000e+00
362 331 -1.000000000000000e+00
362 359 -2.000000000000000e+00
362 360 -1.000000000000000e+00
362 361 -1.000000000000000e+00
362 362 8.000000000000000e+00
363 331 -1.000000000000000e+00
363 359 -1.000000000000000e+00
363 360 -1.000000000000000e+00
363 361 -1.000000000000000e+00
363 362 -1.000000000000000e+00
363 363 8.000000000000000e+00
364 331 -1.000000000000000e+00
364 359 -1.000000000000000e+00
364 361 -1.000000000000000e+00
364 362 -1.000000000000000e+00
364 363 -1.000000000000000e+00
364 364 8.000000000000000e+00
365 331 -1.000000000000000e+00
365 359 -1.000000000000000e+00
365 362 -1.000000000000000e+00
365 363 -1.000000000000000e+00
365 364 -1.000000000000000e+00
365 365 8.000000000000000e+00
366 331 -1.000000000000000e+00
366 359 -1.000000000000000e+00
366 363 -1.000000000000000e+00
366 364 -1.000000000000000e+00
366 365 -1.000000000000000e+00
366 366 8.000000000000000e+00
367 331 -1.000000000000000e+00
367 359 -1.000000000000000e+00
367 364 -1.000000000000000e+00
367 365 -1.000000000000000e+00
367 366 -1.000000000000000e+00
367 367 8.000000000000000e+00
368 331 -1.000000000000000e+00
368 359 -1.000000000000000e+00
368 365 -1.000000000000000e+00
368 366 -1.000000000000000e+00
368 367 -1.000000000000000e+00
368 368 8.000000000000000e+00
369 331 -1.000000000000000e+00
369 359 -1.000000000000000e+00
369 366 -1.000000000000000e+00
369 367 -1.000000000000000e+00
369 368 -1.000000000000000e+00
369 369 8.000000000000000e+00
370 331 -1.000000000000000e+00
370 359 -1.000000000000000e+00
370 367 -1.000000000000000e+00
370 368 -1.000000000000000e+00
370 369 -1.000000000000000e+00
370 370 8.000000000000000e+00
371 368 -1.000000000000000e+00
371 369 -1.000000000000000e+00
371 370 -1.000000000000000e+00
371 371 4.100000000000000e+01
372 369 -1.000000000000000e+00
372 370 -1.000000000000000e+00
372 371 -2.000000000000000e+00
372 372 8.000000000000000e+00
373 370 -1.000000000000000e+00
373 371 -2.000000000000000e+00
373 372 -1.000000000000000e+00
373 373 8.000000000000000e+00
374 371 -2.000000000000000e+00
374 372 -1.000000000000000e+00
374 373 -1.000000000000000e+00
374 374 8.000000000000000e+00
375 371 -1.000000000000000e+00
375 372 -1.000000000000000e+00
375 373 -1.000000000000000e+00
375 374 -1.000000000000000e+00
375 375 8.000000000000000e+00
376 371 -1.000000000000000e+00
376 373 -1.000000000000000e+00
376 374 -1.000000000000000e+00
376 375 -1.000000000000000e+00
376 376 8.000000000000000e+00
377 371 -1.000000000000000e+00
377 374 -1.000000000000000e+00
377 375 -1.000000000000000e+00
377 376 -1.000000000000000e+00
377 377 8.000000000000000e+00
378 371 -1.000000000000000e+00
378 375 -1.000000000000000e+00
378 376 -1.000000000000000e+00
378 377 -1.000000000000000e+00
378 378 8.000000000000000e+00
379 371 -1.000000000000000e+00
379 376 -1.000000000000000e+00
379 377 -1.000000000000000e+00
379 378 -1.000000000000000e+00
379 379 8.000000000000000e+00
380 298 -1.000000000000000e+00
380 371 -1.000000000000000e+00
380 377 -1.000000000000000e+00
380 379 -1.000000000000000e+00
380 380 7.000000000000000e+00
381 116 -1.000000000000000e+00
381 216 -1.000000000000000e+00
381 371 -1.000000000000000e+00
381 378 -1.000000000000000e+00
381 379 -1.000000000000000e+00
381 380 -1.000000000000000e+00
381 381 9.000000000000000e+00
382 371 -1.000000000000000e+00
382 379 -1.000000000000000e+00
382 380 -1.000000000000000e+00
382 381 -1.000000000000000e+00
382 382 8.000000000000000e+00
383 371 -1.000000000000000e+00
383 381 -1.000000000000000e+00
383 382 -1.000000000000000e+00
383 383 7.000000000000000e+00
384 371 -1.000000000000000e+00
384 382 -1.000000000000000e+00
384 383 -1.000000000000000e+00
384 384 7.000000000000000e+00
385 371 -1.000000000000000e+00
385 382 -1.000000000000000e+00
385 383 -1.000000000000000e+00
385 385 7.000000000000000e+00
386 371 -1.000000000000000e+00
386 383 -1.000000000000000e+00
386 384 -1.000000000000000e+00
386 385 -1.000000000000000e+00
386 386 8.000000000000000e+00
387 371 -1.000000000000000e+00
387 384 -1.000000000000000e+00
387 385 -1.000000000000000e+00
387 386 -1.000000000000000e+00
387 387 8.000000000000000e+00
388 371 -1.000000000000000e+00
388 385 -1.000000000000000e+00
388 386 -1.000000000000000e+00
388 387 -1.000000000000000e+00
388 388 8.000000000000000e+00
389 386 -1.000000000000000e+00
389 387 -1.000000000000000e+00
389 389 7.000000000000000e+00
390 387 -1.000000000000000e+00
390 388 -1.000000000000000e+00
390 389 -2.000000000000000e+00
390 390 9.000000000000000e+00
391 388 -1.000000000000000e+00
391 389 -2.000000000000000e+00
391 390 -2.000000000000000e+00
391 391 8.000000000000000e+00
392 389 -1.000000000000000e+00
392 390 -1.000000000000000e+00
392 391 -1.000000000000000e+00
392 392 1.200000000000000e+01
393 390 -1.000000000000000e+00
393 391 -1.000000000000000e+00
393 392 -2.000000000000000e+00
393 393 1.100000000000000e+01
394 392 -2.000000000000000e+00
394 393 -2.000000000000000e+00
394 394 7.000000000000000e+00
395 392 -2.000000000000000e+00
395 393 -2.000000000000000e+00
395 394 -1.000000000000000e+00
395 395 9.000000000000000e+00
396 321 -1.000000000000000e+00
396 392 -1.000000000000000e+00
396 393 -2.000000000000000e+00
396 394 -1.000000000000000e+00
396 395 -1.000000000000000e+00
396 396 9.000000000000000e+00
397 392 -1.000000000000000e+00
397 393 -1.000000000000000e+00
397 394 -1.000000000000000e+00
397 395 -1.000000000000000e+00
397 396 -1.000000000000000e+00
397 397 9.000000000000000e+00
398 395 -1.000000000000000e+00
398 396 -1.000000000000000e+00
398 397 -1.000000000000000e+00
398 398 3.600000000000000e+01
399 66 -1.000000000000000e+00
399 396 -1.000000000000000e+00
399 397 -1.000000000000000e+00
399 398 -2.000000000000000e+00
399 399 9.000000000000000e+00
400 397 -1.000000000000000e+00
400 398 -2.000000000000000e+00
400 399 -1.000000000000000e+00
400 400 8.000000000000000e+00
401 398 -2.000000000000000e+00
401 399 -1.000000000000000e+00
401 400 -1.000000000000000e+00
401 401 8.000000000000000e+00
402 398 -1.000000000000000e+00
402 399 -1.000000000000000e+00
402 400 -1.000000000000000e+00
402 401 -1.000000000000000e+00
402 402 8.000000000000000e+00
403 398 -1.000000000000000e+00
403 400 -1.000000000000000e+00
403 401 -1.000000000000000e+00
403 402 -1.000000000000000e+00
403 403 9.000000000000000e+00
404 398 -1.000000000000000e+00
404 401 -1.000000000000000e+00
404 403 -1.000000000000000e+00
404 404 7.000000000000000e+00
405 398 -1.000000000000000e+00
405 402 -1.000000000000000e+00
405 403 -1.000000000000000e+00
405 404 -1.000000000000000e+00
405 405 8.000000000000000e+00
406 398 -1.000000000000000e+00
406 403 -1.000000000000000e+00
406 405 -1.000000000000000e+00
406 406 7.000000000000000e+00
407 398 -1.000000000000000e+00
407 404 -1.000000000000000e+00
407 405 -1.000000000000000e+00
407 406 -1.000000000000000e+00
407 407 8.000000000000000e+00
408 12 -1.000000000000000e+00
408 398 -1.000000000000000e+00
408 405 -1.000000000000000e+00
408 406 -1.000000000000000e+00
408 407 -1.000000000000000e+00
408 408 1.000000000000000e+01
409 398 -1.000000000000000e+00
409 406 -1.000000000000000e+00
409 407 -1.000000000000000e+00
409 408 -1.000000000000000e+00
409 409 9.000000000000000e+00
410 398 -1.000000000000000e+00
410 407 -1.000000000000000e+00
410 408 -1.000000000000000e+00
410 409 -1.000000000000000e+00
410 410 8.000000000000000e+00
411 408 -1.000000000000000e+00
411 409 -1.000000000000000e+00
411 410 -1.000000000000000e+00
411 411 2.300000000000000e+01
412 410 -1.000000000000000e+00
412 411 -2.000000000000000e+00
412 412 2.200000000000000e+01
413 410 -1.000000000000000e+00
413 411 -2.000000000000000e+00
413 412 -2.000000000000000e+00
413 413 9.000000000000000e+00
414 411 -2.000000000000000e+00
414 412 -2.000000000000000e+00
414 413 -1.000000000000000e+00
414 414 8.000000000000000e+00
415 411 -1.000000000000000e+00
415 412 -2.000000000000000e+00
415 413 -1.000000000000000e+00
415 414 -1.000000000000000e+00
415 415 9.000000000000000e+00
416 390 -1.000000000000000e+00
416 411 -1.000000000000000e+00
416 412 -1.000000000000000e+00
416 413 -1.000000000000000e+00
416 414 -1.000000000000000e+00
416 415 -1.000000000000000e+00
416 416 9.000000000000000e+00
417 411 -1.000000000000000e+00
417 412 -1.000000000000000e+00
417 414 -1.000000000000000e+00
417 415 -1.000000000000000e+00
417 416 -1.000000000000000e+00
417 417 8.000000000000000e+00
418 411 -1.000000000000000e+00
418 412 -1.000000000000000e+00
418 415 -1.000000000000000e+00
418 417 -1.000000000000000e+00
418 418 7.000000000000000e+00
419 411 -1.000000000000000e+00
419 412 -1.000000000000000e+00
419 416 -1.000000000000000e+00
419 417 -1.000000000000000e+00
419 418 -1.000000000000000e+00
419 419 9.000000000000000e+00
420 411 -1.000000000000000e+00
420 412 -1.000000000000000e+00
420 417 -1.000000000000000e+00
420 418 -1.000000000000000e+00
420 419 -1.000000000000000e+00
420 420 8.000000000000000e+00
421 411 -1.000000000000000e+00
421 412 -1.000000000000000e+00
421 418 -1.000000000000000e+00
421 419 -1.000000000000000e+00
421 420 -1.000000000000000e+00
421 421 8.000000000000000e+00
422 411 -1.000000000000000e+00
422 412 -1.000000000000000e+00
422 419 -1.000000000000000e+00
422 420 -1.000000000000000e+00
422 421 -1.000000000000000e+00
422 422 8.000000000000000e+00
423 348 -1.000000000000000e+00
423 411 -1.000000000000000e+00
423 412 -1.000000000000000e+00
423 420 -1.000000000000000e+00
423 421 -1.000000000000000e+00
423 422 -1.000000000000000e+00
423 423 9.000000000000000e+00
424 411 -1.000000000000000e+00
424 412 -1.000000000000000e+00
424 421 -1.000000000000000e+00
424 422 -1.000000000000000e+00
424 423 -1.000000000000000e+00
424 424 8.000000000000000e+00
425 356 -1.000000000000000e+00
425 411 -1.000000000000000e+00
425 412 -1.000000000000000e+00
425 422 -1.000000000000000e+00
425 423 -1.000000000000000e+00
425 424 -1.000000000000000e+00
425 425 9.000000000000000e+00
426 411 -1.000000000000000e+00
426 412 -1.000000000000000e+00
426 423 -1.000000000000000e+00
426 424 -1.000000000000000e+00
426 425 -1.000000000000000e+00
426 426 8.000000000000000e+00
427 411 -1.000000000000000e+00
427 412 -1.000000000000000e+00
427 424 -1.000000000000000e+00
427 425 -1.000000000000000e+00
427 426 -1.000000000000000e+00
427 427 8.000000000000000e+00
428 426 -1.000000000000000e+00
428 427 -1.000000000000000e+00
428 428 3.600000000000000e+01
429 426 -1.000000000000000e+00
429 427 -1.000000000000000e+00
429 428 -2.000000000000000e+00
429 429 8.000000000000000e+00
430 427 -1.000000000000000e+00
430 428 -2.000000000000000e+00
430 429 -1.000000000000000e+00
430 430 9.000000000000000e+00
431 428 -1.000000000000000e+00
431 429 -1.000000000000000e+00
431 430 -1.000000000000000e+00
431 431 8.000000000000000e+00
432 428 -1.000000000000000e+00
432 429 -1.000000000000000e+00
432 430 -1.000000000000000e+00
432 431 -1.000000000000000e+00
432 432 9.000000000000000e+00
433 428 -1.000000000000000e+00
433 430 -1.000000000000000e+00
433 431 -1.000000000000000e+00
433 432 -1.000000000000000e+00
433 433 8.000000000000000e+00
434 431 -1.000000000000000e+00
434 432 -1.000000000000000e+00
434 433 -1.000000000000000e+00
434 434 2.900000000000000e+01
435 432 -1.000000000000000e+00
435 434 -2.000000000000000e+00
435 435 7.000000000000000e+00
436 433 -1.000000000000000e+00
436 434 -2.000000000000000e+00
436 435 -1.000000000000000e+00
436 436 8.000000000000000e+00
437 309 -1.000000000000000e+00
437 434 -2.000000000000000e+00
437 435 -1.000000000000000e+00
437 436 -1.000000000000000e+00
437 437 8.000000000000000e+00
438 434 -1.000000000000000e+00
438 435 -1.000000000000000e+00
438 436 -1.000000000000000e+00
438 438 7.000000000000000e+00
439 434 -1.000000000000000e+00
439 436 -1.000000000000000e+00
439 437 -1.000000000000000e+00
439 438 -1.000000000000000e+00
439 439 8.000000000000000e+00
440 434 -1.000000000000000e+00
440 437 -1.000000000000000e+00
440 438 -1.000000000000000e+00
440 439 -1.000000000000000e+00
440 440 9.000000000000000e+00
441 434 -1.000000000000000e+00
441 439 -1.000000000000000e+00
441 440 -1.000000000000000e+00
441 441 7.000000000000000e+00
442 434 -1.000000000000000e+00
442 439 -1.000000000000000e+00
442 440 -1.000000000000000e+00
442 442 9.000000000000000e+00
443 434 -1.000000000000000e+00
443 440 -1.000000000000000e+00
443 441 -1.000000000000000e+00
443 442 -1.000000000000000e+00
443 443 9.000000000000000e+00
444 434 -1.000000000000000e+00
444 441 -1.000000000000000e+00
444 442 -1.000000000000000e+00
444 443 -1.000000000000000e+00
444 444 8.000000000000000e+00
445 434 -1.000000000000000e+00
445 442 -1.000000000000000e+00
445 443 -1.000000000000000e+00
445 445 7.000000000000000e+00
446 434 -1.000000000000000e+00
446 443 -1.000000000000000e+00
446 444 -1.000000000000000e+00
446 445 -1.000000000000000e+00
446 446 8.000000000000000e+00
447 434 -1.000000000000000e+00
447 444 -1.000000000000000e+00
447 445 -1.000000000000000e+00
447 446 -1.000000000000000e+00
447 447 8.000000000000000e+00
448 434 -1.000000000000000e+00
448 445 -1.000000000000000e+00
448 446 -1.000000000000000e+00
448 447 -1.000000000000000e+00
448 448 8.000000000000000e+00
449 434 -1.000000000000000e+00
449 446 -1.000000000000000e+00
449 447 -1.000000000000000e+00
449 449 7.000000000000000e+00
450 434 -1.000000000000000e+00
450 447 -1.000000000000000e+00
450 448 -1.000000000000000e+00
450 449 -1.000000000000000e+00
450 450 9.000000000000000e+00
451 449 -1.000000000000000e+00
451 451 3.800000000000000e+01
452 449 -1.000000000000000e+00
452 450 -1.000000000000000e+00
452 451 -2.000000000000000e+00
452 452 8.000000000000000e+00
453 450 -1.000000000000000e+00
453 451 -2.000000000000000e+00
453 452 -1.000000000000000e+00
453 453 9.000000000000000e+00
454 451 -2.000000000000000e+00
454 452 -1.000000000000000e+00
454 453 -1.000000000000000e+00
454 454 8.000000000000000e+00
455 451 -1.000000000000000e+00
455 452 -1.000000000000000e+00
455 453 -1.000000000000000e+00
455 454 -1.000000000000000e+00
455 455 8.000000000000000e+00
456 451 -1.000000000000000e+00
456 453 -1.000000000000000e+00
456 454 -1.000000000000000e+00
456 455 -1.000000000000000e+00
456 456 9.000000000000000e+00
457 451 -1.000000000000000e+00
457 454 -1.000000000000000e+00
457 455 -1.000000000000000e+00
457 456 -1.000000000000000e+00
457 457 8.000000000000000e+00
458 451 -1.000000000000000e+00
458 455 -1.000000000000000e+00
458 456 -1.000000000000000e+00
458 457 -1.000000000000000e+00
458 458 9.000000000000000e+00
459 451 -1.000000000000000e+00
459 456 -1.000000000000000e+00
459 457 -1.000000000000000e+00
459 458 -1.000000000000000e+00
459 459 8.000000000000000e+00
460 451 -1.000000000000000e+00
460 457 -1.000000000000000e+00
460 458 -1.000000000000000e+00
460 459 -1.000000000000000e+00
460 460 9.000000000000000e+00
461 451 -1.000000000000000e+00
461 458 -1.000000000000000e+00
461 459 -1.000000000000000e+00
461 460 -1.000000000000000e+00
461 461 9.000000000000000e+00
462 451 -1.000000000000000e+00
462 459 -1.000000000000000e+00
462 460 -1.000000000000000e+00
462 461 -1.000000000000000e+00
462 462 8.000000000000000e+00
463 451 -1.000000000000000e+00
463 460 -1.000000000000000e+00
463 461 -1.000000000000000e+00
463 462 -1.000000000000000e+00
463 463 9.000000000000000e+00
464 451 -1.000000000000000e+00
464 461 -1.000000000000000e+00
464 462 -1.000000000000000e+00
464 463 -1.000000000000000e+00
464 464 8.000000000000000e+00
465 451 -1.000000000000000e+00
465 462 -1.000000000000000e+00
465 463 -1.000000000000000e+00
465 464 -1.000000000000000e+00
465 465 8.000000000000000e+00
466 70 -1.000000000000000e+00
466 451 -1.000000000000000e+00
466 463 -1.000000000000000e+00
466 464 -1.000000000000000e+00
466 465 -1.000000000000000e+00
466 466 8.000000000000000e+00
467 40 -1.000000000000000e+00
467 451 -1.000000000000000e+00
467 464 -1.000000000000000e+00
467 465 -1.000000000000000e+00
467 466 -1.000000000000000e+00
467 467 1.000000000000000e+01
468 451 -1.000000000000000e+00
468 465 -1.000000000000000e+00
468 467 -1.000000000000000e+00
468 468 7.000000000000000e+00
469 14 -1.000000000000000e+00
469 451 -1.000000000000000e+00
469 466 -1.000000000000000e+00
469 467 -1.000000000000000e+00
469 468 -1.000000000000000e+00
469 469 9.000000000000000e+00
470 451 -1.000000000000000e+00
470 467 -1.000000000000000e+00
470 469 -1.000000000000000e+00
470 470 7.000000000000000e+00
471 451 -1.000000000000000e+00
471 468 -1.000000000000000e+00
471 470 -1.000000000000000e+00
471 471 7.000000000000000e+00
472 451 -1.000000000000000e+00
472 470 -1.000000000000000e+00
472 471 -1.000000000000000e+00
472 472 7.000000000000000e+00
473 451 -1.000000000000000e+00
473 470 -1.000000000000000e+00
473 471 -1.000000000000000e+00
473 472 -1.000000000000000e+00
473 473 8.000000000000000e+00
474 451 -1.000000000000000e+00
474 471 -1.000000000000000e+00
474 472 -1.000000000000000e+00
474 474 7.000000000000000e+00
475 451 -1.000000000000000e+00
475 472 -1.000000000000000e+00
475 473 -1.000000000000000e+00
475 474 -1.000000000000000e+00
475 475 9.000000000000000e+00
476 451 -1.000000000000000e+00
476 473 -1.000000000000000e+00
476 475 -1.000000000000000e+00
476 476 7.000000000000000e+00
477 101 -1.000000000000000e+00
477 474 -1.000000000000000e+00
477 475 -1.000000000000000e+00
477 477 7.000000000000000e+00
478 101 -1.000000000000000e+00
478 477 -1.000000000000000e+00
478 478 6.000000000000000e+00
479 101 -1.000000000000000e+00
479 476 -1.000000000000000e+00
479 477 -1.000000000000000e+00
479 478 -1.000000000000000e+00
479 479 8.000000000000000e+00
480 101 -1.000000000000000e+00
480 477 -1.000000000000000e+00
480 478 -1.000000000000000e+00
480 479 -1.000000000000000e+00
480 480 8.000000000000000e+00
481 101 -1.000000000000000e+00
481 478 -1.000000000000000e+00
481 479 -1.000000000000000e+00
481 480 -1.000000000000000e+00
481 481 8.000000000000000e+00
482 101 -1.000000000000000e+00
482 384 -1.000000000000000e+00
482 479 -1.000000000000000e+00
482 480 -1.000000000000000e+00
482 481 -1.000000000000000e+00
482 482 9.000000000000000e+00
483 101 -1.000000000000000e+00
483 482 -1.000000000000000e+00
483 483 6.000000000000000e+00
484 101 -1.000000000000000e+00
484 481 -1.000000000000000e+00
484 482 -1.000000000000000e+00
484 483 -1.000000000000000e+00
484 484 8.000000000000000e+00
485 101 -1.000000000000000e+00
485 482 -1.000000000000000e+00
485 484 -1.000000000000000e+00
485 485 7.000000000000000e+00
486 101 -1.000000000000000e+00
486 483 -1.000000000000000e+00
486 484 -1.000000000000000e+00
486 485 -1.000000000000000e+00
486 486 8.000000000000000e+00
487 101 -1.000000000000000e+00
487 135 -1.000000000000000e+00
487 484 -1.000000000000000e+00
487 485 -1.000000000000000e+00
487 486 -1.000000000000000e+00
487 487 8.000000000000000e+00
488 157 -1.000000000000000e+00
488 371 -1.000000000000000e+00
488 485 -1.000000000000000e+00
488 488 7.000000000000000e+00
489 371 -1.000000000000000e+00
489 486 -1.000000000000000e+00
489 487 -1.000000000000000e+00
489 488 -1.000000000000000e+00
489 489 2.300000000000000e+01
490 64 -1.000000000000000e+00
490 371 -1.000000000000000e+00
490 372 -1.000000000000000e+00
490 373 -1.000000000000000e+00
490 374 -1.000000000000000e+00
490 375 -1.000000000000000e+00
490 376 -1.000000000000000e+00
490 377 -1.000000000000000e+00
490 378 -1.000000000000000e+00
490 379 -1.000000000000000e+00
490 380 -1.000000000000000e+00
490 381 -1.000000000000000e+00
490 382 -1.000000000000000e+00
490 383 -1.000000000000000e+00
490 384 -1.000000000000000e+00
490 385 -1.000000000000000e+00
490 386 -1.000000000000000e+00
490 387 -1.000000000000000e+00
490 388 -1.000000000000000e+00
490 488 -2.000000000000000e+00
490 489 -1.000000000000000e+00
490 490 2.400000000000000e+01
491 305 -1.000000000000000e+00
491 371 -1.000000000000000e+00
491 488 -1.000000000000000e+00
491 489 -2.000000000000000e+00
491 491 7.000000000000000e+00
492 371 -1.000000000000000e+00
492 489 -2.000000000000000e+00
492 490 -1.000000000000000e+00
492 491 -1.000000000000000e+00
492 492 8.000000000000000e+00
493 313 -1.000000000000000e+00
493 371 -1.000000000000000e+00
493 489 -1.000000000000000e+00
493 490 -1.000000000000000e+00
493 492 -1.000000000000000e+00
493 493 7.000000000000000e+00
494 371 -1.000000000000000e+00
494 489 -1.000000000000000e+00
494 491 -1.000000000000000e+00
494 492 -1.000000000000000e+00
494 494 7.000000000000000e+00
495 371 -1.000000000000000e+00
495 489 -1.000000000000000e+00
495 492 -1.000000000000000e+00
495 493 -1.000000000000000e+00
495 494 -1.000000000000000e+00
495 495 8.000000000000000e+00
496 371 -1.000000000000000e+00
496 489 -1.000000000000000e+00
496 493 -1.000000000000000e+00
496 494 -1.000000000000000e+00
496 495 -1.000000000000000e+00
496 496 8.000000000000000e+00
497 371 -1.000000000000000e+00
497 489 -1.000000000000000e+00
497 494 -1.000000000000000e+00
497 495 -1.000000000000000e+00
497 496 -1.000000000000000e+00
497 497 8.000000000000000e+00
498 371 -1.000000000000000e+00
498 489 -1.000000000000000e+00
498 495 -1.000000000000000e+00
498 496 -1.000000000000000e+00
498 497 -1.000000000000000e+00
498 498 8.000000000000000e+00
499 371 -1.000000000000000e+00
499 489 -1.000000000000000e+00
499 496 -1.000000000000000e+00
499 498 -1.000000000000000e+00
499 499 7.000000000000000e+00
500 371 -1.000000000000000e+00
500 489 -1.000000000000000e+00
500 497 -1.000000000000000e+00
500 498 -1.000000000000000e+00
500 499 -1.000000000000000e+00
500 500 8.000000000000000e+00
501 371 -1.000000000000000e+00
501 489 -1.000000000000000e+00
501 498 -1.000000000000000e+00
501 499 -1.000000000000000e+00
501 500 -1.000000000000000e+00
501 501 8.000000000000000e+00
502 371 -1.000000000000000e+00
502 388 -1.000000000000000e+00
502 489 -1.000000000000000e+00
502 500 -1.000000000000000e+00
502 501 -1.000000000000000e+00
502 502 8.000000000000000e+00
503 112 -1.000000000000000e+00
503 371 -1.000000000000000e+00
503 489 -1.000000000000000e+00
503 500 -1.000000000000000e+00
503 501 -1.000000000000000e+00
503 502 -1.000000000000000e+00
503 503 8.000000000000000e+00
504 371 -1.000000000000000e+00
504 489 -1.000000000000000e+00
504 501 -1.000000000000000e+00
504 502 -1.000000000000000e+00
504 503 -1.000000000000000e+00
504 504 8.000000000000000e+00
505 371 -1.000000000000000e+00
505 489 -1.000000000000000e+00
505 502 -1.000000000000000e+00
505 504 -1.000000000000000e+00
505 505 8.000000000000000e+00
506 398 -1.000000000000000e+00
506 467 -1.000000000000000e+00
506 504 -1.000000000000000e+00
506 505 -1.000000000000000e+00
506 506 7.000000000000000e+00
507 398 -1.000000000000000e+00
507 504 -1.000000000000000e+00
507 506 -1.000000000000000e+00
507 507 8.000000000000000e+00
508 398 -1.000000000000000e+00
508 505 -1.000000000000000e+00
508 506 -1.000000000000000e+00
508 507 -1.000000000000000e+00
508 508 8.000000000000000e+00
509 398 -1.000000000000000e+00
509 507 -1.000000000000000e+00
509 508 -1.000000000000000e+00
509 509 9.000000000000000e+00
510 398 -1.000000000000000e+00
510 507 -1.000000000000000e+00
510 508 -1.000000000000000e+00
510 509 -1.000000000000000e+00
510 510 8.000000000000000e+00
511 398 -1.000000000000000e+00
511 508 -1.000000000000000e+00
511 509 -1.000000000000000e+00
511 510 -1.000000000000000e+00
511 511 8.000000000000000e+00
512 398 -1.000000000000000e+00
512 509 -1.000000000000000e+00
512 511 -1.000000000000000e+00
512 512 7.000000000000000e+00
513 398 -1.000000000000000e+00
513 510 -1.000000000000000e+00
513 511 -1.000000000000000e+00
513 512 -1.000000000000000e+00
513 513 8.000000000000000e+00
514 398 -1.000000000000000e+00
514 511 -1.000000000000000e+00
514 512 -1.000000000000000e+00
514 513 -1.000000000000000e+00
514 514 8.000000000000000e+00
515 398 -1.000000000000000e+00
515 409 -1.000000000000000e+00
515 512 -1.000000000000000e+00
515 513 -1.000000000000000e+00
515 514 -1.000000000000000e+00
515 515 9.000000000000000e+00
516 398 -1.000000000000000e+00
516 513 -1.000000000000000e+00
516 514 -1.000000000000000e+00
516 515 -1.000000000000000e+00
516 516 8.000000000000000e+00
517 398 -1.000000000000000e+00
517 515 -1.000000000000000e+00
517 516 -1.000000000000000e+00
517 517 8.000000000000000e+00
518 398 -1.000000000000000e+00
518 515 -1.000000000000000e+00
518 516 -1.000000000000000e+00
518 517 -1.000000000000000e+00
518 518 8.000000000000000e+00
519 398 -1.000000000000000e+00
519 516 -1.000000000000000e+00
519 517 -1.000000000000000e+00
519 518 -1.000000000000000e+00
519 519 8.000000000000000e+00
520 398 -1.000000000000000e+00
520 517 -1.000000000000000e+00
520 518 -1.000000000000000e+00
520 519 -1.000000000000000e+00
520 520 1.000000000000000e+01
521 398 -1.000000000000000e+00
521 399 -1.000000000000000e+00
521 400 -1.000000000000000e+00
521 401 -1.000000000000000e+00
521 402 -1.000000000000000e+00
521 403 -1.000000000000000e+00
521 404 -1.000000000000000e+00
521 405 -1.000000000000000e+00
521 406 -1.000000000000000e+00
521 407 -1.000000000000000e+00
521 408 -1.000000000000000e+00
521 409 -1.000000000000000e+00
521 410 -1.000000000000000e+00
521 506 -1.000000000000000e+00
521 507 -1.000000000000000e+00
521 508 -1.000000000000000e+00
521 509 -1.000000000000000e+00
521 510 -1.000000000000000e+00
521 511 -1.000000000000000e+00
521 512 -1.000000000000000e+00
521 513 -1.000000000000000e+00
521 514 -1.000000000000000e+00
521 515 -1.000000000000000e+00
521 516 -1.000000000000000e+00
521 517 -1.000000000000000e+00
521 518 -2.000000000000000e+00
521 519 -2.000000000000000e+00
521 520 -2.000000000000000e+00
521 521 3.500000000000000e+01
522 301 -1.000000000000000e+00
522 398 -1.000000000000000e+00
522 520 -2.000000000000000e+00
522 521 -1.000000000000000e+00
522 522 8.000000000000000e+00
523 398 -1.000000000000000e+00
523 520 -2.000000000000000e+00
523 521 -1.000000000000000e+00
523 522 -1.000000000000000e+00
523 523 8.000000000000000e+00
524 428 -1.000000000000000e+00
524 521 -1.000000000000000e+00
524 522 -1.000000000000000e+00
524 524 7.000000000000000e+00
525 428 -1.000000000000000e+00
525 522 -1.000000000000000e+00
525 523 -1.000000000000000e+00
525 524 -1.000000000000000e+00
525 525 8.000000000000000e+00
526 321 -1.000000000000000e+00
526 428 -1.000000000000000e+00
526 524 -1.000000000000000e+00
526 525 -1.000000000000000e+00
526 526 8.000000000000000e+00
527 428 -1.000000000000000e+00
527 524 -1.000000000000000e+00
527 525 -1.000000000000000e+00
527 526 -1.000000000000000e+00
527 527 8.000000000000000e+00
528 428 -1.000000000000000e+00
528 525 -1.000000000000000e+00
528 526 -1.000000000000000e+00
528 527 -1.000000000000000e+00
528 528 8.000000000000000e+00
529 425 -1.000000000000000e+00
529 428 -1.000000000000000e+00
529 527 -1.000000000000000e+00
529 528 -1.000000000000000e+00
529 529 7.000000000000000e+00
530 428 -1.000000000000000e+00
530 527 -1.000000000000000e+00
530 528 -1.000000000000000e+00
530 529 -1.000000000000000e+00
530 530 9.000000000000000e+00
531 428 -1.000000000000000e+00
531 528 -1.000000000000000e+00
531 530 -1.000000000000000e+00
531 531 7.000000000000000e+00
532 428 -1.000000000000000e+00
532 529 -1.000000000000000e+00
532 530 -1.000000000000000e+00
532 531 -1.000000000000000e+00
532 532 8.000000000000000e+00
533 428 -1.000000000000000e+00
533 530 -1.000000000000000e+00
533 531 -1.000000000000000e+00
533 532 -1.000000000000000e+00
533 533 8.000000000000000e+00
534 333 -1.000000000000000e+00
534 428 -1.000000000000000e+00
534 531 -1.000000000000000e+00
534 532 -1.000000000000000e+00
534 533 -1.000000000000000e+00
534 534 9.000000000000000e+00
535 330 -1.000000000000000e+00
535 428 -1.000000000000000e+00
535 532 -1.000000000000000e+00
535 533 -1.000000000000000e+00
535 534 -1.000000000000000e+00
535 535 9.000000000000000e+00
536 428 -1.000000000000000e+00
536 533 -1.000000000000000e+00
536 535 -1.000000000000000e+00
536 536 7.000000000000000e+00
537 428 -1.000000000000000e+00
537 534 -1.000000000000000e+00
537 535 -1.000000000000000e+00
537 536 -1.000000000000000e+00
537 537 8.000000000000000e+00
538 428 -1.000000000000000e+00
538 535 -1.000000000000000e+00
538 536 -1.000000000000000e+00
538 537 -1.000000000000000e+00
538 538 8.000000000000000e+00
539 428 -1.000000000000000e+00
539 536 -1.000000000000000e+00
539 537 -1.000000000000000e+00
539 538 -1.000000000000000e+00
539 539 1.000000000000000e+01
540 428 -1.000000000000000e+00
540 537 -1.000000000000000e+00
540 538 -1.000000000000000e+00
540 539 -1.000000000000000e+00
540 540 8.000000000000000e+00
541 428 -1.000000000000000e+00
541 538 -1.000000000000000e+00
541 539 -1.000000000000000e+00
541 540 -1.000000000000000e+00
541 541 8.000000000000000e+00
542 428 -1.000000000000000e+00
542 539 -1.000000000000000e+00
542 540 -1.000000000000000e+00
542 541 -1.000000000000000e+00
542 542 8.000000000000000e+00
543 428 -1.000000000000000e+00
543 540 -1.000000000000000e+00
543 541 -1.000000000000000e+00
543 542 -1.000000000000000e+00
543 543 8.000000000000000e+00
544 428 -1.000000000000000e+00
544 541 -1.000000000000000e+00
544 542 -1.000000000000000e+00
544 543 -1.000000000000000e+00
544 544 9.000000000000000e+00
545 542 -1.000000000000000e+00
545 543 -1.000000000000000e+00
545 544 -1.000000000000000e+00
545 545 9.000000000000000e+00
546 431 -1.000000000000000e+00
546 545 -2.000000000000000e+00
546 546 7.000000000000000e+00
547 544 -1.000000000000000e+00
547 545 -1.000000000000000e+00
547 546 -2.000000000000000e+00
547 547 7.000000000000000e+00
548 545 -2.000000000000000e+00
548 546 -2.000000000000000e+00
548 548 7.000000000000000e+00
549 548 -1.000000000000000e+00
549 549 6.100000000000000e+01
550 547 -1.000000000000000e+00
550 548 -1.000000000000000e+00
550 549 -2.000000000000000e+00
550 550 8.000000000000000e+00
551 548 -1.000000000000000e+00
551 549 -2.000000000000000e+00
551 550 -1.000000000000000e+00
551 551 8.000000000000000e+00
552 549 -2.000000000000000e+00
552 550 -1.000000000000000e+00
552 551 -1.000000000000000e+00
552 552 8.000000000000000e+00
553 549 -1.000000000000000e+00
553 550 -1.000000000000000e+00
553 551 -1.000000000000000e+00
553 553 7.000000000000000e+00
554 549 -1.000000000000000e+00
554 551 -1.000000000000000e+00
554 553 -1.000000000000000e+00
554 554 7.000000000000000e+00
555 549 -1.000000000000000e+00
555 552 -1.000000000000000e+00
555 553 -1.000000000000000e+00
555 554 -1.000000000000000e+00
555 555 8.000000000000000e+00
556 549 -1.000000000000000e+00
556 553 -1.000000000000000e+00
556 554 -1.000000000000000e+00
556 555 -1.000000000000000e+00
556 556 8.000000000000000e+00
557 549 -1.000000000000000e+00
557 554 -1.000000000000000e+00
557 555 -1.000000000000000e+00
557 556 -1.000000000000000e+00
557 557 8.000000000000000e+00
558 549 -1.000000000000000e+00
558 555 -1.000000000000000e+00
558 556 -1.000000000000000e+00
558 557 -1.000000000000000e+00
558 558 8.000000000000000e+00
559 549 -1.000000000000000e+00
559 556 -1.000000000000000e+00
559 557 -1.000000000000000e+00
559 558 -1.000000000000000e+00
559 559 8.000000000000000e+00
560 392 -1.000000000000000e+00
560 549 -1.000000000000000e+00
560 552 -1.000000000000000e+00
560 557 -1.000000000000000e+00
560 558 -1.000000000000000e+00
560 559 -1.000000000000000e+00
560 560 9.000000000000000e+00
561 85 -1.000000000000000e+00
561 549 -1.000000000000000e+00
561 558 -1.000000000000000e+00
561 559 -1.000000000000000e+00
561 561 8.000000000000000e+00
562 549 -1.000000000000000e+00
562 559 -1.000000000000000e+00
562 560 -1.000000000000000e+00
562 562 7.000000000000000e+00
563 549 -1.000000000000000e+00
563 560 -1.000000000000000e+00
563 561 -1.000000000000000e+00
563 562 -1.000000000000000e+00
563 563 8.000000000000000e+00
564 2 -1.000000000000000e+00
564 549 -2.000000000000000e+00
564 561 -1.000000000000000e+00
564 562 -1.000000000000000e+00
564 563 -1.000000000000000e+00
564 564 9.000000000000000e+00
565 549 -1.000000000000000e+00
565 562 -1.000000000000000e+00
565 563 -1.000000000000000e+00
565 564 -1.000000000000000e+00
565 565 9.000000000000000e+00
566 202 -1.000000000000000e+00
566 549 -1.000000000000000e+00
566 563 -1.000000000000000e+00
566 565 -1.000000000000000e+00
566 566 9.000000000000000e+00
567 549 -1.000000000000000e+00
567 564 -1.000000000000000e+00
567 565 -1.000000000000000e+00
567 566 -1.000000000000000e+00
567 567 8.000000000000000e+00
568 549 -1.000000000000000e+00
568 565 -1.000000000000000e+00
568 566 -1.000000000000000e+00
568 567 -1.000000000000000e+00
568 568 9.000000000000000e+00
569 567 -1.000000000000000e+00
569 569 2.600000000000000e+01
570 567 -1.000000000000000e+00
570 568 -1.000000000000000e+00
570 569 -2.000000000000000e+00
570 570 8.000000000000000e+00
571 568 -1.000000000000000e+00
571 569 -2.000000000000000e+00
571 570 -1.000000000000000e+00
571 571 8.000000000000000e+00
572 324 -1.000000000000000e+00
572 428 -1.000000000000000e+00
572 569 -2.000000000000000e+00
572 570 -1.000000000000000e+00
572 571 -1.000000000000000e+00
572 572 1.000000000000000e+01
573 569 -1.000000000000000e+00
573 570 -1.000000000000000e+00
573 572 -1.000000000000000e+00
573 573 7.000000000000000e+00
574 397 -1.000000000000000e+00
574 569 -1.000000000000000e+00
574 571 -1.000000000000000e+00
574 572 -1.000000000000000e+00
574 573 -1.000000000000000e+00
574 574 8.000000000000000e+00
575 569 -1.000000000000000e+00
575 572 -1.000000000000000e+00
575 573 -1.000000000000000e+00
575 574 -1.000000000000000e+00
575 575 9.000000000000000e+00
576 573 -1.000000000000000e+00
576 574 -1.000000000000000e+00
576 575 -1.000000000000000e+00
576 576 1.900000000000000e+01
577 576 -2.000000000000000e+00
577 577 1.700000000000000e+01
578 575 -1.000000000000000e+00
578 576 -2.000000000000000e+00
578 577 -2.000000000000000e+00
578 578 8.000000000000000e+00
579 576 -2.000000000000000e+00
579 577 -2.000000000000000e+00
579 578 -1.000000000000000e+00
579 579 8.000000000000000e+00
580 576 -1.000000000000000e+00
580 577 -2.000000000000000e+00
580 578 -1.000000000000000e+00
580 579 -1.000000000000000e+00
580 580 8.000000000000000e+00
581 576 -1.000000000000000e+00
581 577 -1.000000000000000e+00
581 578 -1.000000000000000e+00
581 580 -1.000000000000000e+00
581 581 7.000000000000000e+00
582 576 -1.000000000000000e+00
582 577 -1.000000000000000e+00
582 579 -1.000000000000000e+00
582 580 -1.000000000000000e+00
582 581 -1.000000000000000e+00
582 582 8.000000000000000e+00
583 576 -1.000000000000000e+00
583 577 -1.000000000000000e+00
583 580 -1.000000000000000e+00
583 581 -1.000000000000000e+00
583 582 -1.000000000000000e+00
583 583 8.000000000000000e+00
584 505 -1.000000000000000e+00
584 576 -1.000000000000000e+00
584 577 -1.000000000000000e+00
584 581 -1.000000000000000e+00
584 582 -1.000000000000000e+00
584 583 -1.000000000000000e+00
584 584 8.000000000000000e+00
585 576 -1.000000000000000e+00
585 577 -1.000000000000000e+00
585 582 -1.000000000000000e+00
585 583 -1.000000000000000e+00
585 584 -1.000000000000000e+00
585 585 8.000000000000000e+00
586 576 -1.000000000000000e+00
586 577 -1.000000000000000e+00
586 583 -1.000000000000000e+00
586 585 -1.000000000000000e+00
586 586 7.000000000000000e+00
587 576 -1.000000000000000e+00
587 577 -1.000000000000000e+00
587 585 -1.000000000000000e+00
587 586 -1.000000000000000e+00
587 587 7.000000000000000e+00
588 576 -1.000000000000000e+00
588 577 -1.000000000000000e+00
588 585 -1.000000000000000e+00
588 587 -1.000000000000000e+00
588 588 8.000000000000000e+00
589 576 -1.000000000000000e+00
589 577 -1.000000000000000e+00
589 586 -1.000000000000000e+00
589 587 -1.000000000000000e+00
589 588 -1.000000000000000e+00
589 589 8.000000000000000e+00
590 569 -1.000000000000000e+00
590 587 -1.000000000000000e+00
590 588 -1.000000000000000e+00
590 589 -1.000000000000000e+00
590 590 9.000000000000000e+00
591 569 -1.000000000000000e+00
591 588 -1.000000000000000e+00
591 589 -1.000000000000000e+00
591 590 -1.000000000000000e+00
591 591 9.000000000000000e+00
592 569 -1.000000000000000e+00
592 589 -1.000000000000000e+00
592 590 -1.000000000000000e+00
592 591 -1.000000000000000e+00
592 592 8.000000000000000e+00
593 569 -1.000000000000000e+00
593 590 -1.000000000000000e+00
593 591 -1.000000000000000e+00
593 592 -1.000000000000000e+00
593 593 8.000000000000000e+00
594 569 -1.000000000000000e+00
594 591 -1.000000000000000e+00
594 592 -1.000000000000000e+00
594 593 -1.000000000000000e+00
594 594 8.000000000000000e+00
595 569 -1.000000000000000e+00
595 592 -1.000000000000000e+00
595 593 -1.000000000000000e+00
595 594 -1.000000000000000e+00
595 595 8.000000000000000e+00
596 569 -1.000000000000000e+00
596 593 -1.000000000000000e+00
596 594 -1.000000000000000e+00
596 595 -1.000000000000000e+00
596 596 8.000000000000000e+00
597 569 -1.000000000000000e+00
597 594 -1.000000000000000e+00
597 596 -1.000000000000000e+00
597 597 7.000000000000000e+00
598 569 -1.000000000000000e+00
598 575 -1.000000000000000e+00
598 595 -1.000000000000000e+00
598 596 -1.000000000000000e+00
598 598 7.000000000000000e+00
599 112 -1.000000000000000e+00
599 569 -1.000000000000000e+00
599 596 -1.000000000000000e+00
599 597 -1.000000000000000e+00
599 598 -1.000000000000000e+00
599 599 8.000000000000000e+00
600 569 -1.000000000000000e+00
600 597 -1.000000000000000e+00
600 598 -1.000000000000000e+00
600 600 7.000000000000000e+00
601 569 -1.000000000000000e+00
601 599 -1.000000000000000e+00
601 600 -1.000000000000000e+00
601 601 7.000000000000000e+00
602 569 -1.000000000000000e+00
602 599 -1.000000000000000e+00
602 600 -1.000000000000000e+00
602 601 -1.000000000000000e+00
602 602 1.000000000000000e+01
603 568 -1.000000000000000e+00
603 569 -1.000000000000000e+00
603 570 -1.000000000000000e+00
603 571 -1.000000000000000e+00
603 572 -1.000000000000000e+00
603 573 -1.000000000000000e+00
603 574 -1.000000000000000e+00
603 575 -1.000000000000000e+00
603 590 -1.000000000000000e+00
603 591 -1.000000000000000e+00
603 592 -1.000000000000000e+00
603 593 -1.000000000000000e+00
603 594 -1.000000000000000e+00
603 595 -1.000000000000000e+00
603 596 -1.000000000000000e+00
603 597 -1.000000000000000e+00
603 598 -1.000000000000000e+00
603 599 -1.000000000000000e+00
603 600 -2.000000000000000e+00
603 601 -2.000000000000000e+00
603 602 -2.000000000000000e+00
603 603 2.800000000000000e+01
604 155 -1.000000000000000e+00
604 569 -1.000000000000000e+00
604 601 -1.000000000000000e+00
604 602 -2.000000000000000e+00
604 603 -1.000000000000000e+00
604 604 8.000000000000000e+00
605 569 -1.000000000000000e+00
605 602 -2.000000000000000e+00
605 603 -1.000000000000000e+00
605 604 -1.000000000000000e+00
605 605 9.000000000000000e+00
606 603 -1.000000000000000e+00
606 604 -1.000000000000000e+00
606 605 -1.000000000000000e+00
606 606 1.300000000000000e+01
607 605 -1.000000000000000e+00
607 606 -2.000000000000000e+00
607 607 1.200000000000000e+01
608 605 -1.000000000000000e+00
608 606 -1.000000000000000e+00
608 607 -2.000000000000000e+00
608 608 7.000000000000000e+00
609 606 -2.000000000000000e+00
609 607 -2.000000000000000e+00
609 608 -1.000000000000000e+00
609 609 8.000000000000000e+00
610 606 -1.000000000000000e+00
610 607 -2.000000000000000e+00
610 608 -1.000000000000000e+00
610 609 -1.000000000000000e+00
610 610 8.000000000000000e+00
611 606 -1.000000000000000e+00
611 607 -1.000000000000000e+00
611 608 -1.000000000000000e+00
611 609 -1.000000000000000e+00
611 611 7.000000000000000e+00
612 213 -1.000000000000000e+00
612 534 -1.000000000000000e+00
612 606 -1.000000000000000e+00
612 607 -1.000000000000000e+00
612 609 -1.000000000000000e+00
612 610 -1.000000000000000e+00
612 611 -1.000000000000000e+00
612 612 9.000000000000000e+00
613 606 -1.000000000000000e+00
613 607 -1.000000000000000e+00
613 610 -1.000000000000000e+00
613 611 -1.000000000000000e+00
613 613 8.000000000000000e+00
614 611 -1.000000000000000e+00
614 612 -1.000000000000000e+00
614 614 3.400000000000000e+01
615 613 -1.000000000000000e+00
615 614 -2.000000000000000e+00
615 615 7.000000000000000e+00
616 613 -1.000000000000000e+00
616 614 -2.000000000000000e+00
616 615 -1.000000000000000e+00
616 616 8.000000000000000e+00
617 614 -2.000000000000000e+00
617 615 -1.000000000000000e+00
617 616 -1.000000000000000e+00
617 617 8.000000000000000e+00
618 509 -1.000000000000000e+00
618 614 -1.000000000000000e+00
618 615 -1.000000000000000e+00
618 616 -1.000000000000000e+00
618 617 -1.000000000000000e+00
618 618 8.000000000000000e+00
619 614 -1.000000000000000e+00
619 616 -1.000000000000000e+00
619 617 -1.000000000000000e+00
619 619 7.000000000000000e+00
620 614 -1.000000000000000e+00
620 617 -1.000000000000000e+00
620 618 -1.000000000000000e+00
620 619 -1.000000000000000e+00
620 620 8.000000000000000e+00
621 614 -1.000000000000000e+00
621 618 -1.000000000000000e+00
621 619 -1.000000000000000e+00
621 620 -1.000000000000000e+00
621 621 9.000000000000000e+00
622 614 -1.000000000000000e+00
622 619 -1.000000000000000e+00
622 620 -1.000000000000000e+00
622 621 -1.000000000000000e+00
622 622 8.000000000000000e+00
623 614 -1.000000000000000e+00
623 620 -1.000000000000000e+00
623 621 -1.000000000000000e+00
623 622 -1.000000000000000e+00
623 623 8.000000000000000e+00
624 614 -1.000000000000000e+00
624 621 -1.000000000000000e+00
624 622 -1.000000000000000e+00
624 623 -1.000000000000000e+00
624 624 8.000000000000000e+00
625 614 -1.000000000000000e+00
625 622 -1.000000000000000e+00
625 623 -1.000000000000000e+00
625 624 -1.000000000000000e+00
625 625 8.000000000000000e+00
626 614 -1.000000000000000e+00
626 623 -1.000000000000000e+00
626 624 -1.000000000000000e+00
626 625 -1.000000000000000e+00
626 626 8.000000000000000e+00
627 614 -1.000000000000000e+00
627 624 -1.000000000000000e+00
627 625 -1.000000000000000e+00
627 626 -1.000000000000000e+00
627 627 8.000000000000000e+00
628 614 -1.000000000000000e+00
628 625 -1.000000000000000e+00
628 626 -1.000000000000000e+00
628 627 -1.000000000000000e+00
628 628 8.000000000000000e+00
629 614 -1.000000000000000e+00
629 626 -1.000000000000000e+00
629 627 -1.000000000000000e+00
629 628 -1.000000000000000e+00
629 629 8.000000000000000e+00
630 614 -1.000000000000000e+00
630 627 -1.000000000000000e+00
630 628 -1.000000000000000e+00
630 629 -1.000000000000000e+00
630 630 8.000000000000000e+00
631 614 -1.000000000000000e+00
631 628 -1.000000000000000e+00
631 629 -1.000000000000000e+00
631 630 -1.000000000000000e+00
631 631 9.000000000000000e+00
632 571 -1.000000000000000e+00
632 614 -1.000000000000000e+00
632 629 -1.000000000000000e+00
632 630 -1.000000000000000e+00
632 631 -1.000000000000000e+00
632 632 9.000000000000000e+00
633 614 -1.000000000000000e+00
633 630 -1.000000000000000e+00
633 631 -1.000000000000000e+00
633 632 -1.000000000000000e+00
633 633 8.000000000000000e+00
634 614 -1.000000000000000e+00
634 631 -1.000000000000000e+00
634 632 -1.000000000000000e+00
634 633 -1.000000000000000e+00
634 634 8.000000000000000e+00
635 614 -1.000000000000000e+00
635 632 -1.000000000000000e+00
635 633 -1.000000000000000e+00
635 634 -1.000000000000000e+00
635 635 8.000000000000000e+00
636 614 -1.000000000000000e+00
636 633 -1.000000000000000e+00
636 634 -1.000000000000000e+00
636 635 -1.000000000000000e+00
636 636 9.000000000000000e+00
637 614 -1.000000000000000e+00
637 634 -1.000000000000000e+00
637 635 -1.000000000000000e+00
637 636 -1.000000000000000e+00
637 637 8.000000000000000e+00
638 614 -1.000000000000000e+00
638 635 -1.000000000000000e+00
638 636 -1.000000000000000e+00
638 637 -1.000000000000000e+00
638 638 8.000000000000000e+00
639 6 -1.000000000000000e+00
639 614 -1.000000000000000e+00
639 636 -1.000000000000000e+00
639 637 -1.000000000000000e+00
639 638 -1.000000000000000e+00
639 639 8.000000000000000e+00
640 614 -1.000000000000000e+00
640 637 -1.000000000000000e+00
640 638 -1.000000000000000e+00
640 640 9.000000000000000e+00
641 614 -1.000000000000000e+00
641 615 -1.000000000000000e+00
641 616 -1.000000000000000e+00
641 617 -1.000000000000000e+00
641 618 -1.000000000000000e+00
641 619 -1.000000000000000e+00
641 620 -1.000000000000000e+00
641 621 -1.000000000000000e+00
641 622 -1.000000000000000e+00
641 623 -1.000000000000000e+00
641 624 -1.000000000000000e+00
641 625 -1.000000000000000e+00
641 626 -1.000000000000000e+00
641 627 -1.000000000000000e+00
641 628 -1.000000000000000e+00
641 629 -1.000000000000000e+00
641 630 -1.000000000000000e+00
641 631 -1.000000000000000e+00
641 632 -1.000000000000000e+00
641 633 -1.000000000000000e+00
641 634 -1.000000000000000e+00
641 635 -1.000000000000000e+00
641 636 -1.000000000000000e+00
641 637 -1.000000000000000e+00
641 638 -2.000000000000000e+00
641 639 -2.000000000000000e+00
641 640 -2.000000000000000e+00
641 641 3.300000000000000e+01
642 614 -1.000000000000000e+00
642 639 -1.000000000000000e+00
642 640 -2.000000000000000e+00
642 641 -1.000000000000000e+00
642 642 9.000000000000000e+00
643 122 -1.000000000000000e+00
643 591 -1.000000000000000e+00
643 614 -1.000000000000000e+00
643 640 -2.000000000000000e+00
643 641 -1.000000000000000e+00
643 642 -1.000000000000000e+00
643 643 9.000000000000000e+00
644 641 -1.000000000000000e+00
644 642 -1.000000000000000e+00
644 644 1.200000000000000e+01
645 643 -1.000000000000000e+00
645 644 -2.000000000000000e+00
645 645 1.200000000000000e+01
646 643 -1.000000000000000e+00
646 644 -2.000000000000000e+00
646 645 -2.000000000000000e+00
646 646 8.000000000000000e+00
647 65 -1.000000000000000e+00
647 644 -2.000000000000000e+00
647 645 -2.000000000000000e+00
647 646 -1.000000000000000e+00
647 647 9.000000000000000e+00
648 644 -1.000000000000000e+00
648 645 -2.000000000000000e+00
648 646 -1.000000000000000e+00
648 647 -1.000000000000000e+00
648 648 8.000000000000000e+00
649 644 -1.000000000000000e+00
649 645 -1.000000000000000e+00
649 646 -1.000000000000000e+00
649 647 -1.000000000000000e+00
649 648 -1.000000000000000e+00
649 649 8.000000000000000e+00
650 644 -1.000000000000000e+00
650 645 -1.000000000000000e+00
650 647 -1.000000000000000e+00
650 648 -1.000000000000000e+00
650 649 -1.000000000000000e+00
650 650 9.000000000000000e+00
651 644 -1.000000000000000e+00
651 645 -1.000000000000000e+00
651 648 -1.000000000000000e+00
651 649 -1.000000000000000e+00
651 650 -1.000000000000000e+00
651 651 8.000000000000000e+00
652 305 -1.000000000000000e+00
652 649 -1.000000000000000e+00
652 650 -1.000000000000000e+00
652 651 -1.000000000000000e+00
652 652 8.000000000000000e+00
653 305 -1.000000000000000e+00
653 652 -1.000000000000000e+00
653 653 6.000000000000000e+00
654 305 -1.000000000000000e+00
654 651 -1.000000000000000e+00
654 652 -1.000000000000000e+00
654 653 -1.000000000000000e+00
654 654 8.000000000000000e+00
655 305 -1.000000000000000e+00
655 652 -1.000000000000000e+00
655 653 -1.000000000000000e+00
655 654 -1.000000000000000e+00
655 655 8.000000000000000e+00
656 305 -1.000000000000000e+00
656 653 -1.000000000000000e+00
656 654 -1.000000000000000e+00
656 655 -1.000000000000000e+00
656 656 8.000000000000000e+00
657 305 -1.000000000000000e+00
657 654 -1.000000000000000e+00
657 655 -1.000000000000000e+00
657 656 -1.000000000000000e+00
657 657 8.000000000000000e+00
658 305 -1.000000000000000e+00
658 340 -1.000000000000000e+00
658 469 -1.000000000000000e+00
658 655 -1.000000000000000e+00
658 656 -1.000000000000000e+00
658 657 -1.000000000000000e+00
658 658 9.000000000000000e+00
659 305 -1.000000000000000e+00
659 656 -1.000000000000000e+00
659 657 -1.000000000000000e+00
659 659 7.000000000000000e+00
660 100 -1.000000000000000e+00
660 305 -1.000000000000000e+00
660 657 -1.000000000000000e+00
660 658 -1.000000000000000e+00
660 659 -1.000000000000000e+00
660 660 9.000000000000000e+00
661 305 -1.000000000000000e+00
661 658 -1.000000000000000e+00
661 659 -1.000000000000000e+00
661 660 -1.000000000000000e+00
661 661 8.000000000000000e+00
662 305 -1.000000000000000e+00
662 659 -1.000000000000000e+00
662 660 -1.000000000000000e+00
662 661 -1.000000000000000e+00
662 662 8.000000000000000e+00
663 305 -1.000000000000000e+00
663 509 -1.000000000000000e+00
663 660 -1.000000000000000e+00
663 661 -1.000000000000000e+00
663 662 -1.000000000000000e+00
663 663 8.000000000000000e+00
664 119 -1.000000000000000e+00
664 305 -1.000000000000000e+00
664 661 -1.000000000000000e+00
664 662 -1.000000000000000e+00
664 663 -1.000000000000000e+00
664 664 9.000000000000000e+00
665 305 -1.000000000000000e+00
665 662 -1.000000000000000e+00
665 664 -1.000000000000000e+00
665 665 9.000000000000000e+00
666 305 -1.000000000000000e+00
666 552 -1.000000000000000e+00
666 663 -1.000000000000000e+00
666 664 -1.000000000000000e+00
666 665 -1.000000000000000e+00
666 666 1.000000000000000e+01
667 305 -1.000000000000000e+00
667 664 -1.000000000000000e+00
667 665 -1.000000000000000e+00
667 666 -1.000000000000000e+00
667 667 8.000000000000000e+00
668 305 -1.000000000000000e+00
668 665 -1.000000000000000e+00
668 666 -1.000000000000000e+00
668 667 -1.000000000000000e+00
668 668 8.000000000000000e+00
669 305 -1.000000000000000e+00
669 666 -1.000000000000000e+00
669 668 -1.000000000000000e+00
669 669 7.000000000000000e+00
670 305 -1.000000000000000e+00
670 667 -1.000000000000000e+00
670 668 -1.000000000000000e+00
670 669 -1.000000000000000e+00
670 670 8.000000000000000e+00
671 305 -1.000000000000000e+00
671 668 -1.000000000000000e+00
671 669 -1.000000000000000e+00
671 670 -1.000000000000000e+00
671 671 8.000000000000000e+00
672 305 -1.000000000000000e+00
672 669 -1.000000000000000e+00
672 670 -1.000000000000000e+00
672 671 -1.000000000000000e+00
672 672 8.000000000000000e+00
673 305 -1.000000000000000e+00
673 530 -1.000000000000000e+00
673 670 -1.000000000000000e+00
673 671 -1.000000000000000e+00
673 672 -1.000000000000000e+00
673 673 8.000000000000000e+00
674 305 -1.000000000000000e+00
674 469 -1.000000000000000e+00
674 671 -1.000000000000000e+00
674 672 -1.000000000000000e+00
674 673 -1.000000000000000e+00
674 674 8.000000000000000e+00
675 305 -1.000000000000000e+00
675 672 -1.000000000000000e+00
675 675 6.000000000000000e+00
676 305 -1.000000000000000e+00
676 673 -1.000000000000000e+00
676 674 -1.000000000000000e+00
676 675 -1.000000000000000e+00
676 676 8.000000000000000e+00
677 305 -1.000000000000000e+00
677 674 -1.000000000000000e+00
677 675 -1.000000000000000e+00
677 676 -1.000000000000000e+00
677 677 8.000000000000000e+00
678 305 -1.000000000000000e+00
678 676 -1.000000000000000e+00
678 677 -1.000000000000000e+00
678 678 7.000000000000000e+00
679 100 -1.000000000000000e+00
679 305 -1.000000000000000e+00
679 676 -1.000000000000000e+00
679 677 -1.000000000000000e+00
679 678 -1.000000000000000e+00
679 679 1.200000000000000e+01
680 305 -1.000000000000000e+00
680 652 -1.000000000000000e+00
680 653 -1.000000000000000e+00
680 654 -1.000000000000000e+00
680 655 -1.000000000000000e+00
680 656 -1.000000000000000e+00
680 657 -1.000000000000000e+00
680 658 -1.000000000000000e+00
680 659 -1.000000000000000e+00
680 660 -1.000000000000000e+00
680 661 -1.000000000000000e+00
680 662 -1.000000000000000e+00
680 663 -1.000000000000000e+00
680 664 -1.000000000000000e+00
680 665 -1.000000000000000e+00
680 666 -1.000000000000000e+00
680 667 -1.000000000000000e+00
680 668 -1.000000000000000e+00
680 669 -1.000000000000000e+00
680 670 -1.000000000000000e+00
680 671 -1.000000000000000e+00
680 672 -1.000000000000000e+00
680 673 -1.000000000000000e+00
680 674 -1.000000000000000e+00
680 675 -1.000000000000000e+00
680 676 -1.000000000000000e+00
680 677 -2.000000000000000e+00
680 678 -2.000000000000000e+00
680 679 -2.000000000000000e+00
680 680 3.600000000000000e+01
681 305 -2.000000000000000e+00
681 678 -1.000000000000000e+00
681 679 -2.000000000000000e+00
681 680 -1.000000000000000e+00
681 681 9.000000000000000e+00
682 305 -1.000000000000000e+00
682 359 -1.000000000000000e+00
682 679 -2.000000000000000e+00
682 680 -1.000000000000000e+00
682 681 -1.000000000000000e+00
682 682 8.000000000000000e+00
683 680 -1.000000000000000e+00
683 681 -1.000000000000000e+00
683 683 2.900000000000000e+01
684 272 -1.000000000000000e+00
684 681 -1.000000000000000e+00
684 682 -1.000000000000000e+00
684 683 -2.000000000000000e+00
684 684 1.000000000000000e+01
685 682 -1.000000000000000e+00
685 683 -2.000000000000000e+00
685 684 -1.000000000000000e+00
685 685 8.000000000000000e+00
686 683 -2.000000000000000e+00
686 684 -1.000000000000000e+00
686 685 -1.000000000000000e+00
686 686 8.000000000000000e+00
687 683 -1.000000000000000e+00
687 684 -1.000000000000000e+00
687 685 -1.000000000000000e+00
687 686 -1.000000000000000e+00
687 687 8.000000000000000e+00
688 683 -1.000000000000000e+00
688 685 -1.000000000000000e+00
688 686 -1.000000000000000e+00
688 687 -1.000000000000000e+00
688 688 8.000000000000000e+00
689 683 -1.000000000000000e+00
689 686 -1.000000000000000e+00
689 687 -1.000000000000000e+00
689 688 -1.000000000000000e+00
689 689 8.000000000000000e+00
690 683 -1.000000000000000e+00
690 687 -1.000000000000000e+00
690 689 -1.000000000000000e+00
690 690 7.000000000000000e+00
691 683 -1.000000000000000e+00
691 688 -1.000000000000000e+00
691 689 -1.000000000000000e+00
691 691 7.000000000000000e+00
692 683 -1.000000000000000e+00
692 689 -1.000000000000000e+00
692 690 -1.000000000000000e+00
692 691 -1.000000000000000e+00
692 692 8.000000000000000e+00
693 683 -1.000000000000000e+00
693 690 -1.000000000000000e+00
693 691 -1.000000000000000e+00
693 692 -1.000000000000000e+00
693 693 8.000000000000000e+00
694 683 -1.000000000000000e+00
694 691 -1.000000000000000e+00
694 692 -1.000000000000000e+00
694 693 -1.000000000000000e+00
694 694 8.000000000000000e+00
695 683 -1.000000000000000e+00
695 692 -1.000000000000000e+00
695 693 -1.000000000000000e+00
695 694 -1.000000000000000e+00
695 695 8.000000000000000e+00
696 683 -1.000000000000000e+00
696 693 -1.000000000000000e+00
696 694 -1.000000000000000e+00
696 695 -1.000000000000000e+00
696 696 8.000000000000000e+00
697 683 -1.000000000000000e+00
697 694 -1.000000000000000e+00
697 695 -1.000000000000000e+00
697 696 -1.000000000000000e+00
697 697 8.000000000000000e+00
698 683 -1.000000000000000e+00
698 695 -1.000000000000000e+00
698 696 -1.000000000000000e+00
698 697 -1.000000000000000e+00
698 698 8.000000000000000e+00
699 683 -1.000000000000000e+00
699 696 -1.000000000000000e+00
699 697 -1.000000000000000e+00
699 698 -1.000000000000000e+00
699 699 8.000000000000000e+00
700 181 -1.000000000000000e+00
700 683 -1.000000000000000e+00
700 697 -1.000000000000000e+00
700 698 -1.000000000000000e+00
700 699 -1.000000000000000e+00
700 700 8.000000000000000e+00
701 683 -1.000000000000000e+00
701 698 -1.000000000000000e+00
701 699 -1.000000000000000e+00
701 701 7.000000000000000e+00
702 202 -1.000000000000000e+00
702 683 -1.000000000000000e+00
702 699 -1.000000000000000e+00
702 700 -1.000000000000000e+00
702 701 -1.000000000000000e+00
702 702 9.000000000000000e+00
703 683 -1.000000000000000e+00
703 700 -1.000000000000000e+00
703 701 -1.000000000000000e+00
703 702 -1.000000000000000e+00
703 703 8.000000000000000e+00
704 683 -1.000000000000000e+00
704 701 -1.000000000000000e+00
704 702 -1.000000000000000e+00
704 703 -1.000000000000000e+00
704 704 1.000000000000000e+01
705 683 -1.000000000000000e+00
705 684 -1.000000000000000e+00
705 685 -1.000000000000000e+00
705 686 -1.000000000000000e+00
705 687 -1.000000000000000e+00
705 688 -1.000000000000000e+00
705 689 -1.000000000000000e+00
705 690 -1.000000000000000e+00
705 691 -1.000000000000000e+00
705 692 -1.000000000000000e+00
705 693 -1.000000000000000e+00
705 694 -1.000000000000000e+00
705 695 -1.000000000000000e+00
705 696 -1.000000000000000e+00
705 697 -1.000000000000000e+00
705 698 -1.000000000000000e+00
705 699 -1.000000000000000e+00
705 700 -1.000000000000000e+00
705 701 -1.000000000000000e+00
705 702 -2.000000000000000e+00
705 703 -2.000000000000000e+00
705 704 -2.000000000000000e+00
705 705 2.900000000000000e+01
706 305 -1.000000000000000e+00
706 378 -1.000000000000000e+00
706 683 -1.000000000000000e+00
706 703 -1.000000000000000e+00
706 704 -2.000000000000000e+00
706 705 -1.000000000000000e+00
706 706 1.000000000000000e+01
707 683 -1.000000000000000e+00
707 704 -2.000000000000000e+00
707 705 -1.000000000000000e+00
707 706 -1.000000000000000e+00
707 707 8.000000000000000e+00
708 705 -1.000000000000000e+00
708 706 -1.000000000000000e+00
708 707 -1.000000000000000e+00
708 708 2.300000000000000e+01
709 544 -1.000000000000000e+00
709 706 -1.000000000000000e+00
709 707 -1.000000000000000e+00
709 708 -2.000000000000000e+00
709 709 9.000000000000000e+00
710 707 -1.000000000000000e+00
710 708 -2.000000000000000e+00
710 709 -1.000000000000000e+00
710 710 8.000000000000000e+00
711 708 -2.000000000000000e+00
711 709 -1.000000000000000e+00
711 710 -1.000000000000000e+00
711 711 9.000000000000000e+00
712 708 -1.000000000000000e+00
712 709 -1.000000000000000e+00
712 710 -1.000000000000000e+00
712 711 -1.000000000000000e+00
712 712 9.000000000000000e+00
713 690 -1.000000000000000e+00
713 708 -1.000000000000000e+00
713 710 -1.000000000000000e+00
713 711 -1.000000000000000e+00
713 712 -1.000000000000000e+00
713 713 9.000000000000000e+00
714 708 -1.000000000000000e+00
714 711 -1.000000000000000e+00
714 712 -1.000000000000000e+00
714 713 -1.000000000000000e+00
714 714 8.000000000000000e+00
715 708 -1.000000000000000e+00
715 712 -1.000000000000000e+00
715 713 -1.000000000000000e+00
715 714 -1.000000000000000e+00
715 715 8.000000000000000e+00
716 708 -1.000000000000000e+00
716 713 -1.000000000000000e+00
716 714 -1.000000000000000e+00
716 715 -1.000000000000000e+00
716 716 8.000000000000000e+00
717 487 -1.000000000000000e+00
717 708 -1.000000000000000e+00
717 714 -1.000000000000000e+00
717 715 -1.000000000000000e+00
717 716 -1.000000000000000e+00
717 717 9.000000000000000e+00
718 708 -1.000000000000000e+00
718 715 -1.000000000000000e+00
718 717 -1.000000000000000e+00
718 718 7.000000000000000e+00
719 708 -1.000000000000000e+00
719 716 -1.000000000000000e+00
719 717 -1.000000000000000e+00
719 718 -1.000000000000000e+00
719 719 9.000000000000000e+00
720 440 -1.000000000000000e+00
720 708 -1.000000000000000e+00
720 717 -1.000000000000000e+00
720 718 -1.000000000000000e+00
720 719 -1.000000000000000e+00
720 720 8.000000000000000e+00
721 450 -1.000000000000000e+00
721 708 -1.000000000000000e+00
721 718 -1.000000000000000e+00
721 719 -1.000000000000000e+00
721 720 -1.000000000000000e+00
721 721 9.000000000000000e+00
722 708 -1.000000000000000e+00
722 719 -1.000000000000000e+00
722 721 -1.000000000000000e+00
722 722 9.000000000000000e+00
723 708 -1.000000000000000e+00
723 709 -1.000000000000000e+00
723 710 -1.000000000000000e+00
723 711 -1.000000000000000e+00
723 712 -1.000000000000000e+00
723 713 -1.000000000000000e+00
723 714 -1.000000000000000e+00
723 715 -1.000000000000000e+00
723 716 -1.000000000000000e+00
723 717 -1.000000000000000e+00
723 718 -1.000000000000000e+00
723 719 -1.000000000000000e+00
723 720 -2.000000000000000e+00
723 721 -2.000000000000000e+00
723 722 -2.000000000000000e+00
723 723 2.200000000000000e+01
724 209 -1.000000000000000e+00
724 708 -1.000000000000000e+00
724 721 -1.000000000000000e+00
724 722 -2.000000000000000e+00
724 723 -1.000000000000000e+00
724 724 8.000000000000000e+00
725 579 -1.000000000000000e+00
725 723 -1.000000000000000e+00
725 724 -1.000000000000000e+00
725 725 4.800000000000000e+01
726 723 -1.000000000000000e+00
726 725 -2.000000000000000e+00
726 726 7.000000000000000e+00
727 233 -1.000000000000000e+00
727 724 -1.000000000000000e+00
727 725 -2.000000000000000e+00
727 726 -1.000000000000000e+00
727 727 8.000000000000000e+00
728 725 -2.000000000000000e+00
728 726 -1.000000000000000e+00
728 728 7.000000000000000e+00
729 725 -1.000000000000000e+00
729 726 -1.000000000000000e+00
729 727 -1.000000000000000e+00
729 728 -1.000000000000000e+00
729 729 9.000000000000000e+00
730 725 -1.000000000000000e+00
730 727 -1.000000000000000e+00
730 728 -1.000000000000000e+00
730 729 -1.000000000000000e+00
730 730 8.000000000000000e+00
731 725 -1.000000000000000e+00
731 728 -1.000000000000000e+00
731 729 -1.000000000000000e+00
731 730 -1.000000000000000e+00
731 731 8.000000000000000e+00
732 725 -1.000000000000000e+00
732 729 -1.000000000000000e+00
732 730 -1.000000000000000e+00
732 731 -1.000000000000000e+00
732 732 8.000000000000000e+00
733 725 -1.000000000000000e+00
733 731 -1.000000000000000e+00
733 732 -1.000000000000000e+00
733 733 7.000000000000000e+00
734 725 -1.000000000000000e+00
734 731 -1.000000000000000e+00
734 732 -1.000000000000000e+00
734 733 -1.000000000000000e+00
734 734 8.000000000000000e+00
735 725 -1.000000000000000e+00
735 732 -1.000000000000000e+00
735 733 -1.000000000000000e+00
735 734 -1.000000000000000e+00
735 735 8.000000000000000e+00
736 725 -1.000000000000000e+00
736 733 -1.000000000000000e+00
736 734 -1.000000000000000e+00
736 735 -1.000000000000000e+00
736 736 8.000000000000000e+00
737 725 -1.000000000000000e+00
737 734 -1.000000000000000e+00
737 735 -1.000000000000000e+00
737 736 -1.000000000000000e+00
737 737 8.000000000000000e+00
738 725 -1.000000000000000e+00
738 735 -1.000000000000000e+00
738 736 -1.000000000000000e+00
738 737 -1.000000000000000e+00
738 738 8.000000000000000e+00
739 725 -1.000000000000000e+00
739 737 -1.000000000000000e+00
739 738 -1.000000000000000e+00
739 739 9.000000000000000e+00
740 725 -1.000000000000000e+00
740 737 -1.000000000000000e+00
740 738 -1.000000000000000e+00
740 739 -1.000000000000000e+00
740 740 8.000000000000000e+00
741 725 -1.000000000000000e+00
741 738 -1.000000000000000e+00
741 739 -1.000000000000000e+00
741 740 -1.000000000000000e+00
741 741 8.000000000000000e+00
742 725 -1.000000000000000e+00
742 739 -1.000000000000000e+00
742 740 -1.000000000000000e+00
742 741 -1.000000000000000e+00
742 742 8.000000000000000e+00
743 725 -1.000000000000000e+00
743 740 -1.000000000000000e+00
743 741 -1.000000000000000e+00
743 742 -1.000000000000000e+00
743 743 8.000000000000000e+00
744 725 -1.000000000000000e+00
744 741 -1.000000000000000e+00
744 742 -1.000000000000000e+00
744 743 -1.000000000000000e+00
744 744 8.000000000000000e+00
745 725 -1.000000000000000e+00
745 742 -1.000000000000000e+00
745 743 -1.000000000000000e+00
745 744 -1.000000000000000e+00
745 745 8.000000000000000e+00
746 725 -1.000000000000000e+00
746 743 -1.000000000000000e+00
746 744 -1.000000000000000e+00
746 745 -1.000000000000000e+00
746 746 8.000000000000000e+00
747 725 -1.000000000000000e+00
747 744 -1.000000000000000e+00
747 745 -1.000000000000000e+00
747 746 -1.000000000000000e+00
747 747 9.000000000000000e+00
748 725 -1.000000000000000e+00
748 746 -1.000000000000000e+00
748 747 -1.000000000000000e+00
748 748 2.500000000000000e+01
749 725 -1.000000000000000e+00
749 726 -1.000000000000000e+00
749 727 -1.000000000000000e+00
749 728 -1.000000000000000e+00
749 729 -1.000000000000000e+00
749 730 -1.000000000000000e+00
749 731 -1.000000000000000e+00
749 732 -1.000000000000000e+00
749 733 -1.000000000000000e+00
749 734 -1.000000000000000e+00
749 735 -1.000000000000000e+00
749 736 -1.000000000000000e+00
749 737 -1.000000000000000e+00
749 738 -1.000000000000000e+00
749 739 -1.000000000000000e+00
749 740 -1.000000000000000e+00
749 741 -1.000000000000000e+00
749 742 -1.000000000000000e+00
749 743 -1.000000000000000e+00
749 744 -1.000000000000000e+00
749 745 -1.000000000000000e+00
749 746 -2.000000000000000e+00
749 747 -2.000000000000000e+00
749 748 -2.000000000000000e+00
749 749 3.000000000000000e+01
750 725 -1.000000000000000e+00
750 747 -1.000000000000000e+00
750 748 -2.000000000000000e+00
750 749 -1.000000000000000e+00
750 750 8.000000000000000e+00
751 725 -1.000000000000000e+00
751 748 -2.000000000000000e+00
751 749 -1.000000000000000e+00
751 750 -1.000000000000000e+00
751 751 8.000000000000000e+00
752 725 -1.000000000000000e+00
752 748 -1.000000000000000e+00
752 749 -1.000000000000000e+00
752 750 -1.000000000000000e+00
752 751 -1.000000000000000e+00
752 752 8.000000000000000e+00
753 725 -1.000000000000000e+00
753 748 -1.000000000000000e+00
753 750 -1.000000000000000e+00
753 751 -1.000000000000000e+00
753 752 -1.000000000000000e+00
753 753 8.000000000000000e+00
754 725 -1.000000000000000e+00
754 748 -1.000000000000000e+00
754 751 -1.000000000000000e+00
754 752 -1.000000000000000e+00
754 753 -1.000000000000000e+00
754 754 8.000000000000000e+00
755 725 -1.000000000000000e+00
755 748 -1.000000000000000e+00
755 752 -1.000000000000000e+00
755 753 -1.000000000000000e+00
755 754 -1.000000000000000e+00
755 755 8.000000000000000e+00
756 725 -1.000000000000000e+00
756 748 -1.000000000000000e+00
756 753 -1.000000000000000e+00
756 754 -1.000000000000000e+00
756 755 -1.000000000000000e+00
756 756 8.000000000000000e+00
757 283 -1.000000000000000e+00
757 642 -1.000000000000000e+00
757 725 -1.000000000000000e+00
757 748 -1.000000000000000e+00
757 754 -1.000000000000000e+00
757 755 -1.000000000000000e+00
757 756 -1.000000000000000e+00
757 757 1.000000000000000e+01
758 725 -1.000000000000000e+00
758 748 -1.000000000000000e+00
758 755 -1.000000000000000e+00
758 756 -1.000000000000000e+00
758 757 -1.000000000000000e+00
758 758 8.000000000000000e+00
759 725 -1.000000000000000e+00
759 748 -1.000000000000000e+00
759 756 -1.000000000000000e+00
759 757 -1.000000000000000e+00
759 758 -1.000000000000000e+00
759 759 8.000000000000000e+00
760 725 -1.000000000000000e+00
760 748 -1.000000000000000e+00
760 757 -1.000000000000000e+00
760 758 -1.000000000000000e+00
760 759 -1.000000000000000e+00
760 760 8.000000000000000e+00
761 725 -1.000000000000000e+00
761 748 -1.000000000000000e+00
761 758 -1.000000000000000e+00
761 759 -1.000000000000000e+00
761 760 -1.000000000000000e+00
761 761 8.000000000000000e+00
762 725 -1.000000000000000e+00
762 748 -1.000000000000000e+00
762 760 -1.000000000000000e+00
762 761 -1.000000000000000e+00
762 762 7.000000000000000e+00
763 725 -1.000000000000000e+00
763 748 -1.000000000000000e+00
763 760 -1.000000000000000e+00
763 761 -1.000000000000000e+00
763 762 -1.000000000000000e+00
763 763 9.000000000000000e+00
764 725 -1.000000000000000e+00
764 748 -1.000000000000000e+00
764 761 -1.000000000000000e+00
764 762 -1.000000000000000e+00
764 763 -1.000000000000000e+00
764 764 9.000000000000000e+00
765 74 -1.000000000000000e+00
765 725 -1.000000000000000e+00
765 748 -1.000000000000000e+00
765 762 -1.000000000000000e+00
765 763 -1.000000000000000e+00
765 764 -1.000000000000000e+00
765 765 9.000000000000000e+00
766 725 -1.000000000000000e+00
766 748 -1.000000000000000e+00
766 763 -1.000000000000000e+00
766 764 -1.000000000000000e+00
766 765 -1.000000000000000e+00
766 766 8.000000000000000e+00
767 725 -1.000000000000000e+00
767 748 -1.000000000000000e+00
767 764 -1.000000000000000e+00
767 765 -1.000000000000000e+00
767 766 -1.000000000000000e+00
767 767 8.000000000000000e+00
768 765 -1.000000000000000e+00
768 766 -1.000000000000000e+00
768 768 1.800000000000000e+01
769 766 -1.000000000000000e+00
769 767 -1.000000000000000e+00
769 768 -2.000000000000000e+00
769 769 1.900000000000000e+01
770 768 -2.000000000000000e+00
770 769 -2.000000000000000e+00
770 770 7.000000000000000e+00
771 768 -2.000000000000000e+00
771 769 -2.000000000000000e+00
771 770 -1.000000000000000e+00
771 771 8.000000000000000e+00
772 768 -1.000000000000000e+00
772 769 -2.000000000000000e+00
772 770 -1.000000000000000e+00
772 771 -1.000000000000000e+00
772 772 8.000000000000000e+00
773 404 -1.000000000000000e+00
773 768 -1.000000000000000e+00
773 769 -1.000000000000000e+00
773 770 -1.000000000000000e+00
773 771 -1.000000000000000e+00
773 772 -1.000000000000000e+00
773 773 9.000000000000000e+00
774 768 -1.000000000000000e+00
774 769 -1.000000000000000e+00
774 771 -1.000000000000000e+00
774 772 -1.000000000000000e+00
774 773 -1.000000000000000e+00
774 774 8.000000000000000e+00
775 722 -1.000000000000000e+00
775 768 -1.000000000000000e+00
775 769 -1.000000000000000e+00
775 772 -1.000000000000000e+00
775 773 -1.000000000000000e+00
775 774 -1.000000000000000e+00
775 775 9.000000000000000e+00
776 768 -1.000000000000000e+00
776 769 -1.000000000000000e+00
776 773 -1.000000000000000e+00
776 774 -1.000000000000000e+00
776 776 7.000000000000000e+00
777 195 -1.000000000000000e+00
777 476 -1.000000000000000e+00
777 505 -1.000000000000000e+00
777 768 -1.000000000000000e+00
777 769 -1.000000000000000e+00
777 774 -1.000000000000000e+00
777 775 -1.000000000000000e+00
777 776 -1.000000000000000e+00
777 777 1.100000000000000e+01
778 768 -1.000000000000000e+00
778 769 -1.000000000000000e+00
778 775 -1.000000000000000e+00
778 776 -1.000000000000000e+00
778 777 -1.000000000000000e+00
778 778 8.000000000000000e+00
779 461 -1.000000000000000e+00
779 768 -1.000000000000000e+00
779 769 -1.000000000000000e+00
779 776 -1.000000000000000e+00
779 777 -1.000000000000000e+00
779 778 -1.000000000000000e+00
779 779 8.000000000000000e+00
780 768 -1.000000000000000e+00
780 769 -1.000000000000000e+00
780 777 -1.000000000000000e+00
780 778 -1.000000000000000e+00
780 779 -1.000000000000000e+00
780 780 8.000000000000000e+00
781 296 -1.000000000000000e+00
781 778 -1.000000000000000e+00
781 781 2.500000000000000e+01
782 768 -1.000000000000000e+00
782 769 -1.000000000000000e+00
782 779 -1.000000000000000e+00
782 780 -1.000000000000000e+00
782 782 7.000000000000000e+00
783 780 -1.000000000000000e+00
783 781 -2.000000000000000e+00
783 782 -1.000000000000000e+00
783 783 8.000000000000000e+00
784 781 -2.000000000000000e+00
784 782 -1.000000000000000e+00
784 783 -1.000000000000000e+00
784 784 9.000000000000000e+00
785 781 -1.000000000000000e+00
785 782 -1.000000000000000e+00
785 783 -1.000000000000000e+00
785 784 -1.000000000000000e+00
785 785 9.000000000000000e+00
786 243 -1.000000000000000e+00
786 781 -1.000000000000000e+00
786 783 -1.000000000000000e+00
786 784 -1.000000000000000e+00
786 785 -1.000000000000000e+00
786 786 9.000000000000000e+00
787 33 -1.000000000000000e+00
787 781 -1.000000000000000e+00
787 784 -1.000000000000000e+00
787 785 -1.000000000000000e+00
787 786 -1.000000000000000e+00
787 787 9.000000000000000e+00
788 781 -1.000000000000000e+00
788 785 -1.000000000000000e+00
788 786 -1.000000000000000e+00
788 787 -1.000000000000000e+00
788 788 8.000000000000000e+00
789 781 -1.000000000000000e+00
789 786 -1.000000000000000e+00
789 787 -1.000000000000000e+00
789 788 -1.000000000000000e+00
789 789 8.000000000000000e+00
790 781 -1.000000000000000e+00
790 787 -1.000000000000000e+00
790 788 -1.000000000000000e+00
790 789 -1.000000000000000e+00
790 790 8.000000000000000e+00
791 781 -1.000000000000000e+00
791 788 -1.000000000000000e+00
791 789 -1.000000000000000e+00
791 790 -1.000000000000000e+00
791 791 8.000000000000000e+00
792 781 -1.000000000000000e+00
792 789 -1.000000000000000e+00
792 790 -1.000000000000000e+00
792 791 -1.000000000000000e+00
792 792 8.000000000000000e+00
793 781 -1.000000000000000e+00
793 790 -1.000000000000000e+00
793 791 -1.000000000000000e+00
793 792 -1.000000000000000e+00
793 793 1.000000000000000e+01
794 781 -1.000000000000000e+00
794 791 -1.000000000000000e+00
794 793 -1.000000000000000e+00
794 794 7.000000000000000e+00
795 781 -1.000000000000000e+00
795 792 -1.000000000000000e+00
795 793 -1.000000000000000e+00
795 794 -1.000000000000000e+00
795 795 9.000000000000000e+00
796 781 -1.000000000000000e+00
796 793 -1.000000000000000e+00
796 794 -1.000000000000000e+00
796 795 -1.000000000000000e+00
796 796 8.000000000000000e+00
797 781 -1.000000000000000e+00
797 794 -1.000000000000000e+00
797 795 -1.000000000000000e+00
797 796 -1.000000000000000e+00
797 797 9.000000000000000e+00
798 141 -1.000000000000000e+00
798 781 -1.000000000000000e+00
798 795 -1.000000000000000e+00
798 796 -1.000000000000000e+00
798 797 -1.000000000000000e+00
798 798 8.000000000000000e+00
799 781 -1.000000000000000e+00
799 796 -1.000000000000000e+00
799 797 -1.000000000000000e+00
799 799 8.000000000000000e+00
800 196 -1.000000000000000e+00
800 539 -1.000000000000000e+00
800 781 -1.000000000000000e+00
800 797 -1.000000000000000e+00
800 798 -1.000000000000000e+00
800 799 -1.000000000000000e+00
800 800 1.100000000000000e+01
801 781 -1.000000000000000e+00
801 783 -1.000000000000000e+00
801 784 -1.000000000000000e+00
801 785 -1.000000000000000e+00
801 786 -1.000000000000000e+00
801 787 -1.000000000000000e+00
801 788 -1.000000000000000e+00
801 789 -1.000000000000000e+00
801 790 -1.000000000000000e+00
801 791 -1.000000000000000e+00
801 792 -1.000000000000000e+00
801 793 -1.000000000000000e+00
801 794 -1.000000000000000e+00
801 795 -1.000000000000000e+00
801 796 -1.000000000000000e+00
801 797 -1.000000000000000e+00
801 798 -2.000000000000000e+00
801 799 -2.000000000000000e+00
801 800 -2.000000000000000e+00
801 801 2.500000000000000e+01
802 781 -1.000000000000000e+00
802 797 -1.000000000000000e+00
802 799 -1.000000000000000e+00
802 800 -1.000000000000000e+00
802 801 -1.000000000000000e+00
802 802 7.000000000000000e+00
803 202 -1.000000000000000e+00
803 781 -1.000000000000000e+00
803 800 -2.000000000000000e+00
803 801 -1.000000000000000e+00
803 802 -1.000000000000000e+00
803 803 8.000000000000000e+00
804 176 -1.000000000000000e+00
804 187 -1.000000000000000e+00
804 801 -1.000000000000000e+00
804 802 -1.000000000000000e+00
804 804 8.000000000000000e+00
805 176 -1.000000000000000e+00
805 803 -1.000000000000000e+00
805 804 -1.000000000000000e+00
805 805 3.100000000000000e+01
806 47 -1.000000000000000e+00
806 176 -1.000000000000000e+00
806 177 -1.000000000000000e+00
806 178 -1.000000000000000e+00
806 179 -1.000000000000000e+00
806 180 -1.000000000000000e+00
806 181 -1.000000000000000e+00
806 182 -1.000000000000000e+00
806 183 -1.000000000000000e+00
806 184 -1.000000000000000e+00
806 187 -1.000000000000000e+00
806 188 -1.000000000000000e+00
806 189 -1.000000000000000e+00
806 190 -1.000000000000000e+00
806 191 -1.000000000000000e+00
806 192 -1.000000000000000e+00
806 193 -1.000000000000000e+00
806 194 -1.000000000000000e+00
806 195 -1.000000000000000e+00
806 196 -1.000000000000000e+00
806 197 -1.000000000000000e+00
806 198 -1.000000000000000e+00
806 199 -1.000000000000000e+00
806 200 -1.000000000000000e+00
806 201 -1.000000000000000e+00
806 202 -1.000000000000000e+00
806 203 -1.000000000000000e+00
806 204 -1.000000000000000e+00
806 803 -1.000000000000000e+00
806 804 -2.000000000000000e+00
806 805 -2.000000000000000e+00
806 806 3.600000000000000e+01
807 176 -1.000000000000000e+00
807 805 -2.000000000000000e+00
807 806 -1.000000000000000e+00
807 807 7.000000000000000e+00
808 176 -1.000000000000000e+00
808 539 -1.000000000000000e+00
808 805 -2.000000000000000e+00
808 806 -1.000000000000000e+00
808 807 -1.000000000000000e+00
808 808 8.000000000000000e+00
809 176 -1.000000000000000e+00
809 665 -1.000000000000000e+00
809 805 -1.000000000000000e+00
809 806 -1.000000000000000e+00
809 807 -1.000000000000000e+00
809 808 -1.000000000000000e+00
809 809 8.000000000000000e+00
810 78 -1.000000000000000e+00
810 176 -1.000000000000000e+00
810 805 -1.000000000000000e+00
810 807 -1.000000000000000e+00
810 808 -1.000000000000000e+00
810 810 8.000000000000000e+00
811 176 -1.000000000000000e+00
811 606 -1.000000000000000e+00
811 805 -1.000000000000000e+00
811 809 -1.000000000000000e+00
811 810 -1.000000000000000e+00
811 811 8.000000000000000e+00
812 176 -1.000000000000000e+00
812 805 -1.000000000000000e+00
812 809 -1.000000000000000e+00
812 810 -1.000000000000000e+00
812 811 -1.000000000000000e+00
812 812 8.000000000000000e+00
813 176 -1.000000000000000e+00
813 805 -1.000000000000000e+00
813 811 -1.000000000000000e+00
813 812 -1.000000000000000e+00
813 813 7.000000000000000e+00
814 176 -1.000000000000000e+00
814 207 -1.000000000000000e+00
814 805 -1.000000000000000e+00
814 811 -1.000000000000000e+00
814 812 -1.000000000000000e+00
814 813 -1.000000000000000e+00
814 814 1.000000000000000e+01
815 176 -1.000000000000000e+00
815 805 -1.000000000000000e+00
815 812 -1.000000000000000e+00
815 813 -1.000000000000000e+00
815 814 -1.000000000000000e+00
815 815 8.000000000000000e+00
816 708 -1.000000000000000e+00
816 719 -1.000000000000000e+00
816 722 -1.000000000000000e+00
816 813 -1.000000000000000e+00
816 814 -1.000000000000000e+00
816 815 -1.000000000000000e+00
816 816 9.000000000000000e+00
817 359 -1.000000000000000e+00
817 549 -1.000000000000000e+00
817 814 -1.000000000000000e+00
817 815 -1.000000000000000e+00
817 816 -1.000000000000000e+00
817 817 8.000000000000000e+00
818 549 -1.000000000000000e+00
818 784 -1.000000000000000e+00
818 815 -1.000000000000000e+00
818 817 -1.000000000000000e+00
818 818 7.000000000000000e+00
819 549 -1.000000000000000e+00
819 816 -1.000000000000000e+00
819 817 -1.000000000000000e+00
819 819 8.000000000000000e+00
820 549 -1.000000000000000e+00
820 818 -1.000000000000000e+00
820 819 -1.000000000000000e+00
820 820 7.000000000000000e+00
821 549 -1.000000000000000e+00
821 818 -1.000000000000000e+00
821 819 -1.000000000000000e+00
821 820 -1.000000000000000e+00
821 821 8.000000000000000e+00
822 549 -1.000000000000000e+00
822 819 -1.000000000000000e+00
822 820 -1.000000000000000e+00
822 821 -1.000000000000000e+00
822 822 8.000000000000000e+00
823 549 -1.000000000000000e+00
823 820 -1.000000000000000e+00
823 821 -1.000000000000000e+00
823 822 -1.000000000000000e+00
823 823 8.000000000000000e+00
824 549 -1.000000000000000e+00
824 821 -1.000000000000000e+00
824 822 -1.000000000000000e+00
824 823 -1.000000000000000e+00
824 824 8.000000000000000e+00
825 174 -1.000000000000000e+00
825 549 -1.000000000000000e+00
825 822 -1.000000000000000e+00
825 823 -1.000000000000000e+00
825 824 -1.000000000000000e+00
825 825 9.000000000000000e+00
826 549 -1.000000000000000e+00
826 823 -1.000000000000000e+00
826 824 -1.000000000000000e+00
826 825 -1.000000000000000e+00
826 826 8.000000000000000e+00
827 549 -1.000000000000000e+00
827 825 -1.000000000000000e+00
827 827 3.100000000000000e+01
828 549 -1.000000000000000e+00
828 550 -1.000000000000000e+00
828 551 -1.000000000000000e+00
828 552 -1.000000000000000e+00
828 553 -1.000000000000000e+00
828 554 -1.000000000000000e+00
828 555 -1.000000000000000e+00
828 556 -1.000000000000000e+00
828 557 -1.000000000000000e+00
828 558 -1.000000000000000e+00
828 559 -1.000000000000000e+00
828 560 -1.000000000000000e+00
828 561 -1.000000000000000e+00
828 562 -1.000000000000000e+00
828 563 -1.000000000000000e+00
828 564 -1.000000000000000e+00
828 565 -1.000000000000000e+00
828 566 -1.000000000000000e+00
828 567 -1.000000000000000e+00
828 568 -1.000000000000000e+00
828 817 -1.000000000000000e+00
828 818 -1.000000000000000e+00
828 819 -1.000000000000000e+00
828 820 -1.000000000000000e+00
828 821 -1.000000000000000e+00
828 822 -1.000000000000000e+00
828 823 -1.000000000000000e+00
828 824 -1.000000000000000e+00
828 825 -2.000000000000000e+00
828 826 -2.000000000000000e+00
828 827 -2.000000000000000e+00
828 828 3.700000000000000e+01
829 549 -1.000000000000000e+00
829 826 -1.000000000000000e+00
829 827 -2.000000000000000e+00
829 828 -1.000000000000000e+00
829 829 9.000000000000000e+00
830 549 -1.000000000000000e+00
830 568 -1.000000000000000e+00
830 827 -2.000000000000000e+00
830 828 -1.000000000000000e+00
830 829 -1.000000000000000e+00
830 830 8.000000000000000e+00
831 549 -1.000000000000000e+00
831 827 -1.000000000000000e+00
831 828 -1.000000000000000e+00
831 829 -1.000000000000000e+00
831 830 -1.000000000000000e+00
831 831 8.000000000000000e+00
832 497 -1.000000000000000e+00
832 549 -1.000000000000000e+00
832 566 -1.000000000000000e+00
832 827 -1.000000000000000e+00
832 829 -1.000000000000000e+00
832 831 -1.000000000000000e+00
832 832 8.000000000000000e+00
833 549 -1.000000000000000e+00
833 827 -1.000000000000000e+00
833 830 -1.000000000000000e+00
833 831 -1.000000000000000e+00
833 832 -1.000000000000000e+00
833 833 8.000000000000000e+00
834 549 -1.000000000000000e+00
834 827 -1.000000000000000e+00
834 831 -1.000000000000000e+00
834 832 -1.000000000000000e+00
834 833 -1.000000000000000e+00
834 834 8.000000000000000e+00
835 441 -1.000000000000000e+00
835 549 -1.000000000000000e+00
835 827 -1.000000000000000e+00
835 833 -1.000000000000000e+00
835 834 -1.000000000000000e+00
835 835 8.000000000000000e+00
836 549 -1.000000000000000e+00
836 827 -1.000000000000000e+00
836 833 -1.000000000000000e+00
836 834 -1.000000000000000e+00
836 835 -1.000000000000000e+00
836 836 8.000000000000000e+00
837 549 -1.000000000000000e+00
837 827 -1.000000000000000e+00
837 834 -1.000000000000000e+00
837 835 -1.000000000000000e+00
837 836 -1.000000000000000e+00
837 837 8.000000000000000e+00
838 549 -1.000000000000000e+00
838 827 -1.000000000000000e+00
838 835 -1.000000000000000e+00
838 836 -1.000000000000000e+00
838 837 -1.000000000000000e+00
838 838 8.000000000000000e+00
839 185 -1.000000000000000e+00
839 549 -1.000000000000000e+00
839 827 -1.000000000000000e+00
839 836 -1.000000000000000e+00
839 837 -1.000000000000000e+00
839 838 -1.000000000000000e+00
839 839 8.000000000000000e+00
840 549 -1.000000000000000e+00
840 827 -1.000000000000000e+00
840 837 -1.000000000000000e+00
840 838 -1.000000000000000e+00
840 839 -1.000000000000000e+00
840 840 8.000000000000000e+00
841 549 -1.000000000000000e+00
841 827 -1.000000000000000e+00
841 838 -1.000000000000000e+00
841 839 -1.000000000000000e+00
841 840 -1.000000000000000e+00
841 841 8.000000000000000e+00
842 549 -1.000000000000000e+00
842 827 -1.000000000000000e+00
842 840 -1.000000000000000e+00
842 841 -1.000000000000000e+00
842 842 7.000000000000000e+00
843 549 -1.000000000000000e+00
843 827 -1.000000000000000e+00
843 840 -1.000000000000000e+00
843 841 -1.000000000000000e+00
843 842 -1.000000000000000e+00
843 843 8.000000000000000e+00
844 549 -1.000000000000000e+00
844 827 -1.000000000000000e+00
844 841 -1.000000000000000e+00
844 842 -1.000000000000000e+00
844 843 -1.000000000000000e+00
844 844 8.000000000000000e+00
845 549 -1.000000000000000e+00
845 827 -1.000000000000000e+00
845 842 -1.000000000000000e+00
845 843 -1.000000000000000e+00
845 844 -1.000000000000000e+00
845 845 8.000000000000000e+00
846 549 -1.000000000000000e+00
846 827 -1.000000000000000e+00
846 843 -1.000000000000000e+00
846 844 -1.000000000000000e+00
846 845 -1.000000000000000e+00
846 846 8.000000000000000e+00
847 549 -1.000000000000000e+00
847 827 -1.000000000000000e+00
847 844 -1.000000000000000e+00
847 845 -1.000000000000000e+00
847 846 -1.000000000000000e+00
847 847 8.000000000000000e+00
848 549 -1.000000000000000e+00
848 584 -1.000000000000000e+00
848 827 -1.000000000000000e+00
848 845 -1.000000000000000e+00
848 847 -1.000000000000000e+00
848 848 8.000000000000000e+00
849 549 -1.000000000000000e+00
849 827 -1.000000000000000e+00
849 846 -1.000000000000000e+00
849 847 -1.000000000000000e+00
849 848 -1.000000000000000e+00
849 849 8.000000000000000e+00
850 359 -1.000000000000000e+00
850 549 -1.000000000000000e+00
850 827 -1.000000000000000e+00
850 847 -1.000000000000000e+00
850 848 -1.000000000000000e+00
850 849 -1.000000000000000e+00
850 850 8.000000000000000e+00
851 549 -1.000000000000000e+00
851 827 -1.000000000000000e+00
851 848 -1.000000000000000e+00
851 849 -1.000000000000000e+00
851 850 -1.000000000000000e+00
851 851 8.000000000000000e+00
852 549 -1.000000000000000e+00
852 827 -1.000000000000000e+00
852 849 -1.000000000000000e+00
852 850 -1.000000000000000e+00
852 852 7.000000000000000e+00
853 549 -1.000000000000000e+00
853 603 -1.000000000000000e+00
853 827 -1.000000000000000e+00
853 851 -1.000000000000000e+00
853 852 -1.000000000000000e+00
853 853 7.000000000000000e+00
854 851 -1.000000000000000e+00
854 852 -1.000000000000000e+00
854 853 -1.000000000000000e+00
854 854 1.700000000000000e+01
855 852 -1.000000000000000e+00
855 853 -1.000000000000000e+00
855 854 -2.000000000000000e+00
855 855 1.700000000000000e+01
856 854 -2.000000000000000e+00
856 855 -2.000000000000000e+00
856 856 7.000000000000000e+00
857 854 -2.000000000000000e+00
857 855 -1.000000000000000e+00
857 856 -1.000000000000000e+00
857 857 7.000000000000000e+00
858 854 -1.000000000000000e+00
858 855 -2.000000000000000e+00
858 856 -1.000000000000000e+00
858 857 -1.000000000000000e+00
858 858 8.000000000000000e+00
859 854 -1.000000000000000e+00
859 855 -1.000000000000000e+00
859 856 -1.000000000000000e+00
859 857 -1.000000000000000e+00
859 858 -1.000000000000000e+00
859 859 8.000000000000000e+00
860 854 -1.000000000000000e+00
860 855 -1.000000000000000e+00
860 857 -1.000000000000000e+00
860 858 -1.000000000000000e+00
860 859 -1.000000000000000e+00
860 860 9.000000000000000e+00
861 444 -1.000000000000000e+00
861 854 -1.000000000000000e+00
861 855 -1.000000000000000e+00
861 858 -1.000000000000000e+00
861 859 -1.000000000000000e+00
861 860 -1.000000000000000e+00
861 861 9.000000000000000e+00
862 149 -1.000000000000000e+00
862 854 -1.000000000000000e+00
862 855 -1.000000000000000e+00
862 859 -1.000000000000000e+00
862 860 -1.000000000000000e+00
862 861 -1.000000000000000e+00
862 862 9.000000000000000e+00
863 854 -1.000000000000000e+00
863 855 -1.000000000000000e+00
863 860 -1.000000000000000e+00
863 861 -1.000000000000000e+00
863 862 -1.000000000000000e+00
863 863 9.000000000000000e+00
864 854 -1.000000000000000e+00
864 855 -1.000000000000000e+00
864 861 -1.000000000000000e+00
864 862 -1.000000000000000e+00
864 863 -1.000000000000000e+00
864 864 9.000000000000000e+00
865 854 -1.000000000000000e+00
865 855 -1.000000000000000e+00
865 862 -1.000000000000000e+00
865 863 -1.000000000000000e+00
865 864 -1.000000000000000e+00
865 865 8.000000000000000e+00
866 863 -1.000000000000000e+00
866 864 -1.000000000000000e+00
866 866 3.500000000000000e+01
867 864 -1.000000000000000e+00
867 865 -1.000000000000000e+00
867 866 -2.000000000000000e+00
867 867 8.000000000000000e+00
868 270 -1.000000000000000e+00
868 865 -1.000000000000000e+00
868 866 -2.000000000000000e+00
868 867 -1.000000000000000e+00
868 868 9.000000000000000e+00
869 866 -2.000000000000000e+00
869 867 -1.000000000000000e+00
869 868 -1.000000000000000e+00
869 869 8.000000000000000e+00
870 866 -1.000000000000000e+00
870 867 -1.000000000000000e+00
870 868 -1.000000000000000e+00
870 869 -1.000000000000000e+00
870 870 8.000000000000000e+00
871 605 -1.000000000000000e+00
871 866 -1.000000000000000e+00
871 868 -1.000000000000000e+00
871 869 -1.000000000000000e+00
871 870 -1.000000000000000e+00
871 871 8.000000000000000e+00
872 866 -1.000000000000000e+00
872 869 -1.000000000000000e+00
872 870 -1.000000000000000e+00
872 872 7.000000000000000e+00
873 866 -1.000000000000000e+00
873 870 -1.000000000000000e+00
873 871 -1.000000000000000e+00
873 872 -1.000000000000000e+00
873 873 8.000000000000000e+00
874 866 -1.000000000000000e+00
874 871 -1.000000000000000e+00
874 873 -1.000000000000000e+00
874 874 7.000000000000000e+00
875 866 -1.000000000000000e+00
875 872 -1.000000000000000e+00
875 873 -1.000000000000000e+00
875 874 -1.000000000000000e+00
875 875 8.000000000000000e+00
876 866 -1.000000000000000e+00
876 873 -1.000000000000000e+00
876 874 -1.000000000000000e+00
876 875 -1.000000000000000e+00
876 876 8.000000000000000e+00
877 866 -1.000000000000000e+00
877 874 -1.000000000000000e+00
877 875 -1.000000000000000e+00
877 876 -1.000000000000000e+00
877 877 8.000000000000000e+00
878 415 -1.000000000000000e+00
878 473 -1.000000000000000e+00
878 866 -1.000000000000000e+00
878 875 -1.000000000000000e+00
878 876 -1.000000000000000e+00
878 877 -1.000000000000000e+00
878 878 9.000000000000000e+00
879 866 -1.000000000000000e+00
879 876 -1.000000000000000e+00
879 877 -1.000000000000000e+00
879 878 -1.000000000000000e+00
879 879 8.000000000000000e+00
880 866 -1.000000000000000e+00
880 877 -1.000000000000000e+00
880 879 -1.000000000000000e+00
880 880 8.000000000000000e+00
881 866 -1.000000000000000e+00
881 878 -1.000000000000000e+00
881 879 -1.000000000000000e+00
881 880 -1.000000000000000e+00
881 881 8.000000000000000e+00
882 866 -1.000000000000000e+00
882 879 -1.000000000000000e+00
882 880 -1.000000000000000e+00
882 881 -1.000000000000000e+00
882 882 1.000000000000000e+01
883 575 -1.000000000000000e+00
883 866 -1.000000000000000e+00
883 880 -1.000000000000000e+00
883 881 -1.000000000000000e+00
883 882 -1.000000000000000e+00
883 883 9.000000000000000e+00
884 866 -1.000000000000000e+00
884 881 -1.000000000000000e+00
884 882 -1.000000000000000e+00
884 883 -1.000000000000000e+00
884 884 8.000000000000000e+00
885 739 -1.000000000000000e+00
885 866 -1.000000000000000e+00
885 882 -1.000000000000000e+00
885 883 -1.000000000000000e+00
885 884 -1.000000000000000e+00
885 885 9.000000000000000e+00
886 866 -1.000000000000000e+00
886 883 -1.000000000000000e+00
886 884 -1.000000000000000e+00
886 885 -1.000000000000000e+00
886 886 8.000000000000000e+00
887 326 -1.000000000000000e+00
887 866 -1.000000000000000e+00
887 884 -1.000000000000000e+00
887 886 -1.000000000000000e+00
887 887 8.000000000000000e+00
888 463 -1.000000000000000e+00
888 866 -1.000000000000000e+00
888 885 -1.000000000000000e+00
888 886 -1.000000000000000e+00
888 887 -1.000000000000000e+00
888 888 8.000000000000000e+00
889 510 -1.000000000000000e+00
889 866 -1.000000000000000e+00
889 886 -1.000000000000000e+00
889 887 -1.000000000000000e+00
889 889 8.000000000000000e+00
890 866 -1.000000000000000e+00
890 887 -1.000000000000000e+00
890 888 -1.000000000000000e+00
890 889 -1.000000000000000e+00
890 890 8.000000000000000e+00
891 595 -1.000000000000000e+00
891 866 -1.000000000000000e+00
891 888 -1.000000000000000e+00
891 889 -1.000000000000000e+00
891 890 -1.000000000000000e+00
891 891 9.000000000000000e+00
892 866 -1.000000000000000e+00
892 889 -1.000000000000000e+00
892 890 -1.000000000000000e+00
892 891 -1.000000000000000e+00
892 892 8.000000000000000e+00
893 866 -1.000000000000000e+00
893 890 -1.000000000000000e+00
893 891 -1.000000000000000e+00
893 892 -1.000000000000000e+00
893 893 1.000000000000000e+01
894 866 -1.000000000000000e+00
894 867 -1.000000000000000e+00
894 868 -1.000000000000000e+00
894 869 -1.000000000000000e+00
894 870 -1.000000000000000e+00
894 871 -1.000000000000000e+00
894 872 -1.000000000000000e+00
894 873 -1.000000000000000e+00
894 874 -1.000000000000000e+00
894 875 -1.000000000000000e+00
894 876 -1.000000000000000e+00
894 877 -1.000000000000000e+00
894 878 -1.000000000000000e+00
894 879 -1.000000000000000e+00
894 880 -1.000000000000000e+00
894 881 -1.000000000000000e+00
894 882 -1.000000000000000e+00
894 883 -1.000000000000000e+00
894 884 -1.000000000000000e+00
894 885 -1.000000000000000e+00
894 886 -1.000000000000000e+00
894 887 -1.000000000000000e+00
894 888 -1.000000000000000e+00
894 889 -1.000000000000000e+00
894 890 -1.000000000000000e+00
894 891 -2.000000000000000e+00
894 892 -2.000000000000000e+00
894 893 -2.000000000000000e+00
894 894 3.400000000000000e+01
895 866 -1.000000000000000e+00
895 892 -1.000000000000000e+00
895 893 -2.000000000000000e+00
895 894 -1.000000000000000e+00
895 895 8.000000000000000e+00
896 545 -1.000000000000000e+00
896 866 -1.000000000000000e+00
896 893 -2.000000000000000e+00
896 894 -1.000000000000000e+00
896 895 -1.000000000000000e+00
896 896 9.000000000000000e+00
897 523 -1.000000000000000e+00
897 894 -1.000000000000000e+00
897 895 -1.000000000000000e+00
897 897 4.700000000000000e+01
898 895 -1.000000000000000e+00
898 897 -2.000000000000000e+00
898 898 8.000000000000000e+00
899 354 -1.000000000000000e+00
899 896 -1.000000000000000e+00
899 897 -1.000000000000000e+00
899 898 -1.000000000000000e+00
899 899 8.000000000000000e+00
900 897 -2.000000000000000e+00
900 898 -1.000000000000000e+00
900 899 -1.000000000000000e+00
900 900 8.000000000000000e+00
901 897 -1.000000000000000e+00
901 898 -1.000000000000000e+00
901 899 -1.000000000000000e+00
901 900 -1.000000000000000e+00
901 901 9.000000000000000e+00
902 897 -1.000000000000000e+00
902 899 -1.000000000000000e+00
902 901 -1.000000000000000e+00
902 902 7.000000000000000e+00
903 897 -1.000000000000000e+00
903 900 -1.000000000000000e+00
903 901 -1.000000000000000e+00
903 902 -1.000000000000000e+00
903 903 8.000000000000000e+00
904 897 -1.000000000000000e+00
904 901 -1.000000000000000e+00
904 902 -1.000000000000000e+00
904 903 -1.000000000000000e+00
904 904 8.000000000000000e+00
905 897 -1.000000000000000e+00
905 902 -1.000000000000000e+00
905 903 -1.000000000000000e+00
905 904 -1.000000000000000e+00
905 905 9.000000000000000e+00
906 169 -1.000000000000000e+00
906 903 -1.000000000000000e+00
906 904 -1.000000000000000e+00
906 905 -1.000000000000000e+00
906 906 9.000000000000000e+00
907 210 -1.000000000000000e+00
907 904 -1.000000000000000e+00
907 905 -1.000000000000000e+00
907 906 -2.000000000000000e+00
907 907 7.000000000000000e+00
908 906 -1.000000000000000e+00
908 907 -1.000000000000000e+00
908 908 2.200000000000000e+01
909 906 -1.000000000000000e+00
909 908 -2.000000000000000e+00
909 909 7.000000000000000e+00
910 265 -1.000000000000000e+00
910 908 -2.000000000000000e+00
910 909 -1.000000000000000e+00
910 910 8.000000000000000e+00
911 908 -2.000000000000000e+00
911 909 -1.000000000000000e+00
911 910 -1.000000000000000e+00
911 911 8.000000000000000e+00
912 908 -1.000000000000000e+00
912 909 -1.000000000000000e+00
912 910 -1.000000000000000e+00
912 911 -1.000000000000000e+00
912 912 8.000000000000000e+00
913 908 -1.000000000000000e+00
913 910 -1.000000000000000e+00
913 911 -1.000000000000000e+00
913 912 -1.000000000000000e+00
913 913 8.000000000000000e+00
914 908 -1.000000000000000e+00
914 911 -1.000000000000000e+00
914 912 -1.000000000000000e+00
914 913 -1.000000000000000e+00
914 914 8.000000000000000e+00
915 908 -1.000000000000000e+00
915 912 -1.000000000000000e+00
915 913 -1.000000000000000e+00
915 914 -1.000000000000000e+00
915 915 8.000000000000000e+00
916 77 -1.000000000000000e+00
916 908 -1.000000000000000e+00
916 913 -1.000000000000000e+00
916 914 -1.000000000000000e+00
916 915 -1.000000000000000e+00
916 916 8.000000000000000e+00
917 908 -1.000000000000000e+00
917 914 -1.000000000000000e+00
917 915 -1.000000000000000e+00
917 917 7.000000000000000e+00
918 908 -1.000000000000000e+00
918 915 -1.000000000000000e+00
918 917 -1.000000000000000e+00
918 918 7.000000000000000e+00
919 908 -1.000000000000000e+00
919 916 -1.000000000000000e+00
919 918 -1.000000000000000e+00
919 919 7.000000000000000e+00
920 908 -1.000000000000000e+00
920 917 -1.000000000000000e+00
920 918 -1.000000000000000e+00
920 920 7.000000000000000e+00
921 908 -1.000000000000000e+00
921 918 -1.000000000000000e+00
921 919 -1.000000000000000e+00
921 920 -1.000000000000000e+00
921 921 8.000000000000000e+00
922 908 -1.000000000000000e+00
922 919 -1.000000000000000e+00
922 920 -1.000000000000000e+00
922 921 -1.000000000000000e+00
922 922 1.000000000000000e+01
923 908 -1.000000000000000e+00
923 909 -1.000000000000000e+00
923 910 -1.000000000000000e+00
923 911 -1.000000000000000e+00
923 912 -1.000000000000000e+00
923 913 -1.000000000000000e+00
923 914 -1.000000000000000e+00
923 915 -1.000000000000000e+00
923 916 -1.000000000000000e+00
923 917 -1.000000000000000e+00
923 918 -1.000000000000000e+00
923 919 -1.000000000000000e+00
923 920 -2.000000000000000e+00
923 921 -2.000000000000000e+00
923 922 -2.000000000000000e+00
923 923 2.100000000000000e+01
924 547 -1.000000000000000e+00
924 908 -1.000000000000000e+00
924 921 -1.000000000000000e+00
924 922 -2.000000000000000e+00
924 923 -1.000000000000000e+00
924 924 9.000000000000000e+00
925 712 -1.000000000000000e+00
925 908 -1.000000000000000e+00
925 922 -2.000000000000000e+00
925 923 -1.000000000000000e+00
925 924 -1.000000000000000e+00
925 925 8.000000000000000e+00
926 923 -1.000000000000000e+00
926 924 -1.000000000000000e+00
926 925 -1.000000000000000e+00
926 926 7.000000000000000e+00
927 391 -1.000000000000000e+00
927 924 -1.000000000000000e+00
927 925 -1.000000000000000e+00
927 926 -2.000000000000000e+00
927 927 8.000000000000000e+00
928 926 -1.000000000000000e+00
928 927 -1.000000000000000e+00
928 928 1.200000000000000e+01
929 926 -1.000000000000000e+00
929 927 -1.000000000000000e+00
929 928 -2.000000000000000e+00
929 929 1.300000000000000e+01
930 927 -1.000000000000000e+00
930 928 -2.000000000000000e+00
930 929 -1.000000000000000e+00
930 930 7.000000000000000e+00
931 928 -2.000000000000000e+00
931 929 -2.000000000000000e+00
931 930 -1.000000000000000e+00
931 931 8.000000000000000e+00
932 928 -1.000000000000000e+00
932 929 -2.000000000000000e+00
932 930 -1.000000000000000e+00
932 931 -1.000000000000000e+00
932 932 8.000000000000000e+00
933 432 -1.000000000000000e+00
933 928 -1.000000000000000e+00
933 929 -1.000000000000000e+00
933 930 -1.000000000000000e+00
933 931 -1.000000000000000e+00
933 932 -1.000000000000000e+00
933 933 8.000000000000000e+00
934 928 -1.000000000000000e+00
934 929 -1.000000000000000e+00
934 931 -1.000000000000000e+00
934 932 -1.000000000000000e+00
934 933 -1.000000000000000e+00
934 934 8.000000000000000e+00
935 928 -1.000000000000000e+00
935 929 -1.000000000000000e+00
935 932 -1.000000000000000e+00
935 933 -1.000000000000000e+00
935 934 -1.000000000000000e+00
935 935 8.000000000000000e+00
936 780 -1.000000000000000e+00
936 934 -1.000000000000000e+00
936 935 -1.000000000000000e+00
936 936 7.300000000000000e+01
937 934 -1.000000000000000e+00
937 935 -1.000000000000000e+00
937 936 -2.000000000000000e+00
937 937 8.000000000000000e+00
938 935 -1.000000000000000e+00
938 936 -2.000000000000000e+00
938 937 -1.000000000000000e+00
938 938 8.000000000000000e+00
939 237 -1.000000000000000e+00
939 855 -1.000000000000000e+00
939 936 -2.000000000000000e+00
939 937 -1.000000000000000e+00
939 938 -1.000000000000000e+00
939 939 1.000000000000000e+01
940 936 -1.000000000000000e+00
940 937 -1.000000000000000e+00
940 938 -1.000000000000000e+00
940 939 -1.000000000000000e+00
940 940 8.000000000000000e+00
941 30 -1.000000000000000e+00
941 936 -1.000000000000000e+00
941 938 -1.000000000000000e+00
941 939 -1.000000000000000e+00
941 940 -1.000000000000000e+00
941 941 9.000000000000000e+00
942 566 -1.000000000000000e+00
942 936 -1.000000000000000e+00
942 939 -1.000000000000000e+00
942 941 -1.000000000000000e+00
942 942 7.000000000000000e+00
943 936 -1.000000000000000e+00
943 940 -1.000000000000000e+00
943 941 -1.000000000000000e+00
943 943 8.000000000000000e+00
944 936 -1.000000000000000e+00
944 941 -1.000000000000000e+00
944 942 -1.000000000000000e+00
944 943 -1.000000000000000e+00
944 944 9.000000000000000e+00
945 936 -1.000000000000000e+00
945 942 -1.000000000000000e+00
945 943 -1.000000000000000e+00
945 944 -1.000000000000000e+00
945 945 8.000000000000000e+00
946 936 -1.000000000000000e+00
946 943 -1.000000000000000e+00
946 944 -1.000000000000000e+00
946 945 -1.000000000000000e+00
946 946 9.000000000000000e+00
947 298 -1.000000000000000e+00
947 936 -1.000000000000000e+00
947 944 -1.000000000000000e+00
947 945 -1.000000000000000e+00
947 946 -1.000000000000000e+00
947 947 9.000000000000000e+00
948 936 -1.000000000000000e+00
948 945 -1.000000000000000e+00
948 946 -1.000000000000000e+00
948 947 -1.000000000000000e+00
948 948 8.000000000000000e+00
949 936 -1.000000000000000e+00
949 946 -1.000000000000000e+00
949 947 -1.000000000000000e+00
949 948 -1.000000000000000e+00
949 949 8.000000000000000e+00
950 684 -1.000000000000000e+00
950 936 -1.000000000000000e+00
950 947 -1.000000000000000e+00
950 948 -1.000000000000000e+00
950 949 -1.000000000000000e+00
950 950 8.000000000000000e+00
951 936 -1.000000000000000e+00
951 948 -1.000000000000000e+00
951 949 -1.000000000000000e+00
951 951 7.000000000000000e+00
952 936 -1.000000000000000e+00
952 949 -1.000000000000000e+00
952 950 -1.000000000000000e+00
952 951 -1.000000000000000e+00
952 952 8.000000000000000e+00
953 25 -1.000000000000000e+00
953 826 -1.000000000000000e+00
953 936 -1.000000000000000e+00
953 950 -1.000000000000000e+00
953 951 -1.000000000000000e+00
953 952 -1.000000000000000e+00
953 953 1.000000000000000e+01
954 936 -1.000000000000000e+00
954 951 -1.000000000000000e+00
954 952 -1.000000000000000e+00
954 953 -1.000000000000000e+00
954 954 8.000000000000000e+00
955 936 -1.000000000000000e+00
955 952 -1.000000000000000e+00
955 955 6.000000000000000e+00
956 936 -1.000000000000000e+00
956 953 -1.000000000000000e+00
956 954 -1.000000000000000e+00
956 955 -1.000000000000000e+00
956 956 8.000000000000000e+00
957 936 -1.000000000000000e+00
957 954 -1.000000000000000e+00
957 955 -1.000000000000000e+00
957 956 -1.000000000000000e+00
957 957 8.000000000000000e+00
958 936 -1.000000000000000e+00
958 955 -1.000000000000000e+00
958 956 -1.000000000000000e+00
958 957 -1.000000000000000e+00
958 958 8.000000000000000e+00
959 936 -1.000000000000000e+00
959 956 -1.000000000000000e+00
959 957 -1.000000000000000e+00
959 958 -1.000000000000000e+00
959 959 8.000000000000000e+00
960 936 -1.000000000000000e+00
960 957 -1.000000000000000e+00
960 958 -1.000000000000000e+00
960 959 -1.000000000000000e+00
960 960 8.000000000000000e+00
961 297 -1.000000000000000e+00
961 936 -1.000000000000000e+00
961 958 -1.000000000000000e+00
961 959 -1.000000000000000e+00
961 960 -1.000000000000000e+00
961 961 8.000000000000000e+00
962 864 -1.000000000000000e+00
962 936 -1.000000000000000e+00
962 959 -1.000000000000000e+00
962 960 -1.000000000000000e+00
962 962 7.000000000000000e+00
963 936 -1.000000000000000e+00
963 960 -1.000000000000000e+00
963 961 -1.000000000000000e+00
963 962 -1.000000000000000e+00
963 963 1.000000000000000e+01
964 139 -1.000000000000000e+00
964 314 -1.000000000000000e+00
964 936 -1.000000000000000e+00
964 961 -1.000000000000000e+00
964 962 -1.000000000000000e+00
964 963 -1.000000000000000e+00
964 964 9.000000000000000e+00
965 442 -1.000000000000000e+00
965 936 -1.000000000000000e+00
965 963 -1.000000000000000e+00
965 964 -1.000000000000000e+00
965 965 7.000000000000000e+00
966 124 -1.000000000000000e+00
966 936 -1.000000000000000e+00
966 963 -1.000000000000000e+00
966 965 -1.000000000000000e+00
966 966 7.000000000000000e+00
967 936 -1.000000000000000e+00
967 964 -1.000000000000000e+00
967 966 -1.000000000000000e+00
967 967 8.000000000000000e+00
968 936 -1.000000000000000e+00
968 965 -1.000000000000000e+00
968 967 -1.000000000000000e+00
968 968 7.000000000000000e+00
969 767 -1.000000000000000e+00
969 936 -1.000000000000000e+00
969 966 -1.000000000000000e+00
969 967 -1.000000000000000e+00
969 968 -1.000000000000000e+00
969 969 9.000000000000000e+00
970 967 -1.000000000000000e+00
970 968 -1.000000000000000e+00
970 969 -1.000000000000000e+00
970 970 2.200000000000000e+01
971 544 -1.000000000000000e+00
971 968 -1.000000000000000e+00
971 969 -1.000000000000000e+00
971 970 -2.000000000000000e+00
971 971 2.100000000000000e+01
972 107 -1.000000000000000e+00
972 863 -1.000000000000000e+00
972 969 -1.000000000000000e+00
972 970 -2.000000000000000e+00
972 971 -1.000000000000000e+00
972 972 8.000000000000000e+00
973 970 -2.000000000000000e+00
973 971 -2.000000000000000e+00
973 973 7.000000000000000e+00
974 521 -1.000000000000000e+00
974 970 -1.000000000000000e+00
974 971 -2.000000000000000e+00
974 972 -1.000000000000000e+00
974 973 -1.000000000000000e+00
974 974 9.000000000000000e+00
975 730 -1.000000000000000e+00
975 970 -1.000000000000000e+00
975 971 -1.000000000000000e+00
975 972 -1.000000000000000e+00
975 973 -1.000000000000000e+00
975 974 -1.000000000000000e+00
975 975 9.000000000000000e+00
976 970 -1.000000000000000e+00
976 971 -1.000000000000000e+00
976 973 -1.000000000000000e+00
976 974 -1.000000000000000e+00
976 975 -1.000000000000000e+00
976 976 8.000000000000000e+00
977 162 -1.000000000000000e+00
977 896 -1.000000000000000e+00
977 970 -1.000000000000000e+00
977 971 -1.000000000000000e+00
977 975 -1.000000000000000e+00
977 976 -1.000000000000000e+00
977 977 8.000000000000000e+00
978 970 -1.000000000000000e+00
978 971 -1.000000000000000e+00
978 975 -1.000000000000000e+00
978 976 -1.000000000000000e+00
978 977 -1.000000000000000e+00
978 978 8.000000000000000e+00
979 610 -1.000000000000000e+00
979 970 -1.000000000000000e+00
979 971 -1.000000000000000e+00
979 976 -1.000000000000000e+00
979 978 -1.000000000000000e+00
979 979 8.000000000000000e+00
980 970 -1.000000000000000e+00
980 971 -1.000000000000000e+00
980 977 -1.000000000000000e+00
980 978 -1.000000000000000e+00
980 979 -1.000000000000000e+00
980 980 8.000000000000000e+00
981 970 -1.000000000000000e+00
981 971 -1.000000000000000e+00
981 978 -1.000000000000000e+00
981 979 -1.000000000000000e+00
981 980 -1.000000000000000e+00
981 981 9.000000000000000e+00
982 970 -1.000000000000000e+00
982 971 -1.000000000000000e+00
982 979 -1.000000000000000e+00
982 980 -1.000000000000000e+00
982 982 7.000000000000000e+00
983 249 -1.000000000000000e+00
983 970 -1.000000000000000e+00
983 971 -1.000000000000000e+00
983 980 -1.000000000000000e+00
983 981 -1.000000000000000e+00
983 982 -1.000000000000000e+00
983 983 8.000000000000000e+00
984 113 -1.000000000000000e+00
984 970 -1.000000000000000e+00
984 971 -1.000000000000000e+00
984 981 -1.000000000000000e+00
984 982 -1.000000000000000e+00
984 983 -1.000000000000000e+00
984 984 9.000000000000000e+00
985 970 -1.000000000000000e+00
985 971 -1.000000000000000e+00
985 981 -1.000000000000000e+00
985 982 -1.000000000000000e+00
985 983 -1.000000000000000e+00
985 984 -1.000000000000000e+00
985 985 8.000000000000000e+00
986 984 -1.000000000000000e+00
986 986 2.900000000000000e+01
987 984 -1.000000000000000e+00
987 985 -1.000000000000000e+00
987 986 -2.000000000000000e+00
987 987 8.000000000000000e+00
988 985 -1.000000000000000e+00
988 986 -1.000000000000000e+00
988 987 -1.000000000000000e+00
988 988 7.000000000000000e+00
989 986 -2.000000000000000e+00
989 987 -1.000000000000000e+00
989 988 -1.000000000000000e+00
989 989 8.000000000000000e+00
990 986 -1.000000000000000e+00
990 987 -1.000000000000000e+00
990 988 -1.000000000000000e+00
990 989 -1.000000000000000e+00
990 990 8.000000000000000e+00
991 986 -1.000000000000000e+00
991 988 -1.000000000000000e+00
991 989 -1.000000000000000e+00
991 990 -1.000000000000000e+00
991 991 8.000000000000000e+00
992 986 -1.000000000000000e+00
992 989 -1.000000000000000e+00
992 990 -1.000000000000000e+00
992 991 -1.000000000000000e+00
992 992 8.000000000000000e+00
993 986 -1.000000000000000e+00
993 990 -1.000000000000000e+00
993 991 -1.000000000000000e+00
993 992 -1.000000000000000e+00
993 993 8.000000000000000e+00
994 986 -1.000000000000000e+00
994 991 -1.000000000000000e+00
994 992 -1.000000000000000e+00
994 993 -1.000000000000000e+00
994 994 8.000000000000000e+00
995 986 -1.000000000000000e+00
995 992 -1.000000000000000e+00
995 993 -1.000000000000000e+00
995 994 -1.000000000000000e+00
995 995 8.000000000000000e+00
996 986 -1.000000000000000e+00
996 993 -1.000000000000000e+00
996 995 -1.000000000000000e+00
996 996 7.000000000000000e+00
997 986 -1.000000000000000e+00
997 994 -1.000000000000000e+00
997 995 -1.000000000000000e+00
997 996 -1.000000000000000e+00
997 997 8.000000000000000e+00
998 986 -1.000000000000000e+00
998 995 -1.000000000000000e+00
998 996 -1.000000000000000e+00
998 997 -1.000000000000000e+00
998 998 8.000000000000000e+00
999 986 -1.000000000000000e+00
999 997 -1.000000000000000e+00
999 998 -1.000000000000000e+00
999 999 7.000000000000000e+00
1000 986 -1.000000000000000e+00
1000 997 -1.000000000000000e+00
1000 998 -1.000000000000000e+00
1000 999 -1.000000000000000e+00
1000 1000 8.000000000000000e+00
1001 986 -1.000000000000000e+00
1001 998 -1.000000000000000e+00
1001 999 -1.000000000000000e+00
1001 1000 -1.000000000000000e+00
1001 1001 8.000000000000000e+00
1002 986 -1.000000000000000e+00
1002 999 -1.000000000000000e+00
1002 1000 -1.000000000000000e+00
1002 1001 -1.000000000000000e+00
1002 1002 8.000000000000000e+00
1003 929 -1.000000000000000e+00
1003 986 -1.000000000000000e+00
1003 1000 -1.000000000000000e+00
1003 1001 -1.000000000000000e+00
1003 1002 -1.000000000000000e+00
1003 1003 9.000000000000000e+00
1004 986 -1.000000000000000e+00
1004 1001 -1.000000000000000e+00
1004 1002 -1.000000000000000e+00
1004 1003 -1.000000000000000e+00
1004 1004 8.000000000000000e+00
1005 986 -1.000000000000000e+00
1005 1002 -1.000000000000000e+00
1005 1003 -1.000000000000000e+00
1005 1004 -1.000000000000000e+00
1005 1005 8.000000000000000e+00
1006 332 -1.000000000000000e+00
1006 986 -1.000000000000000e+00
1006 1003 -1.000000000000000e+00
1006 1004 -1.000000000000000e+00
1006 1005 -1.000000000000000e+00
1006 1006 8.000000000000000e+00
1007 986 -1.000000000000000e+00
1007 1004 -1.000000000000000e+00
1007 1005 -1.000000000000000e+00
1007 1006 -1.000000000000000e+00
1007 1007 8.000000000000000e+00
1008 612 -1.000000000000000e+00
1008 986 -1.000000000000000e+00
1008 1005 -1.000000000000000e+00
1008 1006 -1.000000000000000e+00
1008 1007 -1.000000000000000e+00
1008 1008 1.200000000000000e+01
1009 986 -1.000000000000000e+00
1009 987 -1.000000000000000e+00
1009 988 -1.000000000000000e+00
1009 989 -1.000000000000000e+00
1009 990 -1.000000000000000e+00
1009 991 -1.000000000000000e+00
1009 992 -1.000000000000000e+00
1009 993 -1.000000000000000e+00
1009 994 -1.000000000000000e+00
1009 995 -1.000000000000000e+00
1009 996 -1.000000000000000e+00
1009 997 -1.000000000000000e+00
1009 998 -1.000000000000000e+00
1009 999 -1.000000000000000e+00
1009 1000 -1.000000000000000e+00
1009 1001 -1.000000000000000e+00
1009 1002 -1.000000000000000e+00
1009 1003 -1.000000000000000e+00
1009 1004 -1.000000000000000e+00
1009 1005 -1.000000000000000e+00
1009 1006 -1.000000000000000e+00
1009 1007 -2.000000000000000e+00
1009 1008 -2.000000000000000e+00
1009 1009 2.800000000000000e+01
1010 986 -1.000000000000000e+00
1010 1007 -1.000000000000000e+00
1010 1008 -2.000000000000000e+00
1010 1009 -1.000000000000000e+00
1010 1010 8.000000000000000e+00
1011 880 -1.000000000000000e+00
1011 986 -1.000000000000000e+00
1011 1008 -2.000000000000000e+00
1011 1009 -1.000000000000000e+00
1011 1010 -1.000000000000000e+00
1011 1011 8.000000000000000e+00
1012 155 -1.000000000000000e+00
1012 1009 -1.000000000000000e+00
1012 1010 -1.000000000000000e+00
1012 1011 -1.000000000000000e+00
1012 1012 8.000000000000000e+00
1013 155 -1.000000000000000e+00
1013 1010 -1.000000000000000e+00
1013 1012 -1.000000000000000e+00
1013 1013 7.000000000000000e+00
1014 52 -1.000000000000000e+00
1014 155 -1.000000000000000e+00
1014 1011 -1.000000000000000e+00
1014 1012 -1.000000000000000e+00
1014 1013 -1.000000000000000e+00
1014 1014 9.000000000000000e+00
1015 155 -1.000000000000000e+00
1015 1012 -1.000000000000000e+00
1015 1014 -1.000000000000000e+00
1015 1015 9.000000000000000e+00
1016 155 -1.000000000000000e+00
1016 156 -1.000000000000000e+00
1016 157 -1.000000000000000e+00
1016 158 -1.000000000000000e+00
1016 159 -1.000000000000000e+00
1016 160 -1.000000000000000e+00
1016 161 -1.000000000000000e+00
1016 162 -1.000000000000000e+00
1016 163 -1.000000000000000e+00
1016 164 -1.000000000000000e+00
1016 165 -1.000000000000000e+00
1016 166 -1.000000000000000e+00
1016 167 -1.000000000000000e+00
1016 168 -1.000000000000000e+00
1016 169 -1.000000000000000e+00
1016 1012 -1.000000000000000e+00
1016 1013 -2.000000000000000e+00
1016 1014 -2.000000000000000e+00
1016 1015 -2.000000000000000e+00
1016 1016 2.500000000000000e+01
1017 155 -1.000000000000000e+00
1017 168 -1.000000000000000e+00
1017 1014 -1.000000000000000e+00
1017 1015 -2.000000000000000e+00
1017 1016 -1.000000000000000e+00
1017 1017 9.000000000000000e+00
1018 155 -1.000000000000000e+00
1018 1015 -2.000000000000000e+00
1018 1016 -1.000000000000000e+00
1018 1017 -1.000000000000000e+00
1018 1018 8.000000000000000e+00
1019 26 -1.000000000000000e+00
1019 170 -1.000000000000000e+00
1019 1016 -1.000000000000000e+00
1019 1017 -1.000000000000000e+00
1019 1018 -1.000000000000000e+00
1019 1019 9.000000000000000e+00
1020 170 -1.000000000000000e+00
1020 1017 -1.000000000000000e+00
1020 1019 -1.000000000000000e+00
1020 1020 7.000000000000000e+00
1021 170 -1.000000000000000e+00
1021 175 -1.000000000000000e+00
1021 1018 -1.000000000000000e+00
1021 1019 -1.000000000000000e+00
1021 1020 -1.000000000000000e+00
1021 1021 8.000000000000000e+00
1022 170 -1.000000000000000e+00
1022 198 -1.000000000000000e+00
1022 1019 -1.000000000000000e+00
1022 1020 -1.000000000000000e+00
1022 1022 7.000000000000000e+00
1023 170 -1.000000000000000e+00
1023 1020 -1.000000000000000e+00
1023 1021 -1.000000000000000e+00
1023 1023 7.000000000000000e+00
1024 170 -1.000000000000000e+00
1024 1021 -1.000000000000000e+00
1024 1022 -1.000000000000000e+00
1024 1023 -1.000000000000000e+00
1024 1024 9.000000000000000e+00
1025 170 -1.000000000000000e+00
1025 1022 -1.000000000000000e+00
1025 1023 -1.000000000000000e+00
1025 1024 -1.000000000000000e+00
1025 1025 8.000000000000000e+00
1026 26 -1.000000000000000e+00
1026 170 -1.000000000000000e+00
1026 1023 -1.000000000000000e+00
1026 1024 -1.000000000000000e+00
1026 1025 -1.000000000000000e+00
1026 1026 8.000000000000000e+00
1027 170 -1.000000000000000e+00
1027 1024 -1.000000000000000e+00
1027 1025 -1.000000000000000e+00
1027 1027 7.000000000000000e+00
1028 170 -1.000000000000000e+00
1028 970 -1.000000000000000e+00
1028 1025 -1.000000000000000e+00
1028 1027 -1.000000000000000e+00
1028 1028 7.000000000000000e+00
1029 170 -1.000000000000000e+00
1029 775 -1.000000000000000e+00
1029 1026 -1.000000000000000e+00
1029 1027 -1.000000000000000e+00
1029 1028 -1.000000000000000e+00
1029 1029 9.000000000000000e+00
1030 170 -1.000000000000000e+00
1030 519 -1.000000000000000e+00
1030 814 -1.000000000000000e+00
1030 1027 -1.000000000000000e+00
1030 1028 -1.000000000000000e+00
1030 1029 -1.000000000000000e+00
1030 1030 9.000000000000000e+00
1031 170 -1.000000000000000e+00
1031 1029 -1.000000000000000e+00
1031 1030 -1.000000000000000e+00
1031 1031 7.000000000000000e+00
1032 170 -1.000000000000000e+00
1032 358 -1.000000000000000e+00
1032 1029 -1.000000000000000e+00
1032 1030 -1.000000000000000e+00
1032 1031 -1.000000000000000e+00
1032 1032 9.000000000000000e+00
1033 67 -1.000000000000000e+00
1033 170 -1.000000000000000e+00
1033 1031 -1.000000000000000e+00
1033 1032 -1.000000000000000e+00
1033 1033 8.000000000000000e+00
1034 170 -1.000000000000000e+00
1034 590 -1.000000000000000e+00
1034 1031 -1.000000000000000e+00
1034 1032 -1.000000000000000e+00
1034 1033 -1.000000000000000e+00
1034 1034 8.000000000000000e+00
1035 170 -1.000000000000000e+00
1035 448 -1.000000000000000e+00
1035 799 -1.000000000000000e+00
1035 1032 -1.000000000000000e+00
1035 1033 -1.000000000000000e+00
1035 1035 8.000000000000000e+00
1036 170 -1.000000000000000e+00
1036 474 -1.000000000000000e+00
1036 1033 -1.000000000000000e+00
1036 1034 -1.000000000000000e+00
1036 1035 -1.000000000000000e+00
1036 1036 9.000000000000000e+00
1037 170 -1.000000000000000e+00
1037 1034 -1.000000000000000e+00
1037 1035 -1.000000000000000e+00
1037 1036 -1.000000000000000e+00
1037 1037 8.000000000000000e+00
1038 170 -1.000000000000000e+00
1038 1036 -1.000000000000000e+00
1038 1037 -1.000000000000000e+00
1038 1038 7.000000000000000e+00
1039 170 -1.000000000000000e+00
1039 1036 -1.000000000000000e+00
1039 1037 -1.000000000000000e+00
1039 1038 -1.000000000000000e+00
1039 1039 1.000000000000000e+01
1040 170 -1.000000000000000e+00
1040 171 -1.000000000000000e+00
1040 172 -1.000000000000000e+00
1040 173 -1.000000000000000e+00
1040 174 -1.000000000000000e+00
1040 175 -1.000000000000000e+00
1040 1019 -1.000000000000000e+00
1040 1020 -1.000000000000000e+00
1040 1021 -1.000000000000000e+00
1040 1022 -1.000000000000000e+00
1040 1023 -1.000000000000000e+00
1040 1024 -1.000000000000000e+00
1040 1025 -1.000000000000000e+00
1040 1026 -1.000000000000000e+00
1040 1027 -1.000000000000000e+00
1040 1028 -1.000000000000000e+00
1040 1029 -1.000000000000000e+00
1040 1030 -1.000000000000000e+00
1040 1031 -1.000000000000000e+00
1040 1032 -1.000000000000000e+00
1040 1033 -1.000000000000000e+00
1040 1034 -1.000000000000000e+00
1040 1035 -1.000000000000000e+00
1040 1036 -1.000000000000000e+00
1040 1037 -2.000000000000000e+00
1040 1038 -2.000000000000000e+00
1040 1039 -2.000000000000000e+00
1040 1040 3.300000000000000e+01
1041 170 -1.000000000000000e+00
1041 215 -1.000000000000000e+00
1041 764 -1.000000000000000e+00
1041 1038 -1.000000000000000e+00
1041 1039 -2.000000000000000e+00
1041 1040 -1.000000000000000e+00
1041 1041 9.000000000000000e+00
1042 170 -1.000000000000000e+00
1042 1039 -2.000000000000000e+00
1042 1040 -1.000000000000000e+00
1042 1041 -1.000000000000000e+00
1042 1042 8.000000000000000e+00
1043 936 -1.000000000000000e+00
1043 1040 -1.000000000000000e+00
1043 1042 -1.000000000000000e+00
1043 1043 7.000000000000000e+00
1044 458 -1.000000000000000e+00
1044 936 -1.000000000000000e+00
1044 1041 -1.000000000000000e+00
1044 1042 -1.000000000000000e+00
1044 1043 -1.000000000000000e+00
1044 1044 3.800000000000000e+01
1045 936 -1.000000000000000e+00
1045 937 -1.000000000000000e+00
1045 938 -1.000000000000000e+00
1045 939 -1.000000000000000e+00
1045 940 -1.000000000000000e+00
1045 941 -1.000000000000000e+00
1045 942 -1.000000000000000e+00
1045 943 -1.000000000000000e+00
1045 944 -1.000000000000000e+00
1045 945 -1.000000000000000e+00
1045 946 -1.000000000000000e+00
1045 947 -1.000000000000000e+00
1045 948 -1.000000000000000e+00
1045 949 -1.000000000000000e+00
1045 950 -1.000000000000000e+00
1045 951 -1.000000000000000e+00
1045 952 -1.000000000000000e+00
1045 953 -1.000000000000000e+00
1045 954 -1.000000000000000e+00
1045 955 -1.000000000000000e+00
1045 956 -1.000000000000000e+00
1045 957 -1.000000000000000e+00
1045 958 -1.000000000000000e+00
1045 959 -1.000000000000000e+00
1045 960 -1.000000000000000e+00
1045 961 -1.000000000000000e+00
1045 962 -1.000000000000000e+00
1045 963 -1.000000000000000e+00
1045 964 -1.000000000000000e+00
1045 965 -1.000000000000000e+00
1045 966 -1.000000000000000e+00
1045 967 -1.000000000000000e+00
1045 968 -1.000000000000000e+00
1045 969 -1.000000000000000e+00
1045 1043 -2.000000000000000e+00
1045 1044 -2.000000000000000e+00
1045 1045 4.100000000000000e+01
1046 936 -1.000000000000000e+00
1046 1043 -1.000000000000000e+00
1046 1044 -1.000000000000000e+00
1046 1045 -1.000000000000000e+00
1046 1046 7.000000000000000e+00
1047 936 -1.000000000000000e+00
1047 1044 -2.000000000000000e+00
1047 1045 -1.000000000000000e+00
1047 1046 -1.000000000000000e+00
1047 1047 8.000000000000000e+00
1048 178 -1.000000000000000e+00
1048 936 -1.000000000000000e+00
1048 953 -1.000000000000000e+00
1048 1044 -1.000000000000000e+00
1048 1045 -1.000000000000000e+00
1048 1046 -1.000000000000000e+00
1048 1047 -1.000000000000000e+00
1048 1048 9.000000000000000e+00
1049 936 -1.000000000000000e+00
1049 1044 -1.000000000000000e+00
1049 1046 -1.000000000000000e+00
1049 1047 -1.000000000000000e+00
1049 1048 -1.000000000000000e+00
1049 1049 8.000000000000000e+00
1050 936 -1.000000000000000e+00
1050 1044 -1.000000000000000e+00
1050 1047 -1.000000000000000e+00
1050 1049 -1.000000000000000e+00
1050 1050 7.000000000000000e+00
1051 936 -1.000000000000000e+00
1051 1044 -1.000000000000000e+00
1051 1048 -1.000000000000000e+00
1051 1049 -1.000000000000000e+00
1051 1050 -1.000000000000000e+00
1051 1051 8.000000000000000e+00
1052 936 -2.000000000000000e+00
1052 1044 -1.000000000000000e+00
1052 1049 -1.000000000000000e+00
1052 1050 -1.000000000000000e+00
1052 1051 -1.000000000000000e+00
1052 1052 8.000000000000000e+00
1053 411 -1.000000000000000e+00
1053 936 -1.000000000000000e+00
1053 1044 -1.000000000000000e+00
1053 1050 -1.000000000000000e+00
1053 1051 -1.000000000000000e+00
1053 1053 7.000000000000000e+00
1054 936 -1.000000000000000e+00
1054 1044 -1.000000000000000e+00
1054 1051 -1.000000000000000e+00
1054 1053 -1.000000000000000e+00
1054 1054 7.000000000000000e+00
1055 936 -1.000000000000000e+00
1055 1044 -1.000000000000000e+00
1055 1052 -1.000000000000000e+00
1055 1054 -1.000000000000000e+00
1055 1055 7.000000000000000e+00
1056 846 -1.000000000000000e+00
1056 936 -1.000000000000000e+00
1056 1044 -1.000000000000000e+00
1056 1053 -1.000000000000000e+00
1056 1054 -1.000000000000000e+00
1056 1055 -1.000000000000000e+00
1056 1056 1.000000000000000e+01
1057 936 -1.000000000000000e+00
1057 1044 -1.000000000000000e+00
1057 1054 -1.000000000000000e+00
1057 1055 -1.000000000000000e+00
1057 1056 -1.000000000000000e+00
1057 1057 8.000000000000000e+00
1058 936 -1.000000000000000e+00
1058 1044 -1.000000000000000e+00
1058 1055 -1.000000000000000e+00
1058 1056 -1.000000000000000e+00
1058 1057 -1.000000000000000e+00
1058 1058 8.000000000000000e+00
1059 294 -1.000000000000000e+00
1059 475 -1.000000000000000e+00
1059 936 -1.000000000000000e+00
1059 1044 -1.000000000000000e+00
1059 1056 -1.000000000000000e+00
1059 1057 -1.000000000000000e+00
1059 1058 -1.000000000000000e+00
1059 1059 9.000000000000000e+00
1060 936 -1.000000000000000e+00
1060 1044 -1.000000000000000e+00
1060 1057 -1.000000000000000e+00
1060 1058 -1.000000000000000e+00
1060 1060 7.000000000000000e+00
1061 936 -1.000000000000000e+00
1061 1044 -1.000000000000000e+00
1061 1058 -1.000000000000000e+00
1061 1059 -1.000000000000000e+00
1061 1060 -1.000000000000000e+00
1061 1061 8.000000000000000e+00
1062 936 -1.000000000000000e+00
1062 1044 -1.000000000000000e+00
1062 1059 -1.000000000000000e+00
1062 1060 -1.000000000000000e+00
1062 1061 -1.000000000000000e+00
1062 1062 8.000000000000000e+00
1063 631 -1.000000000000000e+00
1063 936 -1.000000000000000e+00
1063 1044 -1.000000000000000e+00
1063 1060 -1.000000000000000e+00
1063 1061 -1.000000000000000e+00
1063 1062 -1.000000000000000e+00
1063 1063 8.000000000000000e+00
1064 936 -1.000000000000000e+00
1064 1044 -1.000000000000000e+00
1064 1061 -1.000000000000000e+00
1064 1062 -1.000000000000000e+00
1064 1063 -1.000000000000000e+00
1064 1064 8.000000000000000e+00
1065 936 -1.000000000000000e+00
1065 1044 -1.000000000000000e+00
1065 1062 -1.000000000000000e+00
1065 1063 -1.000000000000000e+00
1065 1065 7.000000000000000e+00
1066 936 -1.000000000000000e+00
1066 1044 -1.000000000000000e+00
1066 1064 -1.000000000000000e+00
1066 1065 -1.000000000000000e+00
1066 1066 7.000000000000000e+00
1067 280 -1.000000000000000e+00
1067 936 -1.000000000000000e+00
1067 1044 -1.000000000000000e+00
1067 1064 -1.000000000000000e+00
1067 1065 -1.000000000000000e+00
1067 1066 -1.000000000000000e+00
1067 1067 8.000000000000000e+00
1068 936 -1.000000000000000e+00
1068 1044 -1.000000000000000e+00
1068 1065 -1.000000000000000e+00
1068 1066 -1.000000000000000e+00
1068 1067 -1.000000000000000e+00
1068 1068 8.000000000000000e+00
1069 936 -1.000000000000000e+00
1069 1044 -1.000000000000000e+00
1069 1066 -1.000000000000000e+00
1069 1068 -1.000000000000000e+00
1069 1069 7.000000000000000e+00
1070 936 -1.000000000000000e+00
1070 1008 -1.000000000000000e+00
1070 1044 -1.000000000000000e+00
1070 1068 -1.000000000000000e+00
1070 1069 -1.000000000000000e+00
1070 1070 7.000000000000000e+00
1071 936 -1.000000000000000e+00
1071 1044 -1.000000000000000e+00
1071 1068 -1.000000000000000e+00
1071 1069 -1.000000000000000e+00
1071 1070 -1.000000000000000e+00
1071 1071 8.000000000000000e+00
1072 108 -1.000000000000000e+00
1072 936 -1.000000000000000e+00
1072 1044 -1.000000000000000e+00
1072 1069 -1.000000000000000e+00
1072 1070 -1.000000000000000e+00
1072 1071 -1.000000000000000e+00
1072 1072 8.000000000000000e+00
1073 882 -1.000000000000000e+00
1073 936 -1.000000000000000e+00
1073 1044 -1.000000000000000e+00
1073 1071 -1.000000000000000e+00
1073 1073 6.000000000000000e+00
1074 936 -1.000000000000000e+00
1074 1044 -1.000000000000000e+00
1074 1071 -1.000000000000000e+00
1074 1073 -1.000000000000000e+00
1074 1074 8.000000000000000e+00
1075 168 -1.000000000000000e+00
1075 936 -1.000000000000000e+00
1075 1044 -1.000000000000000e+00
1075 1072 -1.000000000000000e+00
1075 1073 -1.000000000000000e+00
1075 1074 -1.000000000000000e+00
1075 1075 8.000000000000000e+00
1076 176 -1.000000000000000e+00
1076 805 -1.000000000000000e+00
1076 1074 -1.000000000000000e+00
1076 1076 6.000000000000000e+00
1077 176 -1.000000000000000e+00
1077 805 -1.000000000000000e+00
1077 1074 -1.000000000000000e+00
1077 1075 -1.000000000000000e+00
1077 1076 -1.000000000000000e+00
1077 1077 8.000000000000000e+00
1078 176 -1.000000000000000e+00
1078 805 -1.000000000000000e+00
1078 1075 -1.000000000000000e+00
1078 1076 -1.000000000000000e+00
1078 1077 -1.000000000000000e+00
1078 1078 9.000000000000000e+00
1079 176 -1.000000000000000e+00
1079 805 -1.000000000000000e+00
1079 1076 -1.000000000000000e+00
1079 1077 -1.000000000000000e+00
1079 1078 -1.000000000000000e+00
1079 1079 8.000000000000000e+00
1080 176 -1.000000000000000e+00
1080 805 -1.000000000000000e+00
1080 1077 -1.000000000000000e+00
1080 1078 -1.000000000000000e+00
1080 1079 -1.000000000000000e+00
1080 1080 8.000000000000000e+00
1081 176 -1.000000000000000e+00
1081 805 -1.000000000000000e+00
1081 1078 -1.000000000000000e+00
1081 1079 -1.000000000000000e+00
1081 1080 -1.000000000000000e+00
1081 1081 8.000000000000000e+00
1082 176 -1.000000000000000e+00
1082 805 -1.000000000000000e+00
1082 1079 -1.000000000000000e+00
1082 1080 -1.000000000000000e+00
1082 1081 -1.000000000000000e+00
1082 1082 8.000000000000000e+00
1083 176 -1.000000000000000e+00
1083 475 -1.000000000000000e+00
1083 805 -1.000000000000000e+00
1083 1080 -1.000000000000000e+00
1083 1081 -1.000000000000000e+00
1083 1082 -1.000000000000000e+00
1083 1083 8.000000000000000e+00
1084 176 -1.000000000000000e+00
1084 805 -1.000000000000000e+00
1084 1081 -1.000000000000000e+00
1084 1082 -1.000000000000000e+00
1084 1083 -1.000000000000000e+00
1084 1084 8.000000000000000e+00
1085 176 -1.000000000000000e+00
1085 805 -1.000000000000000e+00
1085 1082 -1.000000000000000e+00
1085 1084 -1.000000000000000e+00
1085 1085 7.000000000000000e+00
1086 176 -1.000000000000000e+00
1086 745 -1.000000000000000e+00
1086 805 -1.000000000000000e+00
1086 1083 -1.000000000000000e+00
1086 1084 -1.000000000000000e+00
1086 1085 -1.000000000000000e+00
1086 1086 9.000000000000000e+00
1087 176 -1.000000000000000e+00
1087 805 -1.000000000000000e+00
1087 1064 -1.000000000000000e+00
1087 1084 -1.000000000000000e+00
1087 1085 -1.000000000000000e+00
1087 1086 -1.000000000000000e+00
1087 1087 9.000000000000000e+00
1088 176 -1.000000000000000e+00
1088 180 -1.000000000000000e+00
1088 805 -1.000000000000000e+00
1088 810 -1.000000000000000e+00
1088 1085 -1.000000000000000e+00
1088 1086 -1.000000000000000e+00
1088 1087 -1.000000000000000e+00
1088 1088 9.000000000000000e+00
1089 176 -1.000000000000000e+00
1089 196 -1.000000000000000e+00
1089 805 -1.000000000000000e+00
1089 1087 -1.000000000000000e+00
1089 1089 6.000000000000000e+00
1090 176 -1.000000000000000e+00
1090 419 -1.000000000000000e+00
1090 805 -1.000000000000000e+00
1090 1087 -1.000000000000000e+00
1090 1088 -1.000000000000000e+00
1090 1089 -1.000000000000000e+00
1090 1090 8.000000000000000e+00
1091 1 -1.000000000000000e+00
1091 130 -1.000000000000000e+00
1091 1088 -1.000000000000000e+00
1091 1091 7.000000000000000e+00
1092 1 -1.000000000000000e+00
1092 523 -1.000000000000000e+00
1092 1089 -1.000000000000000e+00
1092 1090 -1.000000000000000e+00
1092 1091 -1.000000000000000e+00
1092 1092 1.000000000000000e+01
1093 1 -1.000000000000000e+00
1093 1090 -1.000000000000000e+00
1093 1091 -1.000000000000000e+00
1093 1092 -1.000000000000000e+00
1093 1093 8.000000000000000e+00
1094 1 -1.000000000000000e+00
1094 97 -1.000000000000000e+00
1094 597 -1.000000000000000e+00
1094 1091 -1.000000000000000e+00
1094 1092 -1.000000000000000e+00
1094 1093 -1.000000000000000e+00
1094 1094 1.000000000000000e+01
1095 1 -1.000000000000000e+00
1095 1092 -1.000000000000000e+00
1095 1093 -1.000000000000000e+00
1095 1094 -1.000000000000000e+00
1095 1095 8.000000000000000e+00
1096 1 -1.000000000000000e+00
1096 882 -1.000000000000000e+00
1096 1093 -1.000000000000000e+00
1096 1095 -1.000000000000000e+00
1096 1096 7.000000000000000e+00
1097 1 -1.000000000000000e+00
1097 1094 -1.000000000000000e+00
1097 1095 -1.000000000000000e+00
1097 1097 7.000000000000000e+00
1098 1 -1.000000000000000e+00
1098 1095 -1.000000000000000e+00
1098 1096 -1.000000000000000e+00
1098 1097 -1.000000000000000e+00
1098 1098 8.000000000000000e+00
1099 1 -1.000000000000000e+00
1099 896 -1.000000000000000e+00
1099 1096 -1.000000000000000e+00
1099 1097 -1.000000000000000e+00
1099 1098 -1.000000000000000e+00
1099 1099 9.000000000000000e+00
1100 1 -1.000000000000000e+00
1100 1097 -1.000000000000000e+00
1100 1098 -1.000000000000000e+00
1100 1099 -1.000000000000000e+00
1100 1100 8.000000000000000e+00
1101 1 -1.000000000000000e+00
1101 919 -1.000000000000000e+00
1101 1098 -1.000000000000000e+00
1101 1099 -1.000000000000000e+00
1101 1100 -1.000000000000000e+00
1101 1101 9.000000000000000e+00
1102 1 -1.000000000000000e+00
1102 240 -1.000000000000000e+00
1102 1099 -1.000000000000000e+00
1102 1100 -1.000000000000000e+00
1102 1101 -1.000000000000000e+00
1102 1102 9.000000000000000e+00
1103 1 -1.000000000000000e+00
1103 87 -1.000000000000000e+00
1103 344 -1.000000000000000e+00
1103 1100 -1.000000000000000e+00
1103 1101 -1.000000000000000e+00
1103 1102 -1.000000000000000e+00
1103 1103 9.000000000000000e+00
1104 101 -1.000000000000000e+00
1104 102 -1.000000000000000e+00
1104 416 -1.000000000000000e+00
1104 1101 -1.000000000000000e+00
1104 1102 -1.000000000000000e+00
1104 1104 8.000000000000000e+00
1105 101 -1.000000000000000e+00
1105 1102 -1.000000000000000e+00
1105 1103 -1.000000000000000e+00
1105 1104 -1.000000000000000e+00
1105 1105 8.000000000000000e+00
1106 101 -1.000000000000000e+00
1106 210 -1.000000000000000e+00
1106 642 -1.000000000000000e+00
1106 1103 -1.000000000000000e+00
1106 1105 -1.000000000000000e+00
1106 1106 8.000000000000000e+00
1107 101 -1.000000000000000e+00
1107 1105 -1.000000000000000e+00
1107 1107 6.000000000000000e+00
1108 101 -1.000000000000000e+00
1108 1105 -1.000000000000000e+00
1108 1106 -1.000000000000000e+00
1108 1107 -1.000000000000000e+00
1108 1108 8.000000000000000e+00
1109 101 -1.000000000000000e+00
1109 907 -1.000000000000000e+00
1109 1107 -1.000000000000000e+00
1109 1108 -1.000000000000000e+00
1109 1109 8.000000000000000e+00
1110 101 -1.000000000000000e+00
1110 185 -1.000000000000000e+00
1110 1067 -1.000000000000000e+00
1110 1107 -1.000000000000000e+00
1110 1108 -1.000000000000000e+00
1110 1109 -1.000000000000000e+00
1110 1110 9.000000000000000e+00
1111 101 -1.000000000000000e+00
1111 1108 -1.000000000000000e+00
1111 1109 -1.000000000000000e+00
1111 1110 -1.000000000000000e+00
1111 1111 8.000000000000000e+00
1112 101 -1.000000000000000e+00
1112 666 -1.000000000000000e+00
1112 1109 -1.000000000000000e+00
1112 1110 -1.000000000000000e+00
1112 1111 -1.000000000000000e+00
1112 1112 8.000000000000000e+00
1113 101 -1.000000000000000e+00
1113 1111 -1.000000000000000e+00
1113 1113 6.000000000000000e+00
1114 101 -1.000000000000000e+00
1114 1111 -1.000000000000000e+00
1114 1112 -1.000000000000000e+00
1114 1113 -1.000000000000000e+00
1114 1114 8.000000000000000e+00
1115 101 -1.000000000000000e+00
1115 1112 -1.000000000000000e+00
1115 1113 -1.000000000000000e+00
1115 1114 -1.000000000000000e+00
1115 1115 8.000000000000000e+00
1116 101 -1.000000000000000e+00
1116 1113 -1.000000000000000e+00
1116 1114 -1.000000000000000e+00
1116 1115 -1.000000000000000e+00
1116 1116 8.000000000000000e+00
1117 101 -1.000000000000000e+00
1117 1114 -1.000000000000000e+00
1117 1115 -1.000000000000000e+00
1117 1116 -1.000000000000000e+00
1117 1117 8.000000000000000e+00
1118 101 -1.000000000000000e+00
1118 1115 -1.000000000000000e+00
1118 1116 -1.000000000000000e+00
1118 1117 -1.000000000000000e+00
1118 1118 8.000000000000000e+00
1119 101 -1.000000000000000e+00
1119 1116 -1.000000000000000e+00
1119 1118 -1.000000000000000e+00
1119 1119 8.000000000000000e+00
1120 101 -1.000000000000000e+00
1120 1117 -1.000000000000000e+00
1120 1118 -1.000000000000000e+00
1120 1119 -1.000000000000000e+00
1120 1120 8.000000000000000e+00
1121 101 -1.000000000000000e+00
1121 1118 -1.000000000000000e+00
1121 1119 -1.000000000000000e+00
1121 1120 -1.000000000000000e+00
1121 1121 8.000000000000000e+00
1122 101 -1.000000000000000e+00
1122 636 -1.000000000000000e+00
1122 804 -1.000000000000000e+00
1122 1119 -1.000000000000000e+00
1122 1120 -1.000000000000000e+00
1122 1121 -1.000000000000000e+00
1122 1122 8.000000000000000e+00
1123 101 -1.000000000000000e+00
1123 963 -1.000000000000000e+00
1123 1120 -1.000000000000000e+00
1123 1121 -1.000000000000000e+00
1123 1123 7.000000000000000e+00
1124 101 -1.000000000000000e+00
1124 1121 -1.000000000000000e+00
1124 1122 -1.000000000000000e+00
1124 1123 -1.000000000000000e+00
1124 1124 8.000000000000000e+00
1125 101 -1.000000000000000e+00
1125 1123 -1.000000000000000e+00
1125 1124 -1.000000000000000e+00
1125 1125 7.000000000000000e+00
1126 101 -1.000000000000000e+00
1126 1124 -1.000000000000000e+00
1126 1125 -1.000000000000000e+00
1126 1126 8.000000000000000e+00
1127 101 -1.000000000000000e+00
1127 613 -1.000000000000000e+00
1127 1124 -1.000000000000000e+00
1127 1125 -1.000000000000000e+00
1127 1127 7.000000000000000e+00
1128 101 -1.000000000000000e+00
1128 184 -1.000000000000000e+00
1128 1125 -1.000000000000000e+00
1128 1126 -1.000000000000000e+00
1128 1127 -1.000000000000000e+00
1128 1128 9.000000000000000e+00
1129 101 -1.000000000000000e+00
1129 1126 -1.000000000000000e+00
1129 1128 -1.000000000000000e+00
1129 1129 7.000000000000000e+00
1130 101 -1.000000000000000e+00
1130 481 -1.000000000000000e+00
1130 829 -1.000000000000000e+00
1130 1127 -1.000000000000000e+00
1130 1128 -1.000000000000000e+00
1130 1129 -1.000000000000000e+00
1130 1130 9.000000000000000e+00
1131 101 -1.000000000000000e+00
1131 1129 -1.000000000000000e+00
1131 1130 -1.000000000000000e+00
1131 1131 7.000000000000000e+00
1132 101 -1.000000000000000e+00
1132 1129 -1.000000000000000e+00
1132 1131 -1.000000000000000e+00
1132 1132 7.000000000000000e+00
1133 101 -1.000000000000000e+00
1133 944 -1.000000000000000e+00
1133 1130 -1.000000000000000e+00
1133 1131 -1.000000000000000e+00
1133 1132 -1.000000000000000e+00
1133 1133 8.000000000000000e+00
1134 101 -1.000000000000000e+00
1134 209 -1.000000000000000e+00
1134 1131 -1.000000000000000e+00
1134 1132 -1.000000000000000e+00
1134 1133 -1.000000000000000e+00
1134 1134 8.000000000000000e+00
1135 101 -1.000000000000000e+00
1135 1132 -1.000000000000000e+00
1135 1133 -1.000000000000000e+00
1135 1134 -1.000000000000000e+00
1135 1135 8.000000000000000e+00
1136 101 -1.000000000000000e+00
1136 253 -1.000000000000000e+00
1136 954 -1.000000000000000e+00
1136 1135 -1.000000000000000e+00
1136 1136 8.000000000000000e+00
1137 101 -1.000000000000000e+00
1137 456 -1.000000000000000e+00
1137 1134 -1.000000000000000e+00
1137 1135 -1.000000000000000e+00
1137 1136 -1.000000000000000e+00
1137 1137 9.000000000000000e+00
1138 101 -1.000000000000000e+00
1138 1136 -1.000000000000000e+00
1138 1137 -1.000000000000000e+00
1138 1138 7.000000000000000e+00
1139 101 -1.000000000000000e+00
1139 1136 -1.000000000000000e+00
1139 1138 -1.000000000000000e+00
1139 1139 7.000000000000000e+00
1140 101 -1.000000000000000e+00
1140 1137 -1.000000000000000e+00
1140 1138 -1.000000000000000e+00
1140 1139 -1.000000000000000e+00
1140 1140 8.000000000000000e+00
1141 101 -1.000000000000000e+00
1141 1138 -1.000000000000000e+00
1141 1139 -1.000000000000000e+00
1141 1140 -1.000000000000000e+00
1141 1141 8.000000000000000e+00
1142 101 -1.000000000000000e+00
1142 1126 -1.000000000000000e+00
1142 1139 -1.000000000000000e+00
1142 1140 -1.000000000000000e+00
1142 1141 -1.000000000000000e+00
1142 1142 8.000000000000000e+00
1143 1140 -1.000000000000000e+00
1143 1141 -1.000000000000000e+00
1143 1142 -1.000000000000000e+00
1143 1143 1.600000000000000e+01
1144 1141 -1.000000000000000e+00
1144 1142 -1.000000000000000e+00
1144 1143 -2.000000000000000e+00
1144 1144 1.600000000000000e+01
1145 1143 -2.000000000000000e+00
1145 1144 -2.000000000000000e+00
1145 1145 7.000000000000000e+00
1146 133 -1.000000000000000e+00
1146 586 -1.000000000000000e+00
1146 1143 -2.000000000000000e+00
1146 1144 -2.000000000000000e+00
1146 1145 -1.000000000000000e+00
1146 1146 9.000000000000000e+00
1147 1143 -1.000000000000000e+00
1147 1144 -2.000000000000000e+00
1147 1145 -1.000000000000000e+00
1147 1146 -1.000000000000000e+00
1147 1147 8.000000000000000e+00
1148 1143 -1.000000000000000e+00
1148 1144 -1.000000000000000e+00
1148 1145 -1.000000000000000e+00
1148 1147 -1.000000000000000e+00
1148 1148 7.000000000000000e+00
1149 1143 -1.000000000000000e+00
1149 1144 -1.000000000000000e+00
1149 1146 -1.000000000000000e+00
1149 1147 -1.000000000000000e+00
1149 1148 -1.000000000000000e+00
1149 1149 8.000000000000000e+00
1150 680 -1.000000000000000e+00
1150 1143 -1.000000000000000e+00
1150 1144 -1.000000000000000e+00
1150 1147 -1.000000000000000e+00
1150 1148 -1.000000000000000e+00
1150 1149 -1.000000000000000e+00
1150 1150 8.000000000000000e+00
1151 1026 -1.000000000000000e+00
1151 1143 -1.000000000000000e+00
1151 1144 -1.000000000000000e+00
1151 1148 -1.000000000000000e+00
1151 1149 -1.000000000000000e+00
1151 1150 -1.000000000000000e+00
1151 1151 9.000000000000000e+00
1152 1143 -1.000000000000000e+00
1152 1144 -1.000000000000000e+00
1152 1149 -1.000000000000000e+00
1152 1151 -1.000000000000000e+00
1152 1152 7.000000000000000e+00
1153 906 -1.000000000000000e+00
1153 1143 -1.000000000000000e+00
1153 1144 -1.000000000000000e+00
1153 1150 -1.000000000000000e+00
1153 1151 -1.000000000000000e+00
1153 1152 -1.000000000000000e+00
1153 1153 8.000000000000000e+00
1154 916 -1.000000000000000e+00
1154 1151 -1.000000000000000e+00
1154 1152 -1.000000000000000e+00
1154 1154 9.000000000000000e+00
1155 1152 -1.000000000000000e+00
1155 1154 -2.000000000000000e+00
1155 1155 8.000000000000000e+00
1156 1153 -1.000000000000000e+00
1156 1154 -2.000000000000000e+00
1156 1155 -2.000000000000000e+00
1156 1156 8.000000000000000e+00
1157 87 -1.000000000000000e+00
1157 1154 -2.000000000000000e+00
1157 1155 -2.000000000000000e+00
1157 1156 -1.000000000000000e+00
1157 1157 8.000000000000000e+00
1158 101 -1.000000000000000e+00
1158 946 -1.000000000000000e+00
1158 1155 -1.000000000000000e+00
1158 1156 -1.000000000000000e+00
1158 1157 -1.000000000000000e+00
1158 1158 8.000000000000000e+00
1159 101 -1.000000000000000e+00
1159 1156 -1.000000000000000e+00
1159 1157 -1.000000000000000e+00
1159 1159 3.100000000000000e+01
1160 588 -1.000000000000000e+00
1160 1158 -1.000000000000000e+00
1160 1159 -1.000000000000000e+00
1160 1160 1.500000000000000e+01
1161 101 -1.000000000000000e+00
1161 102 -1.000000000000000e+00
1161 103 -1.000000000000000e+00
1161 104 -1.000000000000000e+00
1161 185 -2.000000000000000e+00
1161 205 -1.000000000000000e+00
1161 206 -1.000000000000000e+00
1161 207 -1.000000000000000e+00
1161 208 -1.000000000000000e+00
1161 209 -1.000000000000000e+00
1161 210 -1.000000000000000e+00
1161 211 -1.000000000000000e+00
1161 477 -1.000000000000000e+00
1161 478 -1.000000000000000e+00
1161 479 -1.000000000000000e+00
1161 480 -1.000000000000000e+00
1161 481 -1.000000000000000e+00
1161 482 -1.000000000000000e+00
1161 483 -1.000000000000000e+00
1161 484 -1.000000000000000e+00
1161 485 -1.000000000000000e+00
1161 486 -1.000000000000000e+00
1161 487 -1.000000000000000e+00
1161 1018 -1.000000000000000e+00
1161 1104 -1.000000000000000e+00
1161 1105 -1.000000000000000e+00
1161 1106 -1.000000000000000e+00
1161 1107 -1.000000000000000e+00
1161 1108 -1.000000000000000e+00
1161 1109 -1.000000000000000e+00
1161 1110 -1.000000000000000e+00
1161 1111 -1.000000000000000e+00
1161 1112 -1.000000000000000e+00
1161 1113 -1.000000000000000e+00
1161 1114 -1.000000000000000e+00
1161 1115 -1.000000000000000e+00
1161 1116 -1.000000000000000e+00
1161 1117 -1.000000000000000e+00
1161 1118 -1.000000000000000e+00
1161 1119 -1.000000000000000e+00
1161 1120 -1.000000000000000e+00
1161 1121 -1.000000000000000e+00
1161 1122 -1.000000000000000e+00
1161 1123 -1.000000000000000e+00
1161 1124 -1.000000000000000e+00
1161 1125 -1.000000000000000e+00
1161 1126 -1.000000000000000e+00
1161 1127 -1.000000000000000e+00
1161 1128 -1.000000000000000e+00
1161 1129 -1.000000000000000e+00
1161 1130 -1.000000000000000e+00
1161 1131 -1.000000000000000e+00
1161 1132 -1.000000000000000e+00
1161 1133 -1.000000000000000e+00
1161 1134 -1.000000000000000e+00
1161 1135 -1.000000000000000e+00
1161 1136 -1.000000000000000e+00
1161 1137 -1.000000000000000e+00
1161 1138 -1.000000000000000e+00
1161 1139 -1.000000000000000e+00
1161 1140 -1.000000000000000e+00
1161 1141 -1.000000000000000e+00
1161 1142 -1.000000000000000e+00
1161 1158 -2.000000000000000e+00
1161 1159 -2.000000000000000e+00
1161 1161 7.000000000000000e+01
1162 67 -1.000000000000000e+00
1162 1159 -1.000000000000000e+00
1162 1160 -2.000000000000000e+00
1162 1162 1.600000000000000e+01
1163 1160 -2.000000000000000e+00
1163 1161 -1.000000000000000e+00
1163 1162 -2.000000000000000e+00
1163 1163 8.000000000000000e+00
1164 1160 -1.000000000000000e+00
1164 1161 -1.000000000000000e+00
1164 1162 -2.000000000000000e+00
1164 1163 -1.000000000000000e+00
1164 1164 8.000000000000000e+00
1165 1160 -1.000000000000000e+00
1165 1162 -2.000000000000000e+00
1165 1163 -1.000000000000000e+00
1165 1164 -1.000000000000000e+00
1165 1165 8.000000000000000e+00
1166 1160 -1.000000000000000e+00
1166 1162 -1.000000000000000e+00
1166 1163 -1.000000000000000e+00
1166 1164 -1.000000000000000e+00
1166 1165 -1.000000000000000e+00
1166 1166 8.000000000000000e+00
1167 1160 -1.000000000000000e+00
1167 1162 -1.000000000000000e+00
1167 1164 -1.000000000000000e+00
1167 1165 -1.000000000000000e+00
1167 1166 -1.000000000000000e+00
1167 1167 8.000000000000000e+00
1168 1160 -1.000000000000000e+00
1168 1162 -1.000000000000000e+00
1168 1165 -1.000000000000000e+00
1168 1166 -1.000000000000000e+00
1168 1167 -1.000000000000000e+00
1168 1168 8.000000000000000e+00
1169 729 -1.000000000000000e+00
1169 1160 -1.000000000000000e+00
1169 1162 -1.000000000000000e+00
1169 1166 -1.000000000000000e+00
1169 1167 -1.000000000000000e+00
1169 1168 -1.000000000000000e+00
1169 1169 8.000000000000000e+00
1170 785 -1.000000000000000e+00
1170 1160 -1.000000000000000e+00
1170 1162 -1.000000000000000e+00
1170 1167 -1.000000000000000e+00
1170 1168 -1.000000000000000e+00
1170 1169 -1.000000000000000e+00
1170 1170 1.000000000000000e+01
1171 1160 -1.000000000000000e+00
1171 1162 -1.000000000000000e+00
1171 1168 -1.000000000000000e+00
1171 1169 -1.000000000000000e+00
1171 1170 -1.000000000000000e+00
1171 1171 1.000000000000000e+01
1172 1171 -1.000000000000000e+00
1172 1172 2.900000000000000e+01
1173 1170 -1.000000000000000e+00
1173 1171 -1.000000000000000e+00
1173 1172 -2.000000000000000e+00
1173 1173 8.000000000000000e+00
1174 212 -1.000000000000000e+00
1174 1171 -1.000000000000000e+00
1174 1172 -2.000000000000000e+00
1174 1173 -1.000000000000000e+00
1174 1174 8.000000000000000e+00
1175 1172 -2.000000000000000e+00
1175 1173 -1.000000000000000e+00
1175 1175 7.000000000000000e+00
1176 1153 -1.000000000000000e+00
1176 1172 -1.000000000000000e+00
1176 1173 -1.000000000000000e+00
1176 1174 -1.000000000000000e+00
1176 1175 -1.000000000000000e+00
1176 1176 9.000000000000000e+00
1177 1172 -1.000000000000000e+00
1177 1174 -1.000000000000000e+00
1177 1175 -1.000000000000000e+00
1177 1176 -1.000000000000000e+00
1177 1177 8.000000000000000e+00
1178 1172 -1.000000000000000e+00
1178 1175 -1.000000000000000e+00
1178 1176 -1.000000000000000e+00
1178 1177 -1.000000000000000e+00
1178 1178 8.000000000000000e+00
1179 1172 -1.000000000000000e+00
1179 1176 -1.000000000000000e+00
1179 1177 -1.000000000000000e+00
1179 1179 7.000000000000000e+00
1180 448 -1.000000000000000e+00
1180 1172 -1.000000000000000e+00
1180 1177 -1.000000000000000e+00
1180 1178 -1.000000000000000e+00
1180 1179 -1.000000000000000e+00
1180 1180 9.000000000000000e+00
1181 1172 -1.000000000000000e+00
1181 1178 -1.000000000000000e+00
1181 1179 -1.000000000000000e+00
1181 1180 -1.000000000000000e+00
1181 1181 8.000000000000000e+00
1182 1172 -1.000000000000000e+00
1182 1179 -1.000000000000000e+00
1182 1180 -1.000000000000000e+00
1182 1181 -1.000000000000000e+00
1182 1182 8.000000000000000e+00
1183 1172 -1.000000000000000e+00
1183 1180 -1.000000000000000e+00
1183 1181 -1.000000000000000e+00
1183 1182 -1.000000000000000e+00
1183 1183 8.000000000000000e+00
1184 1172 -1.000000000000000e+00
1184 1181 -1.000000000000000e+00
1184 1182 -1.000000000000000e+00
1184 1183 -1.000000000000000e+00
1184 1184 8.000000000000000e+00
1185 1172 -1.000000000000000e+00
1185 1182 -1.000000000000000e+00
1185 1183 -1.000000000000000e+00
1185 1184 -1.000000000000000e+00
1185 1185 8.000000000000000e+00
1186 1172 -1.000000000000000e+00
1186 1183 -1.000000000000000e+00
1186 1184 -1.000000000000000e+00
1186 1185 -1.000000000000000e+00
1186 1186 8.000000000000000e+00
1187 1172 -1.000000000000000e+00
1187 1184 -1.000000000000000e+00
1187 1185 -1.000000000000000e+00
1187 1186 -1.000000000000000e+00
1187 1187 8.000000000000000e+00
1188 1172 -1.000000000000000e+00
1188 1185 -1.000000000000000e+00
1188 1186 -1.000000000000000e+00
1188 1187 -1.000000000000000e+00
1188 1188 8.000000000000000e+00
1189 1172 -1.000000000000000e+00
1189 1186 -1.000000000000000e+00
1189 1187 -1.000000000000000e+00
1189 1188 -1.000000000000000e+00
1189 1189 8.000000000000000e+00
1190 1172 -1.000000000000000e+00
1190 1187 -1.000000000000000e+00
1190 1188 -1.000000000000000e+00
1190 1189 -1.000000000000000e+00
1190 1190 8.000000000000000e+00
1191 967 -1.000000000000000e+00
1191 1172 -1.000000000000000e+00
1191 1188 -1.000000000000000e+00
1191 1189 -1.000000000000000e+00
1191 1190 -1.000000000000000e+00
1191 1191 8.000000000000000e+00
1192 194 -1.000000000000000e+00
1192 1172 -1.000000000000000e+00
1192 1189 -1.000000000000000e+00
1192 1190 -1.000000000000000e+00
1192 1191 -1.000000000000000e+00
1192 1192 8.000000000000000e+00
1193 1172 -1.000000000000000e+00
1193 1190 -1.000000000000000e+00
1193 1193 6.000000000000000e+00
1194 1172 -1.000000000000000e+00
1194 1191 -1.000000000000000e+00
1194 1192 -1.000000000000000e+00
1194 1193 -1.000000000000000e+00
1194 1194 1.000000000000000e+01
1195 1172 -1.000000000000000e+00
1195 1173 -1.000000000000000e+00
1195 1174 -1.000000000000000e+00
1195 1175 -1.000000000000000e+00
1195 1176 -1.000000000000000e+00
1195 1177 -1.000000000000000e+00
1195 1178 -1.000000000000000e+00
1195 1179 -1.000000000000000e+00
1195 1180 -1.000000000000000e+00
1195 1181 -1.000000000000000e+00
1195 1182 -1.000000000000000e+00
1195 1183 -1.000000000000000e+00
1195 1184 -1.000000000000000e+00
1195 1185 -1.000000000000000e+00
1195 1186 -1.000000000000000e+00
1195 1187 -1.000000000000000e+00
1195 1188 -1.000000000000000e+00
1195 1189 -1.000000000000000e+00
1195 1190 -1.000000000000000e+00
1195 1191 -1.000000000000000e+00
1195 1192 -2.000000000000000e+00
1195 1193 -2.000000000000000e+00
1195 1194 -2.000000000000000e+00
1195 1195 2.900000000000000e+01
1196 1172 -1.000000000000000e+00
1196 1193 -1.000000000000000e+00
1196 1194 -2.000000000000000e+00
1196 1195 -1.000000000000000e+00
1196 1196 8.000000000000000e+00
1197 211 -1.000000000000000e+00
1197 318 -1.000000000000000e+00
1197 1172 -1.000000000000000e+00
1197 1194 -2.000000000000000e+00
1197 1195 -1.000000000000000e+00
1197 1196 -1.000000000000000e+00
1197 1197 9.000000000000000e+00
1198 101 -1.000000000000000e+00
1198 1159 -1.000000000000000e+00
1198 1195 -1.000000000000000e+00
1198 1196 -1.000000000000000e+00
1198 1197 -1.000000000000000e+00
1198 1198 8.000000000000000e+00
1199 101 -1.000000000000000e+00
1199 1159 -1.000000000000000e+00
1199 1196 -1.000000000000000e+00
1199 1197 -1.000000000000000e+00
1199 1198 -1.000000000000000e+00
1199 1199 8.000000000000000e+00
1200 101 -1.000000000000000e+00
1200 1159 -1.000000000000000e+00
1200 1198 -1.000000000000000e+00
1200 1199 -1.000000000000000e+00
1200 1200 7.000000000000000e+00
1201 101 -1.000000000000000e+00
1201 450 -1.000000000000000e+00
1201 1159 -1.000000000000000e+00
1201 1198 -1.000000000000000e+00
1201 1199 -1.000000000000000e+00
1201 1201 7.000000000000000e+00
1202 101 -1.000000000000000e+00
1202 1159 -1.000000000000000e+00
1202 1199 -1.000000000000000e+00
1202 1200 -1.000000000000000e+00
1202 1201 -1.000000000000000e+00
1202 1202 9.000000000000000e+00
1203 101 -1.000000000000000e+00
1203 1159 -1.000000000000000e+00
1203 1200 -1.000000000000000e+00
1203 1202 -1.000000000000000e+00
1203 1203 7.000000000000000e+00
1204 101 -1.000000000000000e+00
1204 1159 -1.000000000000000e+00
1204 1201 -1.000000000000000e+00
1204 1202 -1.000000000000000e+00
1204 1203 -1.000000000000000e+00
1204 1204 8.000000000000000e+00
1205 101 -1.000000000000000e+00
1205 1159 -1.000000000000000e+00
1205 1202 -1.000000000000000e+00
1205 1203 -1.000000000000000e+00
1205 1204 -1.000000000000000e+00
1205 1205 8.000000000000000e+00
1206 101 -1.000000000000000e+00
1206 1159 -1.000000000000000e+00
1206 1203 -1.000000000000000e+00
1206 1204 -1.000000000000000e+00
1206 1205 -1.000000000000000e+00
1206 1206 8.000000000000000e+00
1207 101 -1.000000000000000e+00
1207 1159 -1.000000000000000e+00
1207 1204 -1.000000000000000e+00
1207 1205 -1.000000000000000e+00
1207 1206 -1.000000000000000e+00
1207 1207 8.000000000000000e+00
1208 101 -1.000000000000000e+00
1208 1159 -1.000000000000000e+00
1208 1205 -1.000000000000000e+00
1208 1206 -1.000000000000000e+00
1208 1207 -1.000000000000000e+00
1208 1208 8.000000000000000e+00
1209 101 -1.000000000000000e+00
1209 1159 -1.000000000000000e+00
1209 1206 -1.000000000000000e+00
1209 1207 -1.000000000000000e+00
1209 1208 -1.000000000000000e+00
1209 1209 8.000000000000000e+00
1210 101 -1.000000000000000e+00
1210 1104 -1.000000000000000e+00
1210 1159 -1.000000000000000e+00
1210 1207 -1.000000000000000e+00
1210 1208 -1.000000000000000e+00
1210 1209 -1.000000000000000e+00
1210 1210 8.000000000000000e+00
1211 101 -1.000000000000000e+00
1211 1159 -1.000000000000000e+00
1211 1208 -1.000000000000000e+00
1211 1209 -1.000000000000000e+00
1211 1210 -1.000000000000000e+00
1211 1211 8.000000000000000e+00
1212 101 -1.000000000000000e+00
1212 1159 -1.000000000000000e+00
1212 1209 -1.000000000000000e+00
1212 1210 -1.000000000000000e+00
1212 1211 -1.000000000000000e+00
1212 1212 8.000000000000000e+00
1213 101 -1.000000000000000e+00
1213 1159 -1.000000000000000e+00
1213 1211 -1.000000000000000e+00
1213 1212 -1.000000000000000e+00
1213 1213 7.000000000000000e+00
1214 101 -1.000000000000000e+00
1214 1159 -1.000000000000000e+00
1214 1211 -1.000000000000000e+00
1214 1212 -1.000000000000000e+00
1214 1213 -1.000000000000000e+00
1214 1214 8.000000000000000e+00
1215 101 -1.000000000000000e+00
1215 1159 -1.000000000000000e+00
1215 1212 -1.000000000000000e+00
1215 1213 -1.000000000000000e+00
1215 1214 -1.000000000000000e+00
1215 1215 8.000000000000000e+00
1216 101 -1.000000000000000e+00
1216 897 -1.000000000000000e+00
1216 1159 -1.000000000000000e+00
1216 1213 -1.000000000000000e+00
1216 1214 -1.000000000000000e+00
1216 1215 -1.000000000000000e+00
1216 1216 9.000000000000000e+00
1217 101 -1.000000000000000e+00
1217 349 -1.000000000000000e+00
1217 1159 -1.000000000000000e+00
1217 1214 -1.000000000000000e+00
1217 1215 -1.000000000000000e+00
1217 1216 -1.000000000000000e+00
1217 1217 9.000000000000000e+00
1218 101 -1.000000000000000e+00
1218 1159 -1.000000000000000e+00
1218 1215 -1.000000000000000e+00
1218 1216 -1.000000000000000e+00
1218 1217 -1.000000000000000e+00
1218 1218 8.000000000000000e+00
1219 101 -1.000000000000000e+00
1219 1159 -1.000000000000000e+00
1219 1216 -1.000000000000000e+00
1219 1217 -1.000000000000000e+00
1219 1218 -1.000000000000000e+00
1219 1219 8.000000000000000e+00
1220 101 -1.000000000000000e+00
1220 266 -1.000000000000000e+00
1220 1159 -1.000000000000000e+00
1220 1217 -1.000000000000000e+00
1220 1218 -1.000000000000000e+00
1220 1219 -1.000000000000000e+00
1220 1220 8.000000000000000e+00
1221 101 -1.000000000000000e+00
1221 1159 -1.000000000000000e+00
1221 1218 -1.000000000000000e+00
1221 1219 -1.000000000000000e+00
1221 1220 -1.000000000000000e+00
1221 1221 8.000000000000000e+00
1222 220 -1.000000000000000e+00
1222 543 -1.000000000000000e+00
1222 1220 -1.000000000000000e+00
1222 1221 -1.000000000000000e+00
1222 1222 1.700000000000000e+01
1223 116 -1.000000000000000e+00
1223 1221 -1.000000000000000e+00
1223 1222 -2.000000000000000e+00
1223 1223 1.600000000000000e+01
1224 1170 -1.000000000000000e+00
1224 1221 -1.000000000000000e+00
1224 1222 -2.000000000000000e+00
1224 1223 -2.000000000000000e+00
1224 1224 8.000000000000000e+00
1225 350 -1.000000000000000e+00
1225 651 -1.000000000000000e+00
1225 1222 -1.000000000000000e+00
1225 1223 -1.000000000000000e+00
1225 1224 -1.000000000000000e+00
1225 1225 8.000000000000000e+00
1226 759 -1.000000000000000e+00
1226 1222 -1.000000000000000e+00
1226 1223 -2.000000000000000e+00
1226 1224 -1.000000000000000e+00
1226 1225 -1.000000000000000e+00
1226 1226 9.000000000000000e+00
1227 208 -1.000000000000000e+00
1227 1222 -1.000000000000000e+00
1227 1223 -1.000000000000000e+00
1227 1225 -1.000000000000000e+00
1227 1226 -1.000000000000000e+00
1227 1227 7.000000000000000e+00
1228 824 -1.000000000000000e+00
1228 1222 -1.000000000000000e+00
1228 1223 -1.000000000000000e+00
1228 1225 -1.000000000000000e+00
1228 1226 -1.000000000000000e+00
1228 1228 8.000000000000000e+00
1229 22 -1.000000000000000e+00
1229 1222 -1.000000000000000e+00
1229 1223 -1.000000000000000e+00
1229 1226 -1.000000000000000e+00
1229 1228 -1.000000000000000e+00
1229 1229 8.000000000000000e+00
1230 453 -1.000000000000000e+00
1230 1222 -1.000000000000000e+00
1230 1223 -1.000000000000000e+00
1230 1227 -1.000000000000000e+00
1230 1228 -1.000000000000000e+00
1230 1229 -1.000000000000000e+00
1230 1230 8.000000000000000e+00
1231 1222 -1.000000000000000e+00
1231 1223 -1.000000000000000e+00
1231 1228 -1.000000000000000e+00
1231 1229 -1.000000000000000e+00
1231 1230 -1.000000000000000e+00
1231 1231 8.000000000000000e+00
1232 428 -1.000000000000000e+00
1232 1222 -1.000000000000000e+00
1232 1223 -1.000000000000000e+00
1232 1229 -1.000000000000000e+00
1232 1230 -1.000000000000000e+00
1232 1231 -1.000000000000000e+00
1232 1232 8.000000000000000e+00
1233 1231 -1.000000000000000e+00
1233 1232 -1.000000000000000e+00
1233 1233 4.600000000000000e+01
1234 1202 -1.000000000000000e+00
1234 1222 -1.000000000000000e+00
1234 1223 -1.000000000000000e+00
1234 1231 -1.000000000000000e+00
1234 1232 -1.000000000000000e+00
1234 1233 -1.000000000000000e+00
1234 1234 1.000000000000000e+01
1235 1233 -2.000000000000000e+00
1235 1234 -1.000000000000000e+00
1235 1235 7.000000000000000e+00
1236 1233 -2.000000000000000e+00
1236 1235 -1.000000000000000e+00
1236 1236 7.000000000000000e+00
1237 1233 -1.000000000000000e+00
1237 1234 -1.000000000000000e+00
1237 1235 -1.000000000000000e+00
1237 1236 -1.000000000000000e+00
1237 1237 8.000000000000000e+00
1238 1233 -1.000000000000000e+00
1238 1235 -1.000000000000000e+00
1238 1236 -1.000000000000000e+00
1238 1237 -1.000000000000000e+00
1238 1238 8.000000000000000e+00
1239 1233 -1.000000000000000e+00
1239 1236 -1.000000000000000e+00
1239 1237 -1.000000000000000e+00
1239 1238 -1.000000000000000e+00
1239 1239 8.000000000000000e+00
1240 547 -1.000000000000000e+00
1240 1233 -1.000000000000000e+00
1240 1237 -1.000000000000000e+00
1240 1238 -1.000000000000000e+00
1240 1239 -1.000000000000000e+00
1240 1240 9.000000000000000e+00
1241 1233 -1.000000000000000e+00
1241 1238 -1.000000000000000e+00
1241 1239 -1.000000000000000e+00
1241 1240 -1.000000000000000e+00
1241 1241 8.000000000000000e+00
1242 747 -1.000000000000000e+00
1242 851 -1.000000000000000e+00
1242 1233 -1.000000000000000e+00
1242 1239 -1.000000000000000e+00
1242 1241 -1.000000000000000e+00
1242 1242 8.000000000000000e+00
1243 1233 -1.000000000000000e+00
1243 1240 -1.000000000000000e+00
1243 1241 -1.000000000000000e+00
1243 1243 7.000000000000000e+00
1244 1233 -1.000000000000000e+00
1244 1241 -1.000000000000000e+00
1244 1242 -1.000000000000000e+00
1244 1243 -1.000000000000000e+00
1244 1244 8.000000000000000e+00
1245 145 -1.000000000000000e+00
1245 1233 -1.000000000000000e+00
1245 1242 -1.000000000000000e+00
1245 1243 -1.000000000000000e+00
1245 1244 -1.000000000000000e+00
1245 1245 8.000000000000000e+00
1246 1233 -1.000000000000000e+00
1246 1244 -1.000000000000000e+00
1246 1245 -1.000000000000000e+00
1246 1246 7.000000000000000e+00
1247 443 -1.000000000000000e+00
1247 1233 -1.000000000000000e+00
1247 1244 -1.000000000000000e+00
1247 1245 -1.000000000000000e+00
1247 1246 -1.000000000000000e+00
1247 1247 8.000000000000000e+00
1248 1233 -1.000000000000000e+00
1248 1246 -1.000000000000000e+00
1248 1247 -1.000000000000000e+00
1248 1248 7.000000000000000e+00
1249 1233 -1.000000000000000e+00
1249 1246 -1.000000000000000e+00
1249 1247 -1.000000000000000e+00
1249 1248 -1.000000000000000e+00
1249 1249 8.000000000000000e+00
1250 1233 -1.000000000000000e+00
1250 1248 -1.000000000000000e+00
1250 1249 -1.000000000000000e+00
1250 1250 7.000000000000000e+00
1251 1233 -1.000000000000000e+00
1251 1248 -1.000000000000000e+00
1251 1249 -1.000000000000000e+00
1251 1250 -1.000000000000000e+00
1251 1251 8.000000000000000e+00
1252 1233 -1.000000000000000e+00
1252 1250 -1.000000000000000e+00
1252 1251 -1.000000000000000e+00
1252 1252 7.000000000000000e+00
1253 1233 -1.000000000000000e+00
1253 1250 -1.000000000000000e+00
1253 1251 -1.000000000000000e+00
1253 1252 -1.000000000000000e+00
1253 1253 8.000000000000000e+00
1254 1233 -1.000000000000000e+00
1254 1251 -1.000000000000000e+00
1254 1252 -1.000000000000000e+00
1254 1253 -1.000000000000000e+00
1254 1254 8.000000000000000e+00
1255 1233 -1.000000000000000e+00
1255 1252 -1.000000000000000e+00
1255 1253 -1.000000000000000e+00
1255 1254 -1.000000000000000e+00
1255 1255 8.000000000000000e+00
1256 1233 -1.000000000000000e+00
1256 1253 -1.000000000000000e+00
1256 1254 -1.000000000000000e+00
1256 1255 -1.000000000000000e+00
1256 1256 2.600000000000000e+01
1257 996 -1.000000000000000e+00
1257 1233 -1.000000000000000e+00
1257 1235 -1.000000000000000e+00
1257 1236 -1.000000000000000e+00
1257 1237 -1.000000000000000e+00
1257 1238 -1.000000000000000e+00
1257 1239 -1.000000000000000e+00
1257 1240 -1.000000000000000e+00
1257 1241 -1.000000000000000e+00
1257 1242 -1.000000000000000e+00
1257 1243 -1.000000000000000e+00
1257 1244 -1.000000000000000e+00
1257 1245 -1.000000000000000e+00
1257 1246 -1.000000000000000e+00
1257 1247 -1.000000000000000e+00
1257 1248 -1.000000000000000e+00
1257 1249 -1.000000000000000e+00
1257 1250 -1.000000000000000e+00
1257 1251 -1.000000000000000e+00
1257 1252 -1.000000000000000e+00
1257 1253 -1.000000000000000e+00
1257 1254 -2.000000000000000e+00
1257 1255 -2.000000000000000e+00
1257 1256 -2.000000000000000e+00
1257 1257 3.000000000000000e+01
1258 716 -1.000000000000000e+00
1258 1227 -1.000000000000000e+00
1258 1233 -1.000000000000000e+00
1258 1255 -1.000000000000000e+00
1258 1256 -2.000000000000000e+00
1258 1257 -1.000000000000000e+00
1258 1258 1.000000000000000e+01
1259 1233 -1.000000000000000e+00
1259 1256 -2.000000000000000e+00
1259 1257 -1.000000000000000e+00
1259 1258 -1.000000000000000e+00
1259 1259 8.000000000000000e+00
1260 1233 -1.000000000000000e+00
1260 1256 -1.000000000000000e+00
1260 1257 -1.000000000000000e+00
1260 1258 -1.000000000000000e+00
1260 1259 -1.000000000000000e+00
1260 1260 8.000000000000000e+00
1261 1233 -1.000000000000000e+00
1261 1256 -1.000000000000000e+00
1261 1258 -1.000000000000000e+00
1261 1259 -1.000000000000000e+00
1261 1260 -1.000000000000000e+00
1261 1261 8.000000000000000e+00
1262 1233 -1.000000000000000e+00
1262 1256 -1.000000000000000e+00
1262 1259 -1.000000000000000e+00
1262 1260 -1.000000000000000e+00
1262 1261 -1.000000000000000e+00
1262 1262 8.000000000000000e+00
1263 1233 -1.000000000000000e+00
1263 1256 -1.000000000000000e+00
1263 1260 -1.000000000000000e+00
1263 1261 -1.000000000000000e+00
1263 1262 -1.000000000000000e+00
1263 1263 8.000000000000000e+00
1264 1233 -1.000000000000000e+00
1264 1243 -1.000000000000000e+00
1264 1256 -1.000000000000000e+00
1264 1261 -1.000000000000000e+00
1264 1262 -1.000000000000000e+00
1264 1263 -1.000000000000000e+00
1264 1264 9.000000000000000e+00
1265 1233 -1.000000000000000e+00
1265 1256 -1.000000000000000e+00
1265 1262 -1.000000000000000e+00
1265 1263 -1.000000000000000e+00
1265 1264 -1.000000000000000e+00
1265 1265 8.000000000000000e+00
1266 1233 -1.000000000000000e+00
1266 1256 -1.000000000000000e+00
1266 1263 -1.000000000000000e+00
1266 1264 -1.000000000000000e+00
1266 1265 -1.000000000000000e+00
1266 1266 8.000000000000000e+00
1267 1233 -1.000000000000000e+00
1267 1256 -1.000000000000000e+00
1267 1264 -1.000000000000000e+00
1267 1265 -1.000000000000000e+00
1267 1266 -1.000000000000000e+00
1267 1267 8.000000000000000e+00
1268 1233 -1.000000000000000e+00
1268 1234 -1.000000000000000e+00
1268 1256 -1.000000000000000e+00
1268 1265 -1.000000000000000e+00
1268 1266 -1.000000000000000e+00
1268 1267 -1.000000000000000e+00
1268 1268 8.000000000000000e+00
1269 1233 -1.000000000000000e+00
1269 1256 -1.000000000000000e+00
1269 1266 -1.000000000000000e+00
1269 1267 -1.000000000000000e+00
1269 1268 -1.000000000000000e+00
1269 1269 8.000000000000000e+00
1270 1233 -1.000000000000000e+00
1270 1256 -1.000000000000000e+00
1270 1267 -1.000000000000000e+00
1270 1269 -1.000000000000000e+00
1270 1270 7.000000000000000e+00
1271 1233 -1.000000000000000e+00
1271 1256 -1.000000000000000e+00
1271 1268 -1.000000000000000e+00
1271 1269 -1.000000000000000e+00
1271 1270 -1.000000000000000e+00
1271 1271 8.000000000000000e+00
1272 1233 -1.000000000000000e+00
1272 1256 -1.000000000000000e+00
1272 1269 -1.000000000000000e+00
1272 1270 -1.000000000000000e+00
1272 1271 -1.000000000000000e+00
1272 1272 8.000000000000000e+00
1273 1233 -1.000000000000000e+00
1273 1256 -1.000000000000000e+00
1273 1270 -1.000000000000000e+00
1273 1271 -1.000000000000000e+00
1273 1272 -1.000000000000000e+00
1273 1273 8.000000000000000e+00
1274 1233 -1.000000000000000e+00
1274 1256 -1.000000000000000e+00
1274 1271 -1.000000000000000e+00
1274 1272 -1.000000000000000e+00
1274 1273 -1.000000000000000e+00
1274 1274 8.000000000000000e+00
1275 1233 -1.000000000000000e+00
1275 1256 -1.000000000000000e+00
1275 1272 -1.000000000000000e+00
1275 1273 -1.000000000000000e+00
1275 1274 -1.000000000000000e+00
1275 1275 8.000000000000000e+00
1276 434 -1.000000000000000e+00
1276 711 -1.000000000000000e+00
1276 1273 -1.000000000000000e+00
1276 1274 -1.000000000000000e+00
1276 1275 -1.000000000000000e+00
1276 1276 8.000000000000000e+00
1277 434 -1.000000000000000e+00
1277 1274 -1.000000000000000e+00
1277 1275 -1.000000000000000e+00
1277 1276 -1.000000000000000e+00
1277 1277 8.000000000000000e+00
1278 434 -1.000000000000000e+00
1278 1275 -1.000000000000000e+00
1278 1277 -1.000000000000000e+00
1278 1278 7.000000000000000e+00
1279 434 -1.000000000000000e+00
1279 1276 -1.000000000000000e+00
1279 1277 -1.000000000000000e+00
1279 1278 -1.000000000000000e+00
1279 1279 1.000000000000000e+01
1280 434 -1.000000000000000e+00
1280 435 -1.000000000000000e+00
1280 436 -1.000000000000000e+00
1280 437 -1.000000000000000e+00
1280 438 -1.000000000000000e+00
1280 439 -1.000000000000000e+00
1280 440 -1.000000000000000e+00
1280 441 -1.000000000000000e+00
1280 442 -1.000000000000000e+00
1280 443 -1.000000000000000e+00
1280 444 -1.000000000000000e+00
1280 445 -1.000000000000000e+00
1280 446 -1.000000000000000e+00
1280 447 -1.000000000000000e+00
1280 448 -1.000000000000000e+00
1280 449 -1.000000000000000e+00
1280 450 -1.000000000000000e+00
1280 1276 -1.000000000000000e+00
1280 1277 -2.000000000000000e+00
1280 1278 -2.000000000000000e+00
1280 1279 -2.000000000000000e+00
1280 1280 2.700000000000000e+01
1281 434 -1.000000000000000e+00
1281 438 -1.000000000000000e+00
1281 1086 -1.000000000000000e+00
1281 1278 -1.000000000000000e+00
1281 1279 -2.000000000000000e+00
1281 1280 -1.000000000000000e+00
1281 1281 1.000000000000000e+01
1282 110 -1.000000000000000e+00
1282 434 -1.000000000000000e+00
1282 1279 -2.000000000000000e+00
1282 1281 -1.000000000000000e+00
1282 1282 7.000000000000000e+00
1283 428 -1.000000000000000e+00
1283 872 -1.000000000000000e+00
1283 1280 -1.000000000000000e+00
1283 1281 -1.000000000000000e+00
1283 1283 1.000000000000000e+01
1284 428 -1.000000000000000e+00
1284 429 -1.000000000000000e+00
1284 430 -2.000000000000000e+00
1284 431 -1.000000000000000e+00
1284 432 -1.000000000000000e+00
1284 433 -1.000000000000000e+00
1284 524 -1.000000000000000e+00
1284 525 -1.000000000000000e+00
1284 526 -1.000000000000000e+00
1284 527 -1.000000000000000e+00
1284 528 -1.000000000000000e+00
1284 529 -1.000000000000000e+00
1284 530 -1.000000000000000e+00
1284 531 -1.000000000000000e+00
1284 532 -1.000000000000000e+00
1284 533 -1.000000000000000e+00
1284 534 -1.000000000000000e+00
1284 535 -1.000000000000000e+00
1284 536 -1.000000000000000e+00
1284 537 -1.000000000000000e+00
1284 538 -1.000000000000000e+00
1284 539 -1.000000000000000e+00
1284 540 -1.000000000000000e+00
1284 541 -1.000000000000000e+00
1284 542 -1.000000000000000e+00
1284 543 -1.000000000000000e+00
1284 544 -1.000000000000000e+00
1284 1281 -1.000000000000000e+00
1284 1282 -1.000000000000000e+00
1284 1283 -2.000000000000000e+00
1284 1284 3.400000000000000e+01
1285 7 -1.000000000000000e+00
1285 428 -1.000000000000000e+00
1285 1282 -1.000000000000000e+00
1285 1283 -2.000000000000000e+00
1285 1284 -1.000000000000000e+00
1285 1285 9.000000000000000e+00
1286 428 -1.000000000000000e+00
1286 460 -1.000000000000000e+00
1286 526 -1.000000000000000e+00
1286 865 -1.000000000000000e+00
1286 1283 -2.000000000000000e+00
1286 1285 -1.000000000000000e+00
1286 1286 8.000000000000000e+00
1287 203 -1.000000000000000e+00
1287 1284 -1.000000000000000e+00
1287 1285 -1.000000000000000e+00
1287 1287 2.100000000000000e+01
1288 71 -1.000000000000000e+00
1288 1285 -1.000000000000000e+00
1288 1287 -1.000000000000000e+00
1288 1288 2.000000000000000e+01
1289 898 -1.000000000000000e+00
1289 1286 -1.000000000000000e+00
1289 1287 -2.000000000000000e+00
1289 1288 -2.000000000000000e+00
1289 1289 8.000000000000000e+00
1290 613 -1.000000000000000e+00
1290 1287 -2.000000000000000e+00
1290 1288 -2.000000000000000e+00
1290 1289 -1.000000000000000e+00
1290 1290 9.000000000000000e+00
1291 1287 -1.000000000000000e+00
1291 1288 -1.000000000000000e+00
1291 1290 -1.000000000000000e+00
1291 1291 6.000000000000000e+00
1292 1287 -1.000000000000000e+00
1292 1288 -1.000000000000000e+00
1292 1289 -1.000000000000000e+00
1292 1290 -1.000000000000000e+00
1292 1291 -1.000000000000000e+00
1292 1292 8.000000000000000e+00
1293 153 -1.000000000000000e+00
1293 1287 -1.000000000000000e+00
1293 1288 -1.000000000000000e+00
1293 1290 -1.000000000000000e+00
1293 1291 -1.000000000000000e+00
1293 1292 -1.000000000000000e+00
1293 1293 9.000000000000000e+00
1294 1287 -1.000000000000000e+00
1294 1288 -1.000000000000000e+00
1294 1291 -1.000000000000000e+00
1294 1292 -1.000000000000000e+00
1294 1293 -1.000000000000000e+00
1294 1294 8.000000000000000e+00
1295 1287 -1.000000000000000e+00
1295 1288 -1.000000000000000e+00
1295 1292 -1.000000000000000e+00
1295 1293 -1.000000000000000e+00
1295 1294 -1.000000000000000e+00
1295 1295 8.000000000000000e+00
1296 1287 -1.000000000000000e+00
1296 1288 -1.000000000000000e+00
1296 1293 -1.000000000000000e+00
1296 1294 -1.000000000000000e+00
1296 1295 -1.000000000000000e+00
1296 1296 8.000000000000000e+00
1297 316 -1.000000000000000e+00
1297 1126 -1.000000000000000e+00
1297 1287 -1.000000000000000e+00
1297 1288 -1.000000000000000e+00
1297 1294 -1.000000000000000e+00
1297 1295 -1.000000000000000e+00
1297 1296 -1.000000000000000e+00
1297 1297 1.000000000000000e+01
1298 163 -1.000000000000000e+00
1298 1287 -1.000000000000000e+00
1298 1288 -1.000000000000000e+00
1298 1295 -1.000000000000000e+00
1298 1296 -1.000000000000000e+00
1298 1297 -1.000000000000000e+00
1298 1298 8.000000000000000e+00
1299 442 -1.000000000000000e+00
1299 1287 -1.000000000000000e+00
1299 1288 -1.000000000000000e+00
1299 1296 -1.000000000000000e+00
1299 1297 -1.000000000000000e+00
1299 1299 7.000000000000000e+00
1300 63 -1.000000000000000e+00
1300 1287 -1.000000000000000e+00
1300 1288 -1.000000000000000e+00
1300 1298 -1.000000000000000e+00
1300 1300 7.000000000000000e+00
1301 53 -1.000000000000000e+00
1301 1287 -1.000000000000000e+00
1301 1288 -1.000000000000000e+00
1301 1298 -1.000000000000000e+00
1301 1299 -1.000000000000000e+00
1301 1300 -1.000000000000000e+00
1301 1301 9.000000000000000e+00
1302 69 -1.000000000000000e+00
1302 1287 -1.000000000000000e+00
1302 1288 -1.000000000000000e+00
1302 1299 -1.000000000000000e+00
1302 1300 -1.000000000000000e+00
1302 1301 -1.000000000000000e+00
1302 1302 8.000000000000000e+00
1303 943 -1.000000000000000e+00
1303 1287 -1.000000000000000e+00
1303 1288 -1.000000000000000e+00
1303 1300 -1.000000000000000e+00
1303 1301 -1.000000000000000e+00
1303 1302 -1.000000000000000e+00
1303 1303 8.000000000000000e+00
1304 331 -1.000000000000000e+00
1304 359 -1.000000000000000e+00
1304 1301 -1.000000000000000e+00
1304 1303 -1.000000000000000e+00
1304 1304 7.000000000000000e+00
1305 331 -1.000000000000000e+00
1305 359 -1.000000000000000e+00
1305 1302 -1.000000000000000e+00
1305 1303 -1.000000000000000e+00
1305 1304 -1.000000000000000e+00
1305 1305 8.000000000000000e+00
1306 331 -1.000000000000000e+00
1306 349 -1.000000000000000e+00
1306 359 -1.000000000000000e+00
1306 1304 -1.000000000000000e+00
1306 1305 -1.000000000000000e+00
1306 1306 7.000000000000000e+00
1307 331 -1.000000000000000e+00
1307 359 -1.000000000000000e+00
1307 476 -1.000000000000000e+00
1307 860 -1.000000000000000e+00
1307 1304 -1.000000000000000e+00
1307 1305 -1.000000000000000e+00
1307 1306 -1.000000000000000e+00
1307 1307 9.000000000000000e+00
1308 331 -1.000000000000000e+00
1308 359 -1.000000000000000e+00
1308 1305 -1.000000000000000e+00
1308 1308 6.000000000000000e+00
1309 191 -1.000000000000000e+00
1309 331 -1.000000000000000e+00
1309 359 -1.000000000000000e+00
1309 1306 -1.000000000000000e+00
1309 1307 -1.000000000000000e+00
1309 1308 -1.000000000000000e+00
1309 1309 8.000000000000000e+00
1310 331 -1.000000000000000e+00
1310 359 -1.000000000000000e+00
1310 819 -1.000000000000000e+00
1310 1024 -1.000000000000000e+00
1310 1307 -1.000000000000000e+00
1310 1308 -1.000000000000000e+00
1310 1309 -1.000000000000000e+00
1310 1310 8.000000000000000e+00
1311 1308 -1.000000000000000e+00
1311 1311 2.600000000000000e+01
1312 135 -1.000000000000000e+00
1312 1056 -1.000000000000000e+00
1312 1309 -1.000000000000000e+00
1312 1310 -1.000000000000000e+00
1312 1311 -2.000000000000000e+00
1312 1312 9.000000000000000e+00
1313 665 -1.000000000000000e+00
1313 1311 -2.000000000000000e+00
1313 1313 6.000000000000000e+00
1314 1311 -2.000000000000000e+00
1314 1312 -1.000000000000000e+00
1314 1313 -1.000000000000000e+00
1314 1314 8.000000000000000e+00
1315 1311 -1.000000000000000e+00
1315 1312 -1.000000000000000e+00
1315 1313 -1.000000000000000e+00
1315 1314 -1.000000000000000e+00
1315 1315 8.000000000000000e+00
1316 723 -1.000000000000000e+00
1316 1311 -1.000000000000000e+00
1316 1314 -1.000000000000000e+00
1316 1315 -1.000000000000000e+00
1316 1316 7.000000000000000e+00
1317 1311 -1.000000000000000e+00
1317 1314 -1.000000000000000e+00
1317 1315 -1.000000000000000e+00
1317 1317 7.000000000000000e+00
1318 675 -1.000000000000000e+00
1318 679 -1.000000000000000e+00
1318 1311 -1.000000000000000e+00
1318 1315 -1.000000000000000e+00
1318 1316 -1.000000000000000e+00
1318 1317 -1.000000000000000e+00
1318 1318 9.000000000000000e+00
1319 1311 -1.000000000000000e+00
1319 1316 -1.000000000000000e+00
1319 1317 -1.000000000000000e+00
1319 1318 -1.000000000000000e+00
1319 1319 8.000000000000000e+00
1320 739 -1.000000000000000e+00
1320 1311 -1.000000000000000e+00
1320 1317 -1.000000000000000e+00
1320 1319 -1.000000000000000e+00
1320 1320 7.000000000000000e+00
1321 1078 -1.000000000000000e+00
1321 1311 -1.000000000000000e+00
1321 1318 -1.000000000000000e+00
1321 1319 -1.000000000000000e+00
1321 1321 7.000000000000000e+00
1322 667 -1.000000000000000e+00
1322 1311 -1.000000000000000e+00
1322 1319 -1.000000000000000e+00
1322 1320 -1.000000000000000e+00
1322 1322 8.000000000000000e+00
1323 1311 -1.000000000000000e+00
1323 1320 -1.000000000000000e+00
1323 1321 -1.000000000000000e+00
1323 1322 -1.000000000000000e+00
1323 1323 8.000000000000000e+00
1324 115 -1.000000000000000e+00
1324 1178 -1.000000000000000e+00
1324 1311 -1.000000000000000e+00
1324 1321 -1.000000000000000e+00
1324 1322 -1.000000000000000e+00
1324 1323 -1.000000000000000e+00
1324 1324 9.000000000000000e+00
1325 963 -1.000000000000000e+00
1325 1311 -1.000000000000000e+00
1325 1322 -1.000000000000000e+00
1325 1323 -1.000000000000000e+00
1325 1324 -1.000000000000000e+00
1325 1325 9.000000000000000e+00
1326 793 -1.000000000000000e+00
1326 1311 -1.000000000000000e+00
1326 1323 -1.000000000000000e+00
1326 1324 -1.000000000000000e+00
1326 1326 7.000000000000000e+00
1327 1171 -1.000000000000000e+00
1327 1311 -1.000000000000000e+00
1327 1325 -1.000000000000000e+00
1327 1327 6.000000000000000e+00
1328 1311 -1.000000000000000e+00
1328 1325 -1.000000000000000e+00
1328 1326 -1.000000000000000e+00
1328 1327 -1.000000000000000e+00
1328 1328 8.000000000000000e+00
1329 139 -1.000000000000000e+00
1329 650 -1.000000000000000e+00
1329 1311 -1.000000000000000e+00
1329 1326 -1.000000000000000e+00
1329 1328 -1.000000000000000e+00
1329 1329 8.000000000000000e+00
1330 8 -1.000000000000000e+00
1330 1311 -1.000000000000000e+00
1330 1327 -1.000000000000000e+00
1330 1328 -1.000000000000000e+00
1330 1330 1.000000000000000e+01
1331 503 -1.000000000000000e+00
1331 1311 -1.000000000000000e+00
1331 1312 -1.000000000000000e+00
1331 1313 -1.000000000000000e+00
1331 1314 -1.000000000000000e+00
1331 1315 -1.000000000000000e+00
1331 1316 -1.000000000000000e+00
1331 1317 -1.000000000000000e+00
1331 1318 -1.000000000000000e+00
1331 1319 -1.000000000000000e+00
1331 1320 -1.000000000000000e+00
1331 1321 -1.000000000000000e+00
1331 1322 -1.000000000000000e+00
1331 1323 -1.000000000000000e+00
1331 1324 -1.000000000000000e+00
1331 1325 -1.000000000000000e+00
1331 1326 -1.000000000000000e+00
1331 1327 -1.000000000000000e+00
1331 1328 -2.000000000000000e+00
1331 1329 -2.000000000000000e+00
1331 1330 -2.000000000000000e+00
1331 1331 2.700000000000000e+01
1332 917 -1.000000000000000e+00
1332 1311 -1.000000000000000e+00
1332 1329 -1.000000000000000e+00
1332 1330 -1.000000000000000e+00
1332 1331 -1.000000000000000e+00
1332 1332 8.000000000000000e+00
1333 1311 -1.000000000000000e+00
1333 1330 -2.000000000000000e+00
1333 1331 -1.000000000000000e+00
1333 1332 -1.000000000000000e+00
1333 1333 8.000000000000000e+00
1334 331 -1.000000000000000e+00
1334 359 -1.000000000000000e+00
1334 1331 -1.000000000000000e+00
1334 1332 -1.000000000000000e+00
1334 1333 -1.000000000000000e+00
1334 1334 8.000000000000000e+00
1335 331 -1.000000000000000e+00
1335 359 -1.000000000000000e+00
1335 480 -1.000000000000000e+00
1335 489 -1.000000000000000e+00
1335 1332 -1.000000000000000e+00
1335 1333 -1.000000000000000e+00
1335 1334 -1.000000000000000e+00
1335 1335 1.000000000000000e+01
1336 185 -1.000000000000000e+00
1336 331 -1.000000000000000e+00
1336 350 -1.000000000000000e+00
1336 359 -1.000000000000000e+00
1336 1119 -1.000000000000000e+00
1336 1333 -1.000000000000000e+00
1336 1334 -1.000000000000000e+00
1336 1335 -1.000000000000000e+00
1336 1336 9.000000000000000e+00
1337 331 -1.000000000000000e+00
1337 359 -1.000000000000000e+00
1337 1074 -1.000000000000000e+00
1337 1334 -1.000000000000000e+00
1337 1335 -1.000000000000000e+00
1337 1337 7.000000000000000e+00
1338 331 -1.000000000000000e+00
1338 359 -1.000000000000000e+00
1338 1106 -1.000000000000000e+00
1338 1335 -1.000000000000000e+00
1338 1337 -1.000000000000000e+00
1338 1338 7.000000000000000e+00
1339 249 -1.000000000000000e+00
1339 331 -1.000000000000000e+00
1339 359 -1.000000000000000e+00
1339 1336 -1.000000000000000e+00
1339 1337 -1.000000000000000e+00
1339 1338 -1.000000000000000e+00
1339 1339 9.000000000000000e+00
1340 1 -1.000000000000000e+00
1340 1338 -1.000000000000000e+00
1340 1339 -1.000000000000000e+00
1340 1340 3.200000000000000e+01
1341 1 -1.000000000000000e+00
1341 2 -1.000000000000000e+00
1341 3 -1.000000000000000e+00
1341 4 -1.000000000000000e+00
1341 241 -1.000000000000000e+00
1341 242 -1.000000000000000e+00
1341 243 -1.000000000000000e+00
1341 244 -1.000000000000000e+00
1341 245 -1.000000000000000e+00
1341 246 -1.000000000000000e+00
1341 247 -1.000000000000000e+00
1341 248 -1.000000000000000e+00
1341 249 -1.000000000000000e+00
1341 250 -1.000000000000000e+00
1341 251 -1.000000000000000e+00
1341 252 -1.000000000000000e+00
1341 253 -1.000000000000000e+00
1341 767 -1.000000000000000e+00
1341 1091 -1.000000000000000e+00
1341 1092 -1.000000000000000e+00
1341 1093 -1.000000000000000e+00
1341 1094 -1.000000000000000e+00
1341 1095 -1.000000000000000e+00
1341 1096 -1.000000000000000e+00
1341 1097 -1.000000000000000e+00
1341 1098 -1.000000000000000e+00
1341 1099 -1.000000000000000e+00
1341 1100 -1.000000000000000e+00
1341 1101 -1.000000000000000e+00
1341 1102 -1.000000000000000e+00
1341 1103 -1.000000000000000e+00
1341 1339 -1.000000000000000e+00
1341 1340 -2.000000000000000e+00
1341 1341 3.800000000000000e+01
1342 1 -1.000000000000000e+00
1342 231 -1.000000000000000e+00
1342 1339 -1.000000000000000e+00
1342 1340 -2.000000000000000e+00
1342 1341 -1.000000000000000e+00
1342 1342 9.000000000000000e+00
1343 1 -1.000000000000000e+00
1343 1340 -2.000000000000000e+00
1343 1341 -1.000000000000000e+00
1343 1342 -1.000000000000000e+00
1343 1343 8.000000000000000e+00
1344 1 -1.000000000000000e+00
1344 1340 -1.000000000000000e+00
1344 1341 -1.000000000000000e+00
1344 1342 -1.000000000000000e+00
1344 1343 -1.000000000000000e+00
1344 1344 8.000000000000000e+00
1345 1 -1.000000000000000e+00
1345 1340 -1.000000000000000e+00
1345 1342 -1.000000000000000e+00
1345 1343 -1.000000000000000e+00
1345 1344 -1.000000000000000e+00
1345 1345 8.000000000000000e+00
1346 1 -1.000000000000000e+00
1346 1340 -1.000000000000000e+00
1346 1343 -1.000000000000000e+00
1346 1344 -1.000000000000000e+00
1346 1345 -1.000000000000000e+00
1346 1346 8.000000000000000e+00
1347 1 -1.000000000000000e+00
1347 413 -1.000000000000000e+00
1347 1072 -1.000000000000000e+00
1347 1340 -1.000000000000000e+00
1347 1344 -1.000000000000000e+00
1347 1345 -1.000000000000000e+00
1347 1346 -1.000000000000000e+00
1347 1347 9.000000000000000e+00
1348 1 -1.000000000000000e+00
1348 409 -1.000000000000000e+00
1348 885 -1.000000000000000e+00
1348 1052 -1.000000000000000e+00
1348 1340 -1.000000000000000e+00
1348 1345 -1.000000000000000e+00
1348 1346 -1.000000000000000e+00
1348 1348 8.000000000000000e+00
1349 1 -1.000000000000000e+00
1349 940 -1.000000000000000e+00
1349 1340 -1.000000000000000e+00
1349 1346 -1.000000000000000e+00
1349 1347 -1.000000000000000e+00
1349 1349 8.000000000000000e+00
1350 1 -1.000000000000000e+00
1350 167 -1.000000000000000e+00
1350 294 -1.000000000000000e+00
1350 901 -1.000000000000000e+00
1350 981 -1.000000000000000e+00
1350 1219 -1.000000000000000e+00
1350 1340 -1.000000000000000e+00
1350 1347 -1.000000000000000e+00
1350 1348 -1.000000000000000e+00
1350 1349 -1.000000000000000e+00
1350 1350 1.200000000000000e+01
1351 1 -1.000000000000000e+00
1351 736 -1.000000000000000e+00
1351 1340 -1.000000000000000e+00
1351 1349 -1.000000000000000e+00
1351 1350 -1.000000000000000e+00
1351 1351 8.000000000000000e+00
1352 1 -1.000000000000000e+00
1352 1171 -1.000000000000000e+00
1352 1340 -1.000000000000000e+00
1352 1349 -1.000000000000000e+00
1352 1351 -1.000000000000000e+00
1352 1352 7.000000000000000e+00
1353 1 -1.000000000000000e+00
1353 344 -1.000000000000000e+00
1353 1340 -1.000000000000000e+00
1353 1350 -1.000000000000000e+00
1353 1351 -1.000000000000000e+00
1353 1352 -1.000000000000000e+00
1353 1353 1.000000000000000e+01
1354 1 -1.000000000000000e+00
1354 1340 -1.000000000000000e+00
1354 1351 -1.000000000000000e+00
1354 1352 -1.000000000000000e+00
1354 1353 -1.000000000000000e+00
1354 1354 8.000000000000000e+00
1355 1 -1.000000000000000e+00
1355 1325 -1.000000000000000e+00
1355 1340 -1.000000000000000e+00
1355 1353 -1.000000000000000e+00
1355 1354 -1.000000000000000e+00
1355 1355 7.000000000000000e+00
1356 1 -1.000000000000000e+00
1356 243 -1.000000000000000e+00
1356 322 -1.000000000000000e+00
1356 705 -1.000000000000000e+00
1356 1340 -1.000000000000000e+00
1356 1353 -1.000000000000000e+00
1356 1356 8.000000000000000e+00
1357 1 -1.000000000000000e+00
1357 4 -1.000000000000000e+00
1357 1094 -1.000000000000000e+00
1357 1340 -1.000000000000000e+00
1357 1354 -1.000000000000000e+00
1357 1355 -1.000000000000000e+00
1357 1356 -1.000000000000000e+00
1357 1357 1.000000000000000e+01
1358 897 -1.000000000000000e+00
1358 1355 -1.000000000000000e+00
1358 1357 -1.000000000000000e+00
1358 1358 7.000000000000000e+00
1359 897 -1.000000000000000e+00
1359 905 -1.000000000000000e+00
1359 1042 -1.000000000000000e+00
1359 1356 -1.000000000000000e+00
1359 1357 -1.000000000000000e+00
1359 1358 -1.000000000000000e+00
1359 1359 1.000000000000000e+01
1360 897 -1.000000000000000e+00
1360 1200 -1.000000000000000e+00
1360 1357 -1.000000000000000e+00
1360 1358 -1.000000000000000e+00
1360 1359 -1.000000000000000e+00
1360 1360 9.000000000000000e+00
1361 793 -1.000000000000000e+00
1361 897 -1.000000000000000e+00
1361 1358 -1.000000000000000e+00
1361 1359 -1.000000000000000e+00
1361 1360 -1.000000000000000e+00
1361 1361 8.000000000000000e+00
1362 451 -1.000000000000000e+00
1362 1359 -1.000000000000000e+00
1362 1360 -1.000000000000000e+00
1362 1361 -1.000000000000000e+00
1362 1362 8.000000000000000e+00
1363 451 -1.000000000000000e+00
1363 1360 -1.000000000000000e+00
1363 1362 -1.000000000000000e+00
1363 1363 7.000000000000000e+00
1364 451 -1.000000000000000e+00
1364 1135 -1.000000000000000e+00
1364 1361 -1.000000000000000e+00
1364 1362 -1.000000000000000e+00
1364 1363 -1.000000000000000e+00
1364 1364 9.000000000000000e+00
1365 451 -1.000000000000000e+00
1365 994 -1.000000000000000e+00
1365 1362 -1.000000000000000e+00
1365 1363 -1.000000000000000e+00
1365 1364 -1.000000000000000e+00
1365 1365 9.000000000000000e+00
1366 451 -1.000000000000000e+00
1366 1363 -1.000000000000000e+00
1366 1364 -1.000000000000000e+00
1366 1365 -1.000000000000000e+00
1366 1366 8.000000000000000e+00
1367 451 -1.000000000000000e+00
1367 1364 -1.000000000000000e+00
1367 1365 -1.000000000000000e+00
1367 1366 -1.000000000000000e+00
1367 1367 1.000000000000000e+01
1368 451 -1.000000000000000e+00
1368 452 -1.000000000000000e+00
1368 453 -1.000000000000000e+00
1368 454 -1.000000000000000e+00
1368 455 -1.000000000000000e+00
1368 456 -1.000000000000000e+00
1368 457 -1.000000000000000e+00
1368 458 -1.000000000000000e+00
1368 459 -1.000000000000000e+00
1368 460 -1.000000000000000e+00
1368 461 -1.000000000000000e+00
1368 462 -1.000000000000000e+00
1368 463 -1.000000000000000e+00
1368 464 -1.000000000000000e+00
1368 465 -1.000000000000000e+00
1368 466 -1.000000000000000e+00
1368 467 -1.000000000000000e+00
1368 468 -1.000000000000000e+00
1368 469 -1.000000000000000e+00
1368 470 -1.000000000000000e+00
1368 471 -1.000000000000000e+00
1368 472 -1.000000000000000e+00
1368 473 -1.000000000000000e+00
1368 474 -1.000000000000000e+00
1368 475 -1.000000000000000e+00
1368 476 -1.000000000000000e+00
1368 1362 -1.000000000000000e+00
1368 1363 -1.000000000000000e+00
1368 1364 -1.000000000000000e+00
1368 1365 -2.000000000000000e+00
1368 1366 -2.000000000000000e+00
1368 1367 -2.000000000000000e+00
1368 1368 3.800000000000000e+01
1369 451 -1.000000000000000e+00
1369 468 -1.000000000000000e+00
1369 1366 -1.000000000000000e+00
1369 1367 -2.000000000000000e+00
1369 1368 -1.000000000000000e+00
1369 1369 9.000000000000000e+00
1370 451 -1.000000000000000e+00
1370 1170 -1.000000000000000e+00
1370 1367 -2.000000000000000e+00
1370 1368 -1.000000000000000e+00
1370 1369 -1.000000000000000e+00
1370 1370 8.000000000000000e+00
1371 239 -1.000000000000000e+00
1371 1368 -1.000000000000000e+00
1371 1370 -1.000000000000000e+00
1371 1371 2.700000000000000e+01
1372 1369 -1.000000000000000e+00
1372 1371 -2.000000000000000e+00
1372 1372 7.000000000000000e+00
1373 1370 -1.000000000000000e+00
1373 1371 -2.000000000000000e+00
1373 1372 -1.000000000000000e+00
1373 1373 8.000000000000000e+00
1374 1234 -1.000000000000000e+00
1374 1371 -2.000000000000000e+00
1374 1372 -1.000000000000000e+00
1374 1373 -1.000000000000000e+00
1374 1374 8.000000000000000e+00
1375 1371 -1.000000000000000e+00
1375 1372 -1.000000000000000e+00
1375 1373 -1.000000000000000e+00
1375 1375 8.000000000000000e+00
1376 1371 -1.000000000000000e+00
1376 1373 -1.000000000000000e+00
1376 1374 -1.000000000000000e+00
1376 1375 -1.000000000000000e+00
1376 1376 8.000000000000000e+00
1377 1371 -1.000000000000000e+00
1377 1374 -1.000000000000000e+00
1377 1375 -1.000000000000000e+00
1377 1376 -1.000000000000000e+00
1377 1377 8.000000000000000e+00
1378 1371 -1.000000000000000e+00
1378 1375 -1.000000000000000e+00
1378 1376 -1.000000000000000e+00
1378 1377 -1.000000000000000e+00
1378 1378 8.000000000000000e+00
1379 1371 -1.000000000000000e+00
1379 1376 -1.000000000000000e+00
1379 1377 -1.000000000000000e+00
1379 1378 -1.000000000000000e+00
1379 1379 8.000000000000000e+00
1380 1371 -1.000000000000000e+00
1380 1377 -1.000000000000000e+00
1380 1378 -1.000000000000000e+00
1380 1379 -1.000000000000000e+00
1380 1380 8.000000000000000e+00
1381 1371 -1.000000000000000e+00
1381 1378 -1.000000000000000e+00
1381 1379 -1.000000000000000e+00
1381 1380 -1.000000000000000e+00
1381 1381 8.000000000000000e+00
1382 1371 -1.000000000000000e+00
1382 1379 -1.000000000000000e+00
1382 1380 -1.000000000000000e+00
1382 1381 -1.000000000000000e+00
1382 1382 8.000000000000000e+00
1383 1371 -1.000000000000000e+00
1383 1380 -1.000000000000000e+00
1383 1381 -1.000000000000000e+00
1383 1382 -1.000000000000000e+00
1383 1383 8.000000000000000e+00
1384 1371 -1.000000000000000e+00
1384 1381 -1.000000000000000e+00
1384 1382 -1.000000000000000e+00
1384 1383 -1.000000000000000e+00
1384 1384 8.000000000000000e+00
1385 1371 -1.000000000000000e+00
1385 1382 -1.000000000000000e+00
1385 1383 -1.000000000000000e+00
1385 1384 -1.000000000000000e+00
1385 1385 8.000000000000000e+00
1386 1371 -1.000000000000000e+00
1386 1383 -1.000000000000000e+00
1386 1384 -1.000000000000000e+00
1386 1385 -1.000000000000000e+00
1386 1386 8.000000000000000e+00
1387 1371 -1.000000000000000e+00
1387 1384 -1.000000000000000e+00
1387 1385 -1.000000000000000e+00
1387 1386 -1.000000000000000e+00
1387 1387 8.000000000000000e+00
1388 1371 -1.000000000000000e+00
1388 1385 -1.000000000000000e+00
1388 1386 -1.000000000000000e+00
1388 1387 -1.000000000000000e+00
1388 1388 8.000000000000000e+00
1389 1371 -1.000000000000000e+00
1389 1386 -1.000000000000000e+00
1389 1387 -1.000000000000000e+00
1389 1388 -1.000000000000000e+00
1389 1389 1.000000000000000e+01
1390 112 -1.000000000000000e+00
1390 1371 -1.000000000000000e+00
1390 1372 -1.000000000000000e+00
1390 1373 -1.000000000000000e+00
1390 1374 -1.000000000000000e+00
1390 1375 -1.000000000000000e+00
1390 1376 -1.000000000000000e+00
1390 1377 -1.000000000000000e+00
1390 1378 -1.000000000000000e+00
1390 1379 -1.000000000000000e+00
1390 1380 -1.000000000000000e+00
1390 1381 -1.000000000000000e+00
1390 1382 -1.000000000000000e+00
1390 1383 -1.000000000000000e+00
1390 1384 -1.000000000000000e+00
1390 1385 -1.000000000000000e+00
1390 1386 -1.000000000000000e+00
1390 1387 -2.000000000000000e+00
1390 1388 -2.000000000000000e+00
1390 1389 -2.000000000000000e+00
1390 1390 2.500000000000000e+01
1391 795 -1.000000000000000e+00
1391 1371 -1.000000000000000e+00
1391 1388 -1.000000000000000e+00
1391 1389 -2.000000000000000e+00
1391 1390 -1.000000000000000e+00
1391 1391 8.000000000000000e+00
1392 1371 -1.000000000000000e+00
1392 1375 -1.000000000000000e+00
1392 1389 -2.000000000000000e+00
1392 1390 -1.000000000000000e+00
1392 1391 -1.000000000000000e+00
1392 1392 8.000000000000000e+00
1393 897 -1.000000000000000e+00
1393 1393 5.000000000000000e+00
1394 897 -1.000000000000000e+00
1394 1391 -1.000000000000000e+00
1394 1392 -1.000000000000000e+00
1394 1393 -1.000000000000000e+00
1394 1394 8.000000000000000e+00
1395 897 -1.000000000000000e+00
1395 1392 -1.000000000000000e+00
1395 1393 -1.000000000000000e+00
1395 1394 -1.000000000000000e+00
1395 1395 8.000000000000000e+00
1396 897 -1.000000000000000e+00
1396 1393 -1.000000000000000e+00
1396 1394 -1.000000000000000e+00
1396 1395 -1.000000000000000e+00
1396 1396 8.000000000000000e+00
1397 897 -1.000000000000000e+00
1397 1394 -1.000000000000000e+00
1397 1395 -1.000000000000000e+00
1397 1396 -1.000000000000000e+00
1397 1397 9.000000000000000e+00
1398 897 -1.000000000000000e+00
1398 1395 -1.000000000000000e+00
1398 1396 -1.000000000000000e+00
1398 1397 -1.000000000000000e+00
1398 1398 9.000000000000000e+00
1399 897 -1.000000000000000e+00
1399 1396 -1.000000000000000e+00
1399 1398 -1.000000000000000e+00
1399 1399 7.000000000000000e+00
1400 897 -1.000000000000000e+00
1400 1397 -1.000000000000000e+00
1400 1398 -1.000000000000000e+00
1400 1399 -1.000000000000000e+00
1400 1400 8.000000000000000e+00
1401 138 -1.000000000000000e+00
1401 897 -1.000000000000000e+00
1401 1398 -1.000000000000000e+00
1401 1399 -1.000000000000000e+00
1401 1400 -1.000000000000000e+00
1401 1401 8.000000000000000e+00
1402 897 -1.000000000000000e+00
1402 1399 -1.000000000000000e+00
1402 1400 -1.000000000000000e+00
1402 1402 2.600000000000000e+01
1403 897 -1.000000000000000e+00
1403 898 -1.000000000000000e+00
1403 899 -1.000000000000000e+00
1403 900 -1.000000000000000e+00
1403 901 -1.000000000000000e+00
1403 902 -1.000000000000000e+00
1403 903 -1.000000000000000e+00
1403 904 -1.000000000000000e+00
1403 905 -1.000000000000000e+00
1403 1358 -1.000000000000000e+00
1403 1359 -1.000000000000000e+00
1403 1360 -1.000000000000000e+00
1403 1361 -1.000000000000000e+00
1403 1393 -1.000000000000000e+00
1403 1394 -1.000000000000000e+00
1403 1395 -1.000000000000000e+00
1403 1396 -1.000000000000000e+00
1403 1397 -1.000000000000000e+00
1403 1398 -1.000000000000000e+00
1403 1399 -1.000000000000000e+00
1403 1400 -2.000000000000000e+00
1403 1401 -2.000000000000000e+00
1403 1402 -2.000000000000000e+00
1403 1403 2.900000000000000e+01
1404 1401 -1.000000000000000e+00
1404 1402 -1.000000000000000e+00
1404 1403 -1.000000000000000e+00
1404 1404 2.600000000000000e+01
1405 1402 -1.000000000000000e+00
1405 1403 -1.000000000000000e+00
1405 1404 -2.000000000000000e+00
1405 1405 8.000000000000000e+00
1406 315 -1.000000000000000e+00
1406 499 -1.000000000000000e+00
1406 1117 -1.000000000000000e+00
1406 1403 -1.000000000000000e+00
1406 1404 -2.000000000000000e+00
1406 1405 -1.000000000000000e+00
1406 1406 1.000000000000000e+01
1407 1404 -2.000000000000000e+00
1407 1405 -1.000000000000000e+00
1407 1407 7.000000000000000e+00
1408 1404 -1.000000000000000e+00
1408 1405 -1.000000000000000e+00
1408 1406 -1.000000000000000e+00
1408 1407 -1.000000000000000e+00
1408 1408 8.000000000000000e+00
1409 1404 -1.000000000000000e+00
1409 1406 -1.000000000000000e+00
1409 1407 -1.000000000000000e+00
1409 1408 -1.000000000000000e+00
1409 1409 8.000000000000000e+00
1410 1404 -1.000000000000000e+00
1410 1407 -1.000000000000000e+00
1410 1408 -1.000000000000000e+00
1410 1409 -1.000000000000000e+00
1410 1410 8.000000000000000e+00
1411 1404 -1.000000000000000e+00
1411 1408 -1.000000000000000e+00
1411 1409 -1.000000000000000e+00
1411 1410 -1.000000000000000e+00
1411 1411 8.000000000000000e+00
1412 1404 -1.000000000000000e+00
1412 1409 -1.000000000000000e+00
1412 1410 -1.000000000000000e+00
1412 1411 -1.000000000000000e+00
1412 1412 8.000000000000000e+00
1413 141 -1.000000000000000e+00
1413 1297 -1.000000000000000e+00
1413 1404 -1.000000000000000e+00
1413 1410 -1.000000000000000e+00
1413 1411 -1.000000000000000e+00
1413 1412 -1.000000000000000e+00
1413 1413 1.000000000000000e+01
1414 412 -1.000000000000000e+00
1414 1404 -1.000000000000000e+00
1414 1411 -1.000000000000000e+00
1414 1412 -1.000000000000000e+00
1414 1413 -1.000000000000000e+00
1414 1414 8.000000000000000e+00
1415 1404 -1.000000000000000e+00
1415 1412 -1.000000000000000e+00
1415 1413 -1.000000000000000e+00
1415 1414 -1.000000000000000e+00
1415 1415 8.000000000000000e+00
1416 565 -1.000000000000000e+00
1416 1404 -1.000000000000000e+00
1416 1413 -1.000000000000000e+00
1416 1414 -1.000000000000000e+00
1416 1415 -1.000000000000000e+00
1416 1416 8.000000000000000e+00
1417 1341 -1.000000000000000e+00
1417 1404 -1.000000000000000e+00
1417 1415 -1.000000000000000e+00
1417 1416 -1.000000000000000e+00
1417 1417 7.000000000000000e+00
1418 1404 -1.000000000000000e+00
1418 1415 -1.000000000000000e+00
1418 1417 -1.000000000000000e+00
1418 1418 7.000000000000000e+00
1419 1353 -1.000000000000000e+00
1419 1404 -1.000000000000000e+00
1419 1416 -1.000000000000000e+00
1419 1417 -1.000000000000000e+00
1419 1418 -1.000000000000000e+00
1419 1419 8.000000000000000e+00
1420 1404 -1.000000000000000e+00
1420 1418 -1.000000000000000e+00
1420 1419 -1.000000000000000e+00
1420 1420 7.000000000000000e+00
1421 1404 -1.000000000000000e+00
1421 1418 -1.000000000000000e+00
1421 1419 -1.000000000000000e+00
1421 1420 -1.000000000000000e+00
1421 1421 1.000000000000000e+01
1422 1404 -1.000000000000000e+00
1422 1405 -1.000000000000000e+00
1422 1406 -1.000000000000000e+00
1422 1407 -1.000000000000000e+00
1422 1408 -1.000000000000000e+00
1422 1409 -1.000000000000000e+00
1422 1410 -1.000000000000000e+00
1422 1411 -1.000000000000000e+00
1422 1412 -1.000000000000000e+00
1422 1413 -1.000000000000000e+00
1422 1414 -1.000000000000000e+00
1422 1415 -1.000000000000000e+00
1422 1416 -1.000000000000000e+00
1422 1417 -1.000000000000000e+00
1422 1418 -1.000000000000000e+00
1422 1419 -1.000000000000000e+00
1422 1420 -2.000000000000000e+00
1422 1421 -2.000000000000000e+00
1422 1422 2.300000000000000e+01
1423 1404 -1.000000000000000e+00
1423 1420 -1.000000000000000e+00
1423 1421 -2.000000000000000e+00
1423 1422 -1.000000000000000e+00
1423 1423 8.000000000000000e+00
1424 974 -1.000000000000000e+00
1424 1330 -1.000000000000000e+00
1424 1404 -1.000000000000000e+00
1424 1421 -2.000000000000000e+00
1424 1422 -1.000000000000000e+00
1424 1423 -1.000000000000000e+00
1424 1424 8.000000000000000e+00
1425 897 -1.000000000000000e+00
1425 900 -1.000000000000000e+00
1425 1402 -1.000000000000000e+00
1425 1422 -1.000000000000000e+00
1425 1423 -1.000000000000000e+00
1425 1424 -1.000000000000000e+00
1425 1425 9.000000000000000e+00
1426 897 -1.000000000000000e+00
1426 1402 -1.000000000000000e+00
1426 1423 -1.000000000000000e+00
1426 1425 -1.000000000000000e+00
1426 1426 7.000000000000000e+00
1427 621 -1.000000000000000e+00
1427 897 -1.000000000000000e+00
1427 1354 -1.000000000000000e+00
1427 1402 -1.000000000000000e+00
1427 1425 -1.000000000000000e+00
1427 1426 -1.000000000000000e+00
1427 1427 8.000000000000000e+00
1428 897 -1.000000000000000e+00
1428 1402 -1.000000000000000e+00
1428 1425 -1.000000000000000e+00
1428 1426 -1.000000000000000e+00
1428 1427 -1.000000000000000e+00
1428 1428 8.000000000000000e+00
1429 897 -1.000000000000000e+00
1429 1402 -1.000000000000000e+00
1429 1426 -1.000000000000000e+00
1429 1428 -1.000000000000000e+00
1429 1429 7.000000000000000e+00
1430 486 -1.000000000000000e+00
1430 897 -1.000000000000000e+00
1430 1402 -1.000000000000000e+00
1430 1427 -1.000000000000000e+00
1430 1428 -1.000000000000000e+00
1430 1429 -1.000000000000000e+00
1430 1430 9.000000000000000e+00
1431 897 -1.000000000000000e+00
1431 986 -1.000000000000000e+00
1431 1402 -1.000000000000000e+00
1431 1428 -1.000000000000000e+00
1431 1429 -1.000000000000000e+00
1431 1430 -1.000000000000000e+00
1431 1431 9.000000000000000e+00
1432 408 -1.000000000000000e+00
1432 897 -1.000000000000000e+00
1432 1402 -1.000000000000000e+00
1432 1429 -1.000000000000000e+00
1432 1430 -1.000000000000000e+00
1432 1431 -1.000000000000000e+00
1432 1432 8.000000000000000e+00
1433 897 -1.000000000000000e+00
1433 1397 -1.000000000000000e+00
1433 1402 -1.000000000000000e+00
1433 1430 -1.000000000000000e+00
1433 1431 -1.000000000000000e+00
1433 1432 -1.000000000000000e+00
1433 1433 8.000000000000000e+00
1434 897 -1.000000000000000e+00
1434 1402 -1.000000000000000e+00
1434 1431 -1.000000000000000e+00
1434 1432 -1.000000000000000e+00
1434 1434 7.000000000000000e+00
1435 120 -1.000000000000000e+00
1435 897 -1.000000000000000e+00
1435 1397 -1.000000000000000e+00
1435 1402 -1.000000000000000e+00
1435 1433 -1.000000000000000e+00
1435 1434 -1.000000000000000e+00
1435 1435 9.000000000000000e+00
1436 507 -1.000000000000000e+00
1436 897 -1.000000000000000e+00
1436 1402 -1.000000000000000e+00
1436 1433 -1.000000000000000e+00
1436 1434 -1.000000000000000e+00
1436 1435 -1.000000000000000e+00
1436 1436 8.000000000000000e+00
1437 897 -1.000000000000000e+00
1437 1402 -1.000000000000000e+00
1437 1434 -1.000000000000000e+00
1437 1435 -1.000000000000000e+00
1437 1436 -1.000000000000000e+00
1437 1437 8.000000000000000e+00
1438 897 -1.000000000000000e+00
1438 1402 -1.000000000000000e+00
1438 1435 -1.000000000000000e+00
1438 1436 -1.000000000000000e+00
1438 1437 -1.000000000000000e+00
1438 1438 8.000000000000000e+00
1439 897 -1.000000000000000e+00
1439 1402 -1.000000000000000e+00
1439 1437 -1.000000000000000e+00
1439 1438 -1.000000000000000e+00
1439 1439 7.000000000000000e+00
1440 897 -1.000000000000000e+00
1440 905 -1.000000000000000e+00
1440 1402 -1.000000000000000e+00
1440 1437 -1.000000000000000e+00
1440 1438 -1.000000000000000e+00
1440 1439 -1.000000000000000e+00
1440 1440 8.000000000000000e+00
1441 897 -1.000000000000000e+00
1441 1402 -2.000000000000000e+00
1441 1438 -1.000000000000000e+00
1441 1439 -1.000000000000000e+00
1441 1440 -1.000000000000000e+00
1441 1441 8.000000000000000e+00
1442 897 -1.000000000000000e+00
1442 1402 -1.000000000000000e+00
1442 1439 -1.000000000000000e+00
1442 1441 -1.000000000000000e+00
1442 1442 7.000000000000000e+00
1443 254 -1.000000000000000e+00
1443 1240 -1.000000000000000e+00
1443 1440 -1.000000000000000e+00
1443 1441 -1.000000000000000e+00
1443 1442 -1.000000000000000e+00
1443 1443 9.000000000000000e+00
1444 254 -1.000000000000000e+00
1444 1442 -1.000000000000000e+00
1444 1443 -1.000000000000000e+00
1444 1444 7.000000000000000e+00
1445 254 -1.000000000000000e+00
1445 1442 -1.000000000000000e+00
1445 1443 -1.000000000000000e+00
1445 1444 -1.000000000000000e+00
1445 1445 8.000000000000000e+00
1446 254 -1.000000000000000e+00
1446 1443 -1.000000000000000e+00
1446 1444 -1.000000000000000e+00
1446 1445 -1.000000000000000e+00
1446 1446 8.000000000000000e+00
1447 254 -1.000000000000000e+00
1447 1444 -1.000000000000000e+00
1447 1445 -1.000000000000000e+00
1447 1446 -1.000000000000000e+00
1447 1447 8.000000000000000e+00
1448 254 -1.000000000000000e+00
1448 1445 -1.000000000000000e+00
1448 1446 -1.000000000000000e+00
1448 1447 -1.000000000000000e+00
1448 1448 8.000000000000000e+00
1449 254 -1.000000000000000e+00
1449 1446 -1.000000000000000e+00
1449 1447 -1.000000000000000e+00
1449 1448 -1.000000000000000e+00
1449 1449 8.000000000000000e+00
1450 254 -1.000000000000000e+00
1450 1447 -1.000000000000000e+00
1450 1448 -1.000000000000000e+00
1450 1449 -1.000000000000000e+00
1450 1450 8.000000000000000e+00
1451 31 -1.000000000000000e+00
1451 254 -1.000000000000000e+00
1451 1448 -1.000000000000000e+00
1451 1449 -1.000000000000000e+00
1451 1450 -1.000000000000000e+00
1451 1451 9.000000000000000e+00
1452 254 -1.000000000000000e+00
1452 1137 -1.000000000000000e+00
1452 1280 -1.000000000000000e+00
1452 1449 -1.000000000000000e+00
1452 1450 -1.000000000000000e+00
1452 1451 -1.000000000000000e+00
1452 1452 9.000000000000000e+00
1453 254 -1.000000000000000e+00
1453 1450 -1.000000000000000e+00
1453 1451 -1.000000000000000e+00
1453 1452 -1.000000000000000e+00
1453 1453 8.000000000000000e+00
1454 254 -1.000000000000000e+00
1454 395 -1.000000000000000e+00
1454 1451 -1.000000000000000e+00
1454 1452 -1.000000000000000e+00
1454 1453 -1.000000000000000e+00
1454 1454 8.000000000000000e+00
1455 254 -1.000000000000000e+00
1455 1453 -1.000000000000000e+00
1455 1454 -1.000000000000000e+00
1455 1455 7.000000000000000e+00
1456 254 -1.000000000000000e+00
1456 1453 -1.000000000000000e+00
1456 1455 -1.000000000000000e+00
1456 1456 7.000000000000000e+00
1457 68 -1.000000000000000e+00
1457 254 -1.000000000000000e+00
1457 816 -1.000000000000000e+00
1457 1454 -1.000000000000000e+00
1457 1455 -1.000000000000000e+00
1457 1456 -1.000000000000000e+00
1457 1457 8.000000000000000e+00
1458 254 -1.000000000000000e+00
1458 1455 -1.000000000000000e+00
1458 1456 -1.000000000000000e+00
1458 1458 7.000000000000000e+00
1459 254 -1.000000000000000e+00
1459 1013 -1.000000000000000e+00
1459 1456 -1.000000000000000e+00
1459 1458 -1.000000000000000e+00
1459 1459 8.000000000000000e+00
1460 254 -1.000000000000000e+00
1460 1457 -1.000000000000000e+00
1460 1458 -1.000000000000000e+00
1460 1459 -1.000000000000000e+00
1460 1460 3.800000000000000e+01
1461 254 -1.000000000000000e+00
1461 255 -1.000000000000000e+00
1461 256 -1.000000000000000e+00
1461 257 -1.000000000000000e+00
1461 258 -1.000000000000000e+00
1461 259 -1.000000000000000e+00
1461 260 -1.000000000000000e+00
1461 261 -1.000000000000000e+00
1461 262 -1.000000000000000e+00
1461 263 -1.000000000000000e+00
1461 264 -1.000000000000000e+00
1461 265 -1.000000000000000e+00
1461 266 -1.000000000000000e+00
1461 267 -1.000000000000000e+00
1461 268 -1.000000000000000e+00
1461 269 -1.000000000000000e+00
1461 270 -1.000000000000000e+00
1461 1443 -1.000000000000000e+00
1461 1444 -1.000000000000000e+00
1461 1445 -1.000000000000000e+00
1461 1446 -1.000000000000000e+00
1461 1447 -1.000000000000000e+00
1461 1448 -1.000000000000000e+00
1461 1449 -1.000000000000000e+00
1461 1450 -1.000000000000000e+00
1461 1451 -1.000000000000000e+00
1461 1452 -1.000000000000000e+00
1461 1453 -1.000000000000000e+00
1461 1454 -1.000000000000000e+00
1461 1455 -1.000000000000000e+00
1461 1456 -1.000000000000000e+00
1461 1457 -1.000000000000000e+00
1461 1458 -2.000000000000000e+00
1461 1459 -2.000000000000000e+00
1461 1460 -2.000000000000000e+00
1461 1461 4.100000000000000e+01
1462 254 -1.000000000000000e+00
1462 1459 -1.000000000000000e+00
1462 1460 -2.000000000000000e+00
1462 1461 -1.000000000000000e+00
1462 1462 8.000000000000000e+00
1463 168 -1.000000000000000e+00
1463 254 -1.000000000000000e+00
1463 650 -1.000000000000000e+00
1463 1369 -1.000000000000000e+00
1463 1460 -2.000000000000000e+00
1463 1461 -1.000000000000000e+00
1463 1462 -1.000000000000000e+00
1463 1463 1.000000000000000e+01
1464 254 -1.000000000000000e+00
1464 1128 -1.000000000000000e+00
1464 1460 -1.000000000000000e+00
1464 1461 -1.000000000000000e+00
1464 1462 -1.000000000000000e+00
1464 1464 8.000000000000000e+00
1465 254 -1.000000000000000e+00
1465 1460 -1.000000000000000e+00
1465 1462 -1.000000000000000e+00
1465 1463 -1.000000000000000e+00
1465 1464 -1.000000000000000e+00
1465 1465 8.000000000000000e+00
1466 254 -1.000000000000000e+00
1466 763 -1.000000000000000e+00
1466 1460 -1.000000000000000e+00
1466 1463 -1.000000000000000e+00
1466 1464 -1.000000000000000e+00
1466 1465 -1.000000000000000e+00
1466 1466 8.000000000000000e+00
1467 254 -1.000000000000000e+00
1467 1460 -1.000000000000000e+00
1467 1464 -1.000000000000000e+00
1467 1465 -1.000000000000000e+00
1467 1466 -1.000000000000000e+00
1467 1467 8.000000000000000e+00
1468 254 -1.000000000000000e+00
1468 1460 -1.000000000000000e+00
1468 1465 -1.000000000000000e+00
1468 1467 -1.000000000000000e+00
1468 1468 7.000000000000000e+00
1469 254 -1.000000000000000e+00
1469 1460 -1.000000000000000e+00
1469 1466 -1.000000000000000e+00
1469 1467 -1.000000000000000e+00
1469 1468 -1.000000000000000e+00
1469 1469 8.000000000000000e+00
1470 254 -1.000000000000000e+00
1470 1460 -1.000000000000000e+00
1470 1467 -1.000000000000000e+00
1470 1468 -1.000000000000000e+00
1470 1469 -1.000000000000000e+00
1470 1470 8.000000000000000e+00
1471 254 -1.000000000000000e+00
1471 1460 -1.000000000000000e+00
1471 1468 -1.000000000000000e+00
1471 1469 -1.000000000000000e+00
1471 1470 -1.000000000000000e+00
1471 1471 8.000000000000000e+00
1472 254 -1.000000000000000e+00
1472 1460 -1.000000000000000e+00
1472 1469 -1.000000000000000e+00
1472 1470 -1.000000000000000e+00
1472 1471 -1.000000000000000e+00
1472 1472 8.000000000000000e+00
1473 254 -1.000000000000000e+00
1473 792 -1.000000000000000e+00
1473 1460 -1.000000000000000e+00
1473 1470 -1.000000000000000e+00
1473 1471 -1.000000000000000e+00
1473 1472 -1.000000000000000e+00
1473 1473 9.000000000000000e+00
1474 254 -1.000000000000000e+00
1474 1460 -1.000000000000000e+00
1474 1471 -1.000000000000000e+00
1474 1472 -1.000000000000000e+00
1474 1473 -1.000000000000000e+00
1474 1474 8.000000000000000e+00
1475 254 -1.000000000000000e+00
1475 255 -1.000000000000000e+00
1475 561 -1.000000000000000e+00
1475 1460 -1.000000000000000e+00
1475 1472 -1.000000000000000e+00
1475 1473 -1.000000000000000e+00
1475 1474 -1.000000000000000e+00
1475 1475 9.000000000000000e+00
1476 57 -1.000000000000000e+00
1476 254 -1.000000000000000e+00
1476 514 -1.000000000000000e+00
1476 1460 -1.000000000000000e+00
1476 1473 -1.000000000000000e+00
1476 1474 -1.000000000000000e+00
1476 1476 8.000000000000000e+00
1477 254 -1.000000000000000e+00
1477 1460 -1.000000000000000e+00
1477 1474 -1.000000000000000e+00
1477 1475 -1.000000000000000e+00
1477 1476 -1.000000000000000e+00
1477 1477 8.000000000000000e+00
1478 254 -1.000000000000000e+00
1478 1460 -1.000000000000000e+00
1478 1475 -1.000000000000000e+00
1478 1477 -1.000000000000000e+00
1478 1478 7.000000000000000e+00
1479 104 -1.000000000000000e+00
1479 254 -1.000000000000000e+00
1479 1460 -1.000000000000000e+00
1479 1476 -1.000000000000000e+00
1479 1477 -1.000000000000000e+00
1479 1478 -1.000000000000000e+00
1479 1479 9.000000000000000e+00
1480 254 -1.000000000000000e+00
1480 433 -1.000000000000000e+00
1480 483 -1.000000000000000e+00
1480 1460 -1.000000000000000e+00
1480 1477 -1.000000000000000e+00
1480 1478 -1.000000000000000e+00
1480 1479 -1.000000000000000e+00
1480 1480 1.000000000000000e+01
1481 254 -1.000000000000000e+00
1481 1460 -1.000000000000000e+00
1481 1478 -1.000000000000000e+00
1481 1479 -1.000000000000000e+00
1481 1480 -1.000000000000000e+00
1481 1481 8.000000000000000e+00
1482 179 -1.000000000000000e+00
1482 254 -1.000000000000000e+00
1482 1460 -1.000000000000000e+00
1482 1479 -1.000000000000000e+00
1482 1480 -1.000000000000000e+00
1482 1481 -1.000000000000000e+00
1482 1482 9.000000000000000e+00
1483 254 -1.000000000000000e+00
1483 1460 -1.000000000000000e+00
1483 1480 -1.000000000000000e+00
1483 1481 -1.000000000000000e+00
1483 1482 -1.000000000000000e+00
1483 1483 8.000000000000000e+00
1484 254 -1.000000000000000e+00
1484 402 -1.000000000000000e+00
1484 403 -1.000000000000000e+00
1484 1092 -1.000000000000000e+00
1484 1460 -1.000000000000000e+00
1484 1481 -1.000000000000000e+00
1484 1482 -1.000000000000000e+00
1484 1483 -1.000000000000000e+00
1484 1484 9.000000000000000e+00
1485 254 -1.000000000000000e+00
1485 1460 -1.000000000000000e+00
1485 1482 -1.000000000000000e+00
1485 1483 -1.000000000000000e+00
1485 1485 7.000000000000000e+00
1486 254 -1.000000000000000e+00
1486 1249 -1.000000000000000e+00
1486 1398 -1.000000000000000e+00
1486 1460 -1.000000000000000e+00
1486 1483 -1.000000000000000e+00
1486 1484 -1.000000000000000e+00
1486 1485 -1.000000000000000e+00
1486 1486 9.000000000000000e+00
1487 254 -1.000000000000000e+00
1487 271 -1.000000000000000e+00
1487 1460 -1.000000000000000e+00
1487 1485 -1.000000000000000e+00
1487 1486 -1.000000000000000e+00
1487 1487 7.000000000000000e+00
1488 254 -1.000000000000000e+00
1488 1460 -1.000000000000000e+00
1488 1485 -1.000000000000000e+00
1488 1487 -1.000000000000000e+00
1488 1488 7.000000000000000e+00
1489 254 -1.000000000000000e+00
1489 1460 -1.000000000000000e+00
1489 1486 -1.000000000000000e+00
1489 1488 -1.000000000000000e+00
1489 1489 7.000000000000000e+00
1490 254 -1.000000000000000e+00
1490 517 -1.000000000000000e+00
1490 1460 -1.000000000000000e+00
1490 1487 -1.000000000000000e+00
1490 1488 -1.000000000000000e+00
1490 1489 -1.000000000000000e+00
1490 1490 8.000000000000000e+00
1491 254 -1.000000000000000e+00
1491 1460 -1.000000000000000e+00
1491 1488 -1.000000000000000e+00
1491 1489 -1.000000000000000e+00
1491 1490 -1.000000000000000e+00
1491 1491 8.000000000000000e+00
1492 1 -1.000000000000000e+00
1492 1340 -1.000000000000000e+00
1492 1489 -1.000000000000000e+00
1492 1491 -1.000000000000000e+00
1492 1492 7.000000000000000e+00
1493 1 -1.000000000000000e+00
1493 1340 -1.000000000000000e+00
1493 1490 -1.000000000000000e+00
1493 1491 -1.000000000000000e+00
1493 1492 -1.000000000000000e+00
1493 1493 8.000000000000000e+00
1494 1 -1.000000000000000e+00
1494 1340 -1.000000000000000e+00
1494 1491 -1.000000000000000e+00
1494 1492 -1.000000000000000e+00
1494 1493 -1.000000000000000e+00
1494 1494 8.000000000000000e+00
1495 1 -1.000000000000000e+00
1495 1340 -1.000000000000000e+00
1495 1492 -1.000000000000000e+00
1495 1493 -1.000000000000000e+00
1495 1494 -1.000000000000000e+00
1495 1495 8.000000000000000e+00
1496 1 -1.000000000000000e+00
1496 688 -1.000000000000000e+00
1496 1340 -1.000000000000000e+00
1496 1493 -1.000000000000000e+00
1496 1494 -1.000000000000000e+00
1496 1495 -1.000000000000000e+00
1496 1496 9.000000000000000e+00
1497 1 -1.000000000000000e+00
1497 1340 -1.000000000000000e+00
1497 1494 -1.000000000000000e+00
1497 1495 -1.000000000000000e+00
1497 1496 -1.000000000000000e+00
1497 1497 8.000000000000000e+00
1498 1 -2.000000000000000e+00
1498 1340 -1.000000000000000e+00
1498 1495 -1.000000000000000e+00
1498 1496 -1.000000000000000e+00
1498 1497 -1.000000000000000e+00
1498 1498 8.000000000000000e+00
1499 1 -2.000000000000000e+00
1499 2 -1.000000000000000e+00
1499 128 -1.000000000000000e+00
1499 1340 -1.000000000000000e+00
1499 1496 -1.000000000000000e+00
1499 1497 -1.000000000000000e+00
1499 1498 -1.000000000000000e+00
1499 1499 9.000000000000000e+00
1500 1 -1.000000000000000e+00
1500 2 -1.000000000000000e+00
1500 3 -1.000000000000000e+00
1500 94 -1.000000000000000e+00
1500 1340 -1.000000000000000e+00
1500 1497 -1.000000000000000e+00
1500 1498 -1.000000000000000e+00
1500 1499 -1.000000000000000e+00
1500 1500 8.000000000000000e+00
