%%MatrixMarket matrix coordinate integer symmetric
%
1500 1500 6000
1 1 5
2 1 -1
2 2 6
3 1 -1
3 3 5
4 1 -1
4 2 -1
4 3 -1
4 4 6
5 2 -1
5 3 -1
5 4 -1
5 5 6
6 3 -1
6 4 -1
6 5 -1
6 6 7
7 5 -1
7 6 -1
7 7 5
8 5 -1
8 6 -1
8 7 -1
8 8 7
9 6 -1
9 8 -1
9 9 6
10 7 -1
10 8 -1
10 10 5
11 8 -1
11 9 -1
11 10 -1
11 11 6
12 9 -1
12 10 -1
12 11 -1
12 12 6
13 10 -1
13 11 -1
13 13 5
14 11 -1
14 12 -1
14 13 -1
14 14 7
15 12 -1
15 13 -1
15 14 -1
15 15 6
16 13 -1
16 14 -1
16 15 -1
16 16 6
17 14 -1
17 15 -1
17 16 -1
17 17 6
18 15 -1
18 16 -1
18 17 -1
18 18 6
19 16 -1
19 17 -1
19 18 -1
19 19 6
20 17 -1
20 18 -1
20 19 -1
20 20 6
21 18 -1
21 19 -1
21 20 -1
21 21 6
22 19 -1
22 20 -1
22 21 -1
22 22 6
23 20 -1
23 21 -1
23 22 -1
23 23 6
24 21 -1
24 22 -1
24 23 -1
24 24 6
25 23 -1
25 24 -1
25 25 6
26 23 -1
26 24 -1
26 25 -1
26 26 7
27 24 -1
27 25 -1
27 26 -1
27 27 6
28 25 -1
28 26 -1
28 27 -1
28 28 6
29 27 -1
29 28 -1
29 29 5
30 27 -1
30 28 -1
30 29 -1
30 30 6
31 28 -1
31 29 -1
31 31 5
32 29 -1
32 30 -1
32 31 -1
32 32 6
33 30 -1
33 31 -1
33 32 -1
33 33 6
34 32 -1
34 33 -1
34 34 5
35 32 -1
35 34 -1
35 35 5
36 33 -1
36 34 -1
36 35 -1
36 36 6
37 34 -1
37 35 -1
37 36 -1
37 37 6
38 35 -1
38 36 -1
38 37 -1
38 38 6
39 36 -1
39 37 -1
39 38 -1
39 39 6
40 37 -1
40 38 -1
40 39 -1
40 40 6
41 38 -1
41 39 -1
41 41 5
42 39 -1
42 40 -1
42 41 -1
42 42 6
43 40 -1
43 41 -1
43 42 -1
43 43 6
44 41 -1
44 42 -1
44 43 -1
44 44 6
45 42 -1
45 43 -1
45 44 -1
45 45 6
46 43 -1
46 44 -1
46 45 -1
46 46 6
47 44 -1
47 45 -1
47 46 -1
47 47 6
48 45 -1
48 46 -1
48 47 -1
48 48 6
49 46 -1
49 48 -1
49 49 5
50 47 -1
50 48 -1
50 49 -1
50 50 6
51 48 -1
51 49 -1
51 50 -1
51 51 6
52 49 -1
52 50 -1
52 51 -1
52 52 6
53 50 -1
53 51 -1
53 52 -1
53 53 6
54 51 -1
54 54 4
55 52 -1
55 53 -1
55 54 -1
55 55 6
56 53 -1
56 54 -1
56 55 -1
56 56 6
57 54 -1
57 55 -1
57 56 -1
57 57 7
58 55 -1
58 56 -1
58 57 -1
58 58 6
59 56 -1
59 58 -1
59 59 5
60 57 -1
60 58 -1
60 59 -1
60 60 6
61 58 -1
61 59 -1
61 60 -1
61 61 6
62 59 -1
62 60 -1
62 61 -1
62 62 6
63 60 -1
63 61 -1
63 62 -1
63 63 6
64 61 -1
64 62 -1
64 63 -1
64 64 7
65 62 -1
65 63 -1
65 64 -1
65 65 6
66 64 -1
66 66 4
67 64 -1
67 65 -1
67 66 -1
67 67 6
68 65 -1
68 66 -1
68 68 6
69 68 -1
69 69 5
70 67 -1
70 68 -1
70 69 -1
70 70 7
71 68 -1
71 69 -1
71 70 -1
71 71 7
72 69 -1
72 70 -1
72 71 -1
72 72 6
73 70 -1
73 71 -1
73 72 -1
73 73 6
74 72 -1
74 73 -1
74 74 5
75 72 -1
75 73 -1
75 74 -1
75 75 6
76 73 -1
76 75 -1
76 76 5
77 74 -1
77 75 -1
77 76 -1
77 77 7
78 75 -1
78 76 -1
78 77 -1
78 78 7
79 76 -1
79 77 -1
79 78 -1
79 79 6
80 77 -1
80 78 -1
80 79 -1
80 80 6
81 78 -1
81 79 -1
81 80 -1
81 81 6
82 79 -1
82 80 -1
82 81 -1
82 82 6
83 80 -1
83 81 -1
83 82 -1
83 83 6
84 81 -1
84 83 -1
84 84 5
85 82 -1
85 83 -1
85 85 5
86 83 -1
86 84 -1
86 85 -1
86 86 6
87 84 -1
87 85 -1
87 86 -1
87 87 8
88 86 -1
88 87 -1
88 88 5
89 86 -1
89 87 -1
89 88 -1
89 89 6
90 87 -1
90 88 -1
90 89 -1
90 90 6
91 88 -1
91 89 -1
91 90 -1
91 91 6
92 89 -1
92 90 -1
92 91 -1
92 92 6
93 90 -1
93 91 -1
93 92 -1
93 93 6
94 91 -1
94 92 -1
94 93 -1
94 94 7
95 92 -1
95 93 -1
95 94 -1
95 95 6
96 93 -1
96 94 -1
96 95 -1
96 96 6
97 84 -1
97 94 -1
97 95 -1
97 96 -1
97 97 7
98 95 -1
98 96 -1
98 97 -1
98 98 6
99 96 -1
99 97 -1
99 98 -1
99 99 7
100 98 -1
100 99 -1
100 100 5
101 98 -1
101 99 -1
101 100 -1
101 101 6
102 99 -1
102 101 -1
102 102 6
103 9 -1
103 101 -1
103 102 -1
103 103 5
104 101 -1
104 102 -1
104 103 -1
104 104 6
105 102 -1
105 103 -1
105 105 5
106 104 -1
106 105 -1
106 106 5
107 104 -1
107 105 -1
107 106 -1
107 107 6
108 105 -1
108 106 -1
108 107 -1
108 108 7
109 106 -1
109 108 -1
109 109 5
110 107 -1
110 108 -1
110 109 -1
110 110 7
111 108 -1
111 109 -1
111 110 -1
111 111 6
112 109 -1
112 110 -1
112 111 -1
112 112 9
113 110 -1
113 111 -1
113 112 -1
113 113 6
114 111 -1
114 112 -1
114 113 -1
114 114 6
115 112 -1
115 114 -1
115 115 6
116 113 -1
116 114 -1
116 115 -1
116 116 8
117 114 -1
117 115 -1
117 116 -1
117 117 6
118 115 -1
118 116 -1
118 117 -1
118 118 6
119 116 -1
119 117 -1
119 118 -1
119 119 6
120 117 -1
120 118 -1
120 120 5
121 118 -1
121 119 -1
121 120 -1
121 121 6
122 119 -1
122 121 -1
122 122 5
123 120 -1
123 121 -1
123 122 -1
123 123 6
124 121 -1
124 123 -1
124 124 6
125 122 -1
125 123 -1
125 124 -1
125 125 6
126 123 -1
126 124 -1
126 125 -1
126 126 6
127 124 -1
127 125 -1
127 126 -1
127 127 6
128 125 -1
128 126 -1
128 127 -1
128 128 6
129 126 -1
129 127 -1
129 129 5
130 127 -1
130 128 -1
130 129 -1
130 130 6
131 128 -1
131 129 -1
131 131 5
132 129 -1
132 130 -1
132 131 -1
132 132 6
133 130 -1
133 131 -1
133 132 -1
133 133 7
134 131 -1
134 132 -1
134 133 -1
134 134 6
135 132 -1
135 133 -1
135 134 -1
135 135 7
136 133 -1
136 134 -1
136 135 -1
136 136 6
137 134 -1
137 135 -1
137 136 -1
137 137 6
138 99 -1
138 136 -1
138 137 -1
138 138 6
139 136 -1
139 137 -1
139 138 -1
139 139 9
140 137 -1
140 138 -1
140 139 -1
140 140 7
141 139 -1
141 140 -1
141 141 6
142 139 -1
142 140 -1
142 141 -1
142 142 7
143 140 -1
143 141 -1
143 142 -1
143 143 6
144 142 -1
144 143 -1
144 144 5
145 142 -1
145 143 -1
145 144 -1
145 145 7
146 143 -1
146 144 -1
146 145 -1
146 146 6
147 144 -1
147 145 -1
147 146 -1
147 147 6
148 145 -1
148 146 -1
148 147 -1
148 148 6
149 146 -1
149 147 -1
149 148 -1
149 149 6
150 147 -1
150 148 -1
150 149 -1
150 150 6
151 148 -1
151 149 -1
151 150 -1
151 151 6
152 150 -1
152 151 -1
152 152 5
153 150 -1
153 151 -1
153 152 -1
153 153 6
154 139 -1
154 151 -1
154 152 -1
154 154 5
155 152 -1
155 153 -1
155 155 7
156 153 -1
156 154 -1
156 155 -1
156 156 6
157 154 -1
157 155 -1
157 156 -1
157 157 6
158 155 -1
158 156 -1
158 158 5
159 156 -1
159 157 -1
159 158 -1
159 159 6
160 157 -1
160 158 -1
160 159 -1
160 160 6
161 158 -1
161 159 -1
161 160 -1
161 161 6
162 159 -1
162 160 -1
162 161 -1
162 162 7
163 160 -1
163 161 -1
163 162 -1
163 163 7
164 161 -1
164 162 -1
164 163 -1
164 164 6
165 162 -1
165 163 -1
165 164 -1
165 165 6
166 163 -1
166 164 -1
166 165 -1
166 166 6
167 164 -1
167 165 -1
167 166 -1
167 167 6
168 165 -1
168 166 -1
168 168 6
169 166 -1
169 167 -1
169 168 -1
169 169 6
170 167 -1
170 169 -1
170 170 5
171 170 -1
171 171 4
172 169 -1
172 170 -1
172 171 -1
172 172 6
173 170 -1
173 171 -1
173 172 -1
173 173 6
174 171 -1
174 172 -1
174 173 -1
174 174 6
175 172 -1
175 173 -1
175 175 6
176 174 -1
176 175 -1
176 176 5
177 174 -1
177 175 -1
177 176 -1
177 177 6
178 175 -1
178 176 -1
178 177 -1
178 178 6
179 176 -1
179 177 -1
179 178 -1
179 179 6
180 177 -1
180 178 -1
180 179 -1
180 180 6
181 179 -1
181 180 -1
181 181 6
182 181 -1
182 182 4
183 173 -1
183 180 -1
183 181 -1
183 182 -1
183 183 7
184 181 -1
184 182 -1
184 183 -1
184 184 7
185 182 -1
185 183 -1
185 185 8
186 183 -1
186 184 -1
186 186 5
187 184 -1
187 185 -1
187 186 -1
187 187 8
188 185 -1
188 186 -1
188 187 -1
188 188 6
189 187 -1
189 188 -1
189 189 5
190 187 -1
190 188 -1
190 189 -1
190 190 6
191 188 -1
191 189 -1
191 190 -1
191 191 7
192 9 -1
192 189 -1
192 190 -1
192 191 -1
192 192 7
193 190 -1
193 191 -1
193 192 -1
193 193 6
194 191 -1
194 192 -1
194 193 -1
194 194 7
195 192 -1
195 193 -1
195 194 -1
195 195 6
196 193 -1
196 194 -1
196 196 6
197 194 -1
197 195 -1
197 197 5
198 184 -1
198 196 -1
198 197 -1
198 198 6
199 196 -1
199 197 -1
199 198 -1
199 199 6
200 197 -1
200 199 -1
200 200 5
201 198 -1
201 199 -1
201 200 -1
201 201 6
202 199 -1
202 200 -1
202 201 -1
202 202 8
203 200 -1
203 201 -1
203 202 -1
203 203 7
204 201 -1
204 202 -1
204 203 -1
204 204 6
205 204 -1
205 205 4
206 203 -1
206 204 -1
206 205 -1
206 206 6
207 204 -1
207 205 -1
207 206 -1
207 207 6
208 205 -1
208 206 -1
208 207 -1
208 208 7
209 206 -1
209 208 -1
209 209 7
210 207 -1
210 208 -1
210 209 -1
210 210 8
211 208 -1
211 209 -1
211 210 -1
211 211 6
212 209 -1
212 210 -1
212 212 6
213 210 -1
213 211 -1
213 212 -1
213 213 6
214 211 -1
214 212 -1
214 213 -1
214 214 6
215 212 -1
215 214 -1
215 215 5
216 213 -1
216 214 -1
216 216 5
217 140 -1
217 215 -1
217 217 4
218 215 -1
218 216 -1
218 218 5
219 216 -1
219 217 -1
219 218 -1
219 219 6
220 217 -1
220 218 -1
220 219 -1
220 220 7
221 57 -1
221 218 -1
221 219 -1
221 220 -1
221 221 7
222 219 -1
222 220 -1
222 221 -1
222 222 6
223 220 -1
223 221 -1
223 222 -1
223 223 6
224 221 -1
224 222 -1
224 223 -1
224 224 6
225 222 -1
225 223 -1
225 224 -1
225 225 6
226 223 -1
226 224 -1
226 225 -1
226 226 6
227 224 -1
227 225 -1
227 226 -1
227 227 6
228 225 -1
228 226 -1
228 227 -1
228 228 6
229 226 -1
229 227 -1
229 228 -1
229 229 6
230 227 -1
230 228 -1
230 229 -1
230 230 6
231 228 -1
231 229 -1
231 230 -1
231 231 6
232 229 -1
232 230 -1
232 231 -1
232 232 6
233 230 -1
233 231 -1
233 232 -1
233 233 7
234 232 -1
234 233 -1
234 234 5
235 232 -1
235 233 -1
235 234 -1
235 235 6
236 233 -1
236 234 -1
236 235 -1
236 236 6
237 234 -1
237 235 -1
237 236 -1
237 237 6
238 235 -1
238 236 -1
238 238 5
239 236 -1
239 237 -1
239 238 -1
239 239 6
240 237 -1
240 238 -1
240 239 -1
240 240 6
241 238 -1
241 241 4
242 239 -1
242 241 -1
242 242 5
243 240 -1
243 241 -1
243 242 -1
243 243 6
244 241 -1
244 242 -1
244 243 -1
244 244 6
245 242 -1
245 244 -1
245 245 5
246 244 -1
246 245 -1
246 246 5
247 244 -1
247 245 -1
247 246 -1
247 247 6
248 245 -1
248 246 -1
248 247 -1
248 248 6
249 246 -1
249 247 -1
249 248 -1
249 249 7
250 247 -1
250 248 -1
250 249 -1
250 250 6
251 248 -1
251 250 -1
251 251 5
252 249 -1
252 250 -1
252 251 -1
252 252 6
253 250 -1
253 251 -1
253 252 -1
253 253 6
254 251 -1
254 252 -1
254 254 5
255 253 -1
255 254 -1
255 255 6
256 253 -1
256 254 -1
256 255 -1
256 256 6
257 254 -1
257 255 -1
257 256 -1
257 257 6
258 255 -1
258 256 -1
258 257 -1
258 258 6
259 256 -1
259 257 -1
259 258 -1
259 259 6
260 257 -1
260 258 -1
260 259 -1
260 260 6
261 258 -1
261 259 -1
261 260 -1
261 261 6
262 259 -1
262 260 -1
262 261 -1
262 262 6
263 260 -1
263 261 -1
263 262 -1
263 263 6
264 261 -1
264 262 -1
264 263 -1
264 264 6
265 262 -1
265 263 -1
265 264 -1
265 265 6
266 263 -1
266 264 -1
266 265 -1
266 266 7
267 264 -1
267 265 -1
267 266 -1
267 267 6
268 266 -1
268 267 -1
268 268 5
269 266 -1
269 267 -1
269 268 -1
269 269 6
270 267 -1
270 268 -1
270 269 -1
270 270 6
271 268 -1
271 269 -1
271 271 7
272 269 -1
272 270 -1
272 271 -1
272 272 6
273 270 -1
273 271 -1
273 273 5
274 271 -1
274 272 -1
274 273 -1
274 274 6
275 272 -1
275 273 -1
275 274 -1
275 275 6
276 187 -1
276 273 -1
276 274 -1
276 275 -1
276 276 6
277 274 -1
277 275 -1
277 276 -1
277 277 6
278 275 -1
278 276 -1
278 277 -1
278 278 6
279 155 -1
279 277 -1
279 278 -1
279 279 5
280 277 -1
280 278 -1
280 280 6
281 82 -1
281 278 -1
281 279 -1
281 280 -1
281 281 7
282 279 -1
282 280 -1
282 281 -1
282 282 6
283 280 -1
283 281 -1
283 282 -1
283 283 6
284 195 -1
284 281 -1
284 282 -1
284 284 6
285 282 -1
285 283 -1
285 284 -1
285 285 6
286 283 -1
286 284 -1
286 285 -1
286 286 6
287 284 -1
287 285 -1
287 286 -1
287 287 6
288 240 -1
288 285 -1
288 286 -1
288 287 -1
288 288 7
289 286 -1
289 287 -1
289 288 -1
289 289 6
290 287 -1
290 288 -1
290 289 -1
290 290 6
291 288 -1
291 289 -1
291 290 -1
291 291 6
292 289 -1
292 290 -1
292 291 -1
292 292 6
293 290 -1
293 291 -1
293 292 -1
293 293 6
294 291 -1
294 292 -1
294 293 -1
294 294 7
295 271 -1
295 292 -1
295 293 -1
295 294 -1
295 295 6
296 293 -1
296 294 -1
296 295 -1
296 296 7
297 296 -1
297 297 5
298 295 -1
298 296 -1
298 297 -1
298 298 7
299 296 -1
299 297 -1
299 298 -1
299 299 6
300 297 -1
300 299 -1
300 300 5
301 298 -1
301 299 -1
301 300 -1
301 301 6
302 299 -1
302 300 -1
302 301 -1
302 302 6
303 300 -1
303 302 -1
303 303 5
304 301 -1
304 302 -1
304 303 -1
304 304 6
305 303 -1
305 304 -1
305 305 6
306 303 -1
306 304 -1
306 306 5
307 304 -1
307 306 -1
307 307 5
308 142 -1
308 305 -1
308 306 -1
308 307 -1
308 308 6
309 71 -1
309 306 -1
309 307 -1
309 308 -1
309 309 8
310 307 -1
310 309 -1
310 310 5
311 308 -1
311 309 -1
311 310 -1
311 311 6
312 309 -1
312 310 -1
312 311 -1
312 312 6
313 310 -1
313 311 -1
313 312 -1
313 313 7
314 311 -1
314 312 -1
314 313 -1
314 314 6
315 312 -1
315 313 -1
315 315 6
316 313 -1
316 314 -1
316 315 -1
316 316 6
317 314 -1
317 315 -1
317 316 -1
317 317 6
318 315 -1
318 316 -1
318 317 -1
318 318 7
319 317 -1
319 318 -1
319 319 5
320 317 -1
320 318 -1
320 319 -1
320 320 6
321 318 -1
321 319 -1
321 320 -1
321 321 7
322 252 -1
322 319 -1
322 320 -1
322 322 6
323 320 -1
323 321 -1
323 322 -1
323 323 6
324 321 -1
324 323 -1
324 324 5
325 322 -1
325 323 -1
325 325 5
326 323 -1
326 324 -1
326 325 -1
326 326 6
327 214 -1
327 324 -1
327 325 -1
327 326 -1
327 327 7
328 325 -1
328 326 -1
328 327 -1
328 328 6
329 327 -1
329 328 -1
329 329 5
330 327 -1
330 328 -1
330 329 -1
330 330 6
331 328 -1
331 329 -1
331 331 5
332 329 -1
332 330 -1
332 331 -1
332 332 7
333 330 -1
333 331 -1
333 332 -1
333 333 7
334 331 -1
334 332 -1
334 333 -1
334 334 6
335 332 -1
335 333 -1
335 334 -1
335 335 6
336 333 -1
336 334 -1
336 335 -1
336 336 6
337 302 -1
337 334 -1
337 335 -1
337 336 -1
337 337 7
338 335 -1
338 336 -1
338 337 -1
338 338 6
339 336 -1
339 337 -1
339 338 -1
339 339 6
340 337 -1
340 338 -1
340 339 -1
340 340 7
341 338 -1
341 339 -1
341 340 -1
341 341 6
342 339 -1
342 340 -1
342 341 -1
342 342 6
343 340 -1
343 341 -1
343 342 -1
343 343 6
344 341 -1
344 342 -1
344 343 -1
344 344 6
345 342 -1
345 343 -1
345 345 5
346 343 -1
346 345 -1
346 346 5
347 344 -1
347 345 -1
347 346 -1
347 347 6
348 345 -1
348 346 -1
348 347 -1
348 348 6
349 346 -1
349 347 -1
349 348 -1
349 349 7
350 347 -1
350 349 -1
350 350 6
351 348 -1
351 350 -1
351 351 5
352 349 -1
352 351 -1
352 352 5
353 350 -1
353 351 -1
353 352 -1
353 353 6
354 351 -1
354 352 -1
354 353 -1
354 354 6
355 352 -1
355 353 -1
355 354 -1
355 355 6
356 353 -1
356 355 -1
356 356 6
357 354 -1
357 355 -1
357 356 -1
357 357 6
358 186 -1
358 355 -1
358 356 -1
358 357 -1
358 358 7
359 203 -1
359 356 -1
359 357 -1
359 358 -1
359 359 10
360 357 -1
360 359 -1
360 360 5
361 358 -1
361 359 -1
361 360 -1
361 361 6
362 359 -1
362 360 -1
362 361 -1
362 362 6
363 360 -1
363 361 -1
363 362 -1
363 363 6
364 361 -1
364 362 -1
364 363 -1
364 364 6
365 362 -1
365 363 -1
365 364 -1
365 365 6
366 363 -1
366 364 -1
366 365 -1
366 366 6
367 364 -1
367 365 -1
367 366 -1
367 367 6
368 365 -1
368 366 -1
368 367 -1
368 368 6
369 366 -1
369 367 -1
369 368 -1
369 369 6
370 367 -1
370 368 -1
370 369 -1
370 370 6
371 368 -1
371 369 -1
371 370 -1
371 371 6
372 369 -1
372 370 -1
372 371 -1
372 372 6
373 370 -1
373 371 -1
373 372 -1
373 373 6
374 371 -1
374 372 -1
374 373 -1
374 374 6
375 372 -1
375 373 -1
375 374 -1
375 375 6
376 373 -1
376 374 -1
376 375 -1
376 376 6
377 374 -1
377 375 -1
377 376 -1
377 377 6
378 375 -1
378 376 -1
378 377 -1
378 378 6
379 376 -1
379 377 -1
379 378 -1
379 379 6
380 298 -1
380 377 -1
380 379 -1
380 380 5
381 116 -1
381 216 -1
381 378 -1
381 379 -1
381 380 -1
381 381 7
382 379 -1
382 380 -1
382 381 -1
382 382 6
383 381 -1
383 382 -1
383 383 5
384 382 -1
384 383 -1
384 384 5
385 382 -1
385 383 -1
385 385 5
386 383 -1
386 384 -1
386 385 -1
386 386 6
387 384 -1
387 385 -1
387 386 -1
387 387 6
388 385 -1
388 386 -1
388 387 -1
388 388 6
389 386 -1
389 387 -1
389 389 5
390 387 -1
390 388 -1
390 389 -1
390 390 7
391 388 -1
391 389 -1
391 390 -1
391 391 6
392 389 -1
392 390 -1
392 391 -1
392 392 7
393 390 -1
393 391 -1
393 392 -1
393 393 6
394 392 -1
394 393 -1
394 394 5
395 392 -1
395 393 -1
395 394 -1
395 395 7
396 321 -1
396 393 -1
396 394 -1
396 395 -1
396 396 7
397 394 -1
397 395 -1
397 396 -1
397 397 7
398 395 -1
398 396 -1
398 397 -1
398 398 6
399 66 -1
399 396 -1
399 397 -1
399 398 -1
399 399 7
400 397 -1
400 398 -1
400 399 -1
400 400 6
401 398 -1
401 399 -1
401 400 -1
401 401 6
402 399 -1
402 400 -1
402 401 -1
402 402 6
403 400 -1
403 401 -1
403 402 -1
403 403 7
404 401 -1
404 403 -1
404 404 5
405 402 -1
405 403 -1
405 404 -1
405 405 6
406 403 -1
406 405 -1
406 406 5
407 404 -1
407 405 -1
407 406 -1
407 407 6
408 12 -1
408 405 -1
408 406 -1
408 407 -1
408 408 8
409 406 -1
409 407 -1
409 408 -1
409 409 7
410 407 -1
410 408 -1
410 409 -1
410 410 6
411 408 -1
411 409 -1
411 410 -1
411 411 7
412 410 -1
412 411 -1
412 412 6
413 410 -1
413 411 -1
413 412 -1
413 413 7
414 411 -1
414 412 -1
414 413 -1
414 414 6
415 412 -1
415 413 -1
415 414 -1
415 415 7
416 390 -1
416 413 -1
416 414 -1
416 415 -1
416 416 7
417 414 -1
417 415 -1
417 416 -1
417 417 6
418 415 -1
418 417 -1
418 418 5
419 416 -1
419 417 -1
419 418 -1
419 419 7
420 417 -1
420 418 -1
420 419 -1
420 420 6
421 418 -1
421 419 -1
421 420 -1
421 421 6
422 419 -1
422 420 -1
422 421 -1
422 422 6
423 348 -1
423 420 -1
423 421 -1
423 422 -1
423 423 7
424 421 -1
424 422 -1
424 423 -1
424 424 6
425 356 -1
425 422 -1
425 423 -1
425 424 -1
425 425 7
426 423 -1
426 424 -1
426 425 -1
426 426 6
427 424 -1
427 425 -1
427 426 -1
427 427 6
428 426 -1
428 427 -1
428 428 6
429 426 -1
429 427 -1
429 428 -1
429 429 6
430 427 -1
430 428 -1
430 429 -1
430 430 7
431 429 -1
431 430 -1
431 431 6
432 429 -1
432 430 -1
432 431 -1
432 432 7
433 430 -1
433 431 -1
433 432 -1
433 433 6
434 431 -1
434 432 -1
434 433 -1
434 434 6
435 432 -1
435 434 -1
435 435 5
436 433 -1
436 434 -1
436 435 -1
436 436 6
437 309 -1
437 434 -1
437 435 -1
437 436 -1
437 437 6
438 435 -1
438 436 -1
438 438 5
439 436 -1
439 437 -1
439 438 -1
439 439 6
440 437 -1
440 438 -1
440 439 -1
440 440 7
441 439 -1
441 440 -1
441 441 5
442 439 -1
442 440 -1
442 442 7
443 440 -1
443 441 -1
443 442 -1
443 443 7
444 441 -1
444 442 -1
444 443 -1
444 444 6
445 442 -1
445 443 -1
445 445 5
446 443 -1
446 444 -1
446 445 -1
446 446 6
447 444 -1
447 445 -1
447 446 -1
447 447 6
448 445 -1
448 446 -1
448 447 -1
448 448 6
449 446 -1
449 447 -1
449 449 5
450 447 -1
450 448 -1
450 449 -1
450 450 7
451 449 -1
451 451 4
452 449 -1
452 450 -1
452 451 -1
452 452 6
453 450 -1
453 451 -1
453 452 -1
453 453 7
454 451 -1
454 452 -1
454 453 -1
454 454 6
455 452 -1
455 453 -1
455 454 -1
455 455 6
456 453 -1
456 454 -1
456 455 -1
456 456 7
457 454 -1
457 455 -1
457 456 -1
457 457 6
458 455 -1
458 456 -1
458 457 -1
458 458 7
459 456 -1
459 457 -1
459 458 -1
459 459 6
460 457 -1
460 458 -1
460 459 -1
460 460 7
461 458 -1
461 459 -1
461 460 -1
461 461 7
462 459 -1
462 460 -1
462 461 -1
462 462 6
463 460 -1
463 461 -1
463 462 -1
463 463 7
464 461 -1
464 462 -1
464 463 -1
464 464 6
465 462 -1
465 463 -1
465 464 -1
465 465 6
466 70 -1
466 463 -1
466 464 -1
466 465 -1
466 466 6
467 40 -1
467 464 -1
467 465 -1
467 466 -1
467 467 8
468 465 -1
468 467 -1
468 468 5
469 14 -1
469 466 -1
469 467 -1
469 468 -1
469 469 7
470 467 -1
470 469 -1
470 470 5
471 468 -1
471 470 -1
471 471 5
472 470 -1
472 471 -1
472 472 5
473 470 -1
473 471 -1
473 472 -1
473 473 6
474 471 -1
474 472 -1
474 474 5
475 472 -1
475 473 -1
475 474 -1
475 475 7
476 473 -1
476 475 -1
476 476 5
477 474 -1
477 475 -1
477 477 5
478 477 -1
478 478 4
479 476 -1
479 477 -1
479 478 -1
479 479 6
480 477 -1
480 478 -1
480 479 -1
480 480 6
481 478 -1
481 479 -1
481 480 -1
481 481 6
482 384 -1
482 479 -1
482 480 -1
482 481 -1
482 482 7
483 482 -1
483 483 4
484 481 -1
484 482 -1
484 483 -1
484 484 6
485 482 -1
485 484 -1
485 485 5
486 483 -1
486 484 -1
486 485 -1
486 486 6
487 135 -1
487 484 -1
487 485 -1
487 486 -1
487 487 6
488 157 -1
488 485 -1
488 488 5
489 486 -1
489 487 -1
489 488 -1
489 489 6
490 64 -1
490 488 -1
490 490 4
491 305 -1
491 488 -1
491 489 -1
491 491 5
492 489 -1
492 490 -1
492 491 -1
492 492 6
493 313 -1
493 490 -1
493 492 -1
493 493 5
494 491 -1
494 492 -1
494 494 5
495 492 -1
495 493 -1
495 494 -1
495 495 6
496 493 -1
496 494 -1
496 495 -1
496 496 6
497 494 -1
497 495 -1
497 496 -1
497 497 6
498 495 -1
498 496 -1
498 497 -1
498 498 6
499 496 -1
499 498 -1
499 499 5
500 497 -1
500 498 -1
500 499 -1
500 500 6
501 498 -1
501 499 -1
501 500 -1
501 501 6
502 388 -1
502 500 -1
502 501 -1
502 502 6
503 112 -1
503 500 -1
503 501 -1
503 502 -1
503 503 6
504 501 -1
504 502 -1
504 503 -1
504 504 6
505 502 -1
505 504 -1
505 505 6
506 467 -1
506 504 -1
506 505 -1
506 506 5
507 504 -1
507 506 -1
507 507 6
508 505 -1
508 506 -1
508 507 -1
508 508 6
509 507 -1
509 508 -1
509 509 7
510 507 -1
510 508 -1
510 509 -1
510 510 6
511 508 -1
511 509 -1
511 510 -1
511 511 6
512 509 -1
512 511 -1
512 512 5
513 510 -1
513 511 -1
513 512 -1
513 513 6
514 511 -1
514 512 -1
514 513 -1
514 514 6
515 409 -1
515 512 -1
515 513 -1
515 514 -1
515 515 7
516 513 -1
516 514 -1
516 515 -1
516 516 6
517 515 -1
517 516 -1
517 517 6
518 515 -1
518 516 -1
518 517 -1
518 518 6
519 516 -1
519 517 -1
519 518 -1
519 519 6
520 517 -1
520 518 -1
520 519 -1
520 520 6
521 518 -1
521 519 -1
521 520 -1
521 521 7
522 301 -1
522 520 -1
522 521 -1
522 522 6
523 520 -1
523 521 -1
523 522 -1
523 523 6
524 521 -1
524 522 -1
524 524 5
525 522 -1
525 523 -1
525 524 -1
525 525 6
526 321 -1
526 524 -1
526 525 -1
526 526 6
527 524 -1
527 525 -1
527 526 -1
527 527 6
528 525 -1
528 526 -1
528 527 -1
528 528 6
529 425 -1
529 527 -1
529 528 -1
529 529 5
530 527 -1
530 528 -1
530 529 -1
530 530 7
531 528 -1
531 530 -1
531 531 5
532 529 -1
532 530 -1
532 531 -1
532 532 6
533 530 -1
533 531 -1
533 532 -1
533 533 6
534 333 -1
534 531 -1
534 532 -1
534 533 -1
534 534 7
535 330 -1
535 532 -1
535 533 -1
535 534 -1
535 535 7
536 533 -1
536 535 -1
536 536 5
537 534 -1
537 535 -1
537 536 -1
537 537 6
538 535 -1
538 536 -1
538 537 -1
538 538 6
539 536 -1
539 537 -1
539 538 -1
539 539 8
540 537 -1
540 538 -1
540 539 -1
540 540 6
541 538 -1
541 539 -1
541 540 -1
541 541 6
542 539 -1
542 540 -1
542 541 -1
542 542 6
543 540 -1
543 541 -1
543 542 -1
543 543 6
544 541 -1
544 542 -1
544 543 -1
544 544 7
545 542 -1
545 543 -1
545 544 -1
545 545 6
546 431 -1
546 545 -1
546 546 4
547 544 -1
547 546 -1
547 547 5
548 545 -1
548 546 -1
548 548 5
549 548 -1
549 549 5
550 547 -1
550 548 -1
550 549 -1
550 550 6
551 548 -1
551 549 -1
551 550 -1
551 551 6
552 549 -1
552 550 -1
552 551 -1
552 552 6
553 550 -1
553 551 -1
553 553 5
554 551 -1
554 553 -1
554 554 5
555 552 -1
555 553 -1
555 554 -1
555 555 6
556 553 -1
556 554 -1
556 555 -1
556 556 6
557 554 -1
557 555 -1
557 556 -1
557 557 6
558 555 -1
558 556 -1
558 557 -1
558 558 6
559 556 -1
559 557 -1
559 558 -1
559 559 6
560 392 -1
560 552 -1
560 557 -1
560 558 -1
560 559 -1
560 560 7
561 85 -1
561 558 -1
561 559 -1
561 561 6
562 559 -1
562 560 -1
562 562 5
563 560 -1
563 561 -1
563 562 -1
563 563 6
564 2 -1
564 549 -1
564 561 -1
564 562 -1
564 563 -1
564 564 7
565 562 -1
565 563 -1
565 564 -1
565 565 7
566 202 -1
566 563 -1
566 565 -1
566 566 7
567 564 -1
567 565 -1
567 566 -1
567 567 6
568 565 -1
568 566 -1
568 567 -1
568 568 7
569 567 -1
569 569 4
570 567 -1
570 568 -1
570 569 -1
570 570 6
571 568 -1
571 569 -1
571 570 -1
571 571 6
572 324 -1
572 428 -1
572 569 -1
572 570 -1
572 571 -1
572 572 8
573 570 -1
573 572 -1
573 573 5
574 397 -1
574 571 -1
574 572 -1
574 573 -1
574 574 6
575 572 -1
575 573 -1
575 574 -1
575 575 7
576 573 -1
576 574 -1
576 575 -1
576 576 6
577 576 -1
577 577 4
578 575 -1
578 576 -1
578 577 -1
578 578 6
579 576 -1
579 577 -1
579 578 -1
579 579 6
580 577 -1
580 578 -1
580 579 -1
580 580 6
581 578 -1
581 580 -1
581 581 5
582 579 -1
582 580 -1
582 581 -1
582 582 6
583 580 -1
583 581 -1
583 582 -1
583 583 6
584 505 -1
584 581 -1
584 582 -1
584 583 -1
584 584 6
585 582 -1
585 583 -1
585 584 -1
585 585 6
586 583 -1
586 585 -1
586 586 5
587 585 -1
587 586 -1
587 587 5
588 585 -1
588 587 -1
588 588 6
589 586 -1
589 587 -1
589 588 -1
589 589 6
590 587 -1
590 588 -1
590 589 -1
590 590 7
591 588 -1
591 589 -1
591 590 -1
591 591 7
592 589 -1
592 590 -1
592 591 -1
592 592 6
593 590 -1
593 591 -1
593 592 -1
593 593 6
594 591 -1
594 592 -1
594 593 -1
594 594 6
595 592 -1
595 593 -1
595 594 -1
595 595 6
596 593 -1
596 594 -1
596 595 -1
596 596 6
597 594 -1
597 596 -1
597 597 5
598 575 -1
598 595 -1
598 596 -1
598 598 5
599 112 -1
599 596 -1
599 597 -1
599 598 -1
599 599 6
600 597 -1
600 598 -1
600 600 5
601 599 -1
601 600 -1
601 601 5
602 599 -1
602 600 -1
602 601 -1
602 602 6
603 568 -1
603 600 -1
603 601 -1
603 602 -1
603 603 8
604 155 -1
604 601 -1
604 602 -1
604 603 -1
604 604 6
605 602 -1
605 603 -1
605 604 -1
605 605 7
606 603 -1
606 604 -1
606 605 -1
606 606 6
607 605 -1
607 606 -1
607 607 5
608 605 -1
608 607 -1
608 608 5
609 606 -1
609 607 -1
609 608 -1
609 609 6
610 607 -1
610 608 -1
610 609 -1
610 610 6
611 608 -1
611 609 -1
611 611 5
612 213 -1
612 534 -1
612 609 -1
612 610 -1
612 611 -1
612 612 7
613 610 -1
613 611 -1
613 613 6
614 611 -1
614 612 -1
614 614 5
615 613 -1
615 614 -1
615 615 5
616 613 -1
616 614 -1
616 615 -1
616 616 6
617 614 -1
617 615 -1
617 616 -1
617 617 6
618 509 -1
618 615 -1
618 616 -1
618 617 -1
618 618 6
619 616 -1
619 617 -1
619 619 5
620 617 -1
620 618 -1
620 619 -1
620 620 6
621 618 -1
621 619 -1
621 620 -1
621 621 7
622 619 -1
622 620 -1
622 621 -1
622 622 6
623 620 -1
623 621 -1
623 622 -1
623 623 6
624 621 -1
624 622 -1
624 623 -1
624 624 6
625 622 -1
625 623 -1
625 624 -1
625 625 6
626 623 -1
626 624 -1
626 625 -1
626 626 6
627 624 -1
627 625 -1
627 626 -1
627 627 6
628 625 -1
628 626 -1
628 627 -1
628 628 6
629 626 -1
629 627 -1
629 628 -1
629 629 6
630 627 -1
630 628 -1
630 629 -1
630 630 6
631 628 -1
631 629 -1
631 630 -1
631 631 7
632 571 -1
632 629 -1
632 630 -1
632 631 -1
632 632 7
633 630 -1
633 631 -1
633 632 -1
633 633 6
634 631 -1
634 632 -1
634 633 -1
634 634 6
635 632 -1
635 633 -1
635 634 -1
635 635 6
636 633 -1
636 634 -1
636 635 -1
636 636 7
637 634 -1
637 635 -1
637 636 -1
637 637 6
638 635 -1
638 636 -1
638 637 -1
638 638 6
639 6 -1
639 636 -1
639 637 -1
639 638 -1
639 639 6
640 637 -1
640 638 -1
640 640 5
641 638 -1
641 639 -1
641 640 -1
641 641 6
642 639 -1
642 640 -1
642 641 -1
642 642 7
643 122 -1
643 591 -1
643 640 -1
643 641 -1
643 642 -1
643 643 7
644 641 -1
644 642 -1
644 644 5
645 643 -1
645 644 -1
645 645 5
646 643 -1
646 644 -1
646 645 -1
646 646 6
647 65 -1
647 644 -1
647 645 -1
647 646 -1
647 647 7
648 645 -1
648 646 -1
648 647 -1
648 648 6
649 646 -1
649 647 -1
649 648 -1
649 649 6
650 647 -1
650 648 -1
650 649 -1
650 650 7
651 648 -1
651 649 -1
651 650 -1
651 651 6
652 649 -1
652 650 -1
652 651 -1
652 652 6
653 652 -1
653 653 4
654 651 -1
654 652 -1
654 653 -1
654 654 6
655 652 -1
655 653 -1
655 654 -1
655 655 6
656 653 -1
656 654 -1
656 655 -1
656 656 6
657 654 -1
657 655 -1
657 656 -1
657 657 6
658 340 -1
658 469 -1
658 655 -1
658 656 -1
658 657 -1
658 658 7
659 656 -1
659 657 -1
659 659 5
660 100 -1
660 657 -1
660 658 -1
660 659 -1
660 660 7
661 658 -1
661 659 -1
661 660 -1
661 661 6
662 659 -1
662 660 -1
662 661 -1
662 662 6
663 509 -1
663 660 -1
663 661 -1
663 662 -1
663 663 6
664 119 -1
664 661 -1
664 662 -1
664 663 -1
664 664 7
665 662 -1
665 664 -1
665 665 7
666 552 -1
666 663 -1
666 664 -1
666 665 -1
666 666 8
667 664 -1
667 665 -1
667 666 -1
667 667 6
668 665 -1
668 666 -1
668 667 -1
668 668 6
669 666 -1
669 668 -1
669 669 5
670 667 -1
670 668 -1
670 669 -1
670 670 6
671 668 -1
671 669 -1
671 670 -1
671 671 6
672 669 -1
672 670 -1
672 671 -1
672 672 6
673 530 -1
673 670 -1
673 671 -1
673 672 -1
673 673 6
674 469 -1
674 671 -1
674 672 -1
674 673 -1
674 674 6
675 672 -1
675 675 4
676 673 -1
676 674 -1
676 675 -1
676 676 6
677 674 -1
677 675 -1
677 676 -1
677 677 6
678 676 -1
678 677 -1
678 678 5
679 100 -1
679 676 -1
679 677 -1
679 678 -1
679 679 8
680 677 -1
680 678 -1
680 679 -1
680 680 7
681 305 -1
681 678 -1
681 679 -1
681 680 -1
681 681 7
682 359 -1
682 679 -1
682 680 -1
682 681 -1
682 682 6
683 680 -1
683 681 -1
683 683 5
684 272 -1
684 681 -1
684 682 -1
684 683 -1
684 684 8
685 682 -1
685 683 -1
685 684 -1
685 685 6
686 683 -1
686 684 -1
686 685 -1
686 686 6
687 684 -1
687 685 -1
687 686 -1
687 687 6
688 685 -1
688 686 -1
688 687 -1
688 688 6
689 686 -1
689 687 -1
689 688 -1
689 689 6
690 687 -1
690 689 -1
690 690 5
691 688 -1
691 689 -1
691 691 5
692 689 -1
692 690 -1
692 691 -1
692 692 6
693 690 -1
693 691 -1
693 692 -1
693 693 6
694 691 -1
694 692 -1
694 693 -1
694 694 6
695 692 -1
695 693 -1
695 694 -1
695 695 6
696 693 -1
696 694 -1
696 695 -1
696 696 6
697 694 -1
697 695 -1
697 696 -1
697 697 6
698 695 -1
698 696 -1
698 697 -1
698 698 6
699 696 -1
699 697 -1
699 698 -1
699 699 6
700 181 -1
700 697 -1
700 698 -1
700 699 -1
700 700 6
701 698 -1
701 699 -1
701 701 5
702 202 -1
702 699 -1
702 700 -1
702 701 -1
702 702 7
703 700 -1
703 701 -1
703 702 -1
703 703 6
704 701 -1
704 702 -1
704 703 -1
704 704 6
705 702 -1
705 703 -1
705 704 -1
705 705 7
706 305 -1
706 378 -1
706 703 -1
706 704 -1
706 705 -1
706 706 8
707 704 -1
707 705 -1
707 706 -1
707 707 6
708 705 -1
708 706 -1
708 707 -1
708 708 6
709 544 -1
709 706 -1
709 707 -1
709 708 -1
709 709 7
710 707 -1
710 708 -1
710 709 -1
710 710 6
711 708 -1
711 709 -1
711 710 -1
711 711 7
712 709 -1
712 710 -1
712 711 -1
712 712 7
713 690 -1
713 710 -1
713 711 -1
713 712 -1
713 713 7
714 711 -1
714 712 -1
714 713 -1
714 714 6
715 712 -1
715 713 -1
715 714 -1
715 715 6
716 713 -1
716 714 -1
716 715 -1
716 716 6
717 487 -1
717 714 -1
717 715 -1
717 716 -1
717 717 7
718 715 -1
718 717 -1
718 718 5
719 716 -1
719 717 -1
719 718 -1
719 719 7
720 440 -1
720 717 -1
720 718 -1
720 719 -1
720 720 6
721 450 -1
721 718 -1
721 719 -1
721 720 -1
721 721 7
722 719 -1
722 721 -1
722 722 5
723 720 -1
723 721 -1
723 722 -1
723 723 7
724 209 -1
724 721 -1
724 722 -1
724 723 -1
724 724 6
725 579 -1
725 723 -1
725 724 -1
725 725 6
726 723 -1
726 725 -1
726 726 5
727 233 -1
727 724 -1
727 725 -1
727 726 -1
727 727 6
728 725 -1
728 726 -1
728 728 5
729 726 -1
729 727 -1
729 728 -1
729 729 7
730 727 -1
730 728 -1
730 729 -1
730 730 6
731 728 -1
731 729 -1
731 730 -1
731 731 6
732 729 -1
732 730 -1
732 731 -1
732 732 6
733 731 -1
733 732 -1
733 733 5
734 731 -1
734 732 -1
734 733 -1
734 734 6
735 732 -1
735 733 -1
735 734 -1
735 735 6
736 733 -1
736 734 -1
736 735 -1
736 736 6
737 734 -1
737 735 -1
737 736 -1
737 737 6
738 735 -1
738 736 -1
738 737 -1
738 738 6
739 737 -1
739 738 -1
739 739 7
740 737 -1
740 738 -1
740 739 -1
740 740 6
741 738 -1
741 739 -1
741 740 -1
741 741 6
742 739 -1
742 740 -1
742 741 -1
742 742 6
743 740 -1
743 741 -1
743 742 -1
743 743 6
744 741 -1
744 742 -1
744 743 -1
744 744 6
745 742 -1
745 743 -1
745 744 -1
745 745 6
746 743 -1
746 744 -1
746 745 -1
746 746 6
747 744 -1
747 745 -1
747 746 -1
747 747 7
748 746 -1
748 747 -1
748 748 5
749 746 -1
749 747 -1
749 748 -1
749 749 6
750 747 -1
750 748 -1
750 749 -1
750 750 6
751 748 -1
751 749 -1
751 750 -1
751 751 6
752 749 -1
752 750 -1
752 751 -1
752 752 6
753 750 -1
753 751 -1
753 752 -1
753 753 6
754 751 -1
754 752 -1
754 753 -1
754 754 6
755 752 -1
755 753 -1
755 754 -1
755 755 6
756 753 -1
756 754 -1
756 755 -1
756 756 6
757 283 -1
757 642 -1
757 754 -1
757 755 -1
757 756 -1
757 757 8
758 755 -1
758 756 -1
758 757 -1
758 758 6
759 756 -1
759 757 -1
759 758 -1
759 759 6
760 757 -1
760 758 -1
760 759 -1
760 760 6
761 758 -1
761 759 -1
761 760 -1
761 761 6
762 760 -1
762 761 -1
762 762 5
763 760 -1
763 761 -1
763 762 -1
763 763 7
764 761 -1
764 762 -1
764 763 -1
764 764 7
765 74 -1
765 762 -1
765 763 -1
765 764 -1
765 765 7
766 763 -1
766 764 -1
766 765 -1
766 766 6
767 764 -1
767 765 -1
767 766 -1
767 767 6
768 765 -1
768 766 -1
768 768 5
769 766 -1
769 767 -1
769 768 -1
769 769 6
770 768 -1
770 769 -1
770 770 5
771 768 -1
771 769 -1
771 770 -1
771 771 6
772 769 -1
772 770 -1
772 771 -1
772 772 6
773 404 -1
773 770 -1
773 771 -1
773 772 -1
773 773 7
774 771 -1
774 772 -1
774 773 -1
774 774 6
775 722 -1
775 772 -1
775 773 -1
775 774 -1
775 775 7
776 773 -1
776 774 -1
776 776 5
777 195 -1
777 476 -1
777 505 -1
777 774 -1
777 775 -1
777 776 -1
777 777 9
778 775 -1
778 776 -1
778 777 -1
778 778 6
779 461 -1
779 776 -1
779 777 -1
779 778 -1
779 779 6
780 777 -1
780 778 -1
780 779 -1
780 780 6
781 296 -1
781 778 -1
781 781 4
782 779 -1
782 780 -1
782 782 5
783 780 -1
783 781 -1
783 782 -1
783 783 6
784 781 -1
784 782 -1
784 783 -1
784 784 7
785 782 -1
785 783 -1
785 784 -1
785 785 7
786 243 -1
786 783 -1
786 784 -1
786 785 -1
786 786 7
787 33 -1
787 784 -1
787 785 -1
787 786 -1
787 787 7
788 785 -1
788 786 -1
788 787 -1
788 788 6
789 786 -1
789 787 -1
789 788 -1
789 789 6
790 787 -1
790 788 -1
790 789 -1
790 790 6
791 788 -1
791 789 -1
791 790 -1
791 791 6
792 789 -1
792 790 -1
792 791 -1
792 792 6
793 790 -1
793 791 -1
793 792 -1
793 793 8
794 791 -1
794 793 -1
794 794 5
795 792 -1
795 793 -1
795 794 -1
795 795 7
796 793 -1
796 794 -1
796 795 -1
796 796 6
797 794 -1
797 795 -1
797 796 -1
797 797 7
798 141 -1
798 795 -1
798 796 -1
798 797 -1
798 798 6
799 796 -1
799 797 -1
799 799 6
800 196 -1
800 539 -1
800 797 -1
800 798 -1
800 799 -1
800 800 7
801 798 -1
801 799 -1
801 800 -1
801 801 6
802 797 -1
802 799 -1
802 801 -1
802 802 5
803 202 -1
803 800 -1
803 801 -1
803 802 -1
803 803 6
804 187 -1
804 801 -1
804 802 -1
804 804 6
805 803 -1
805 804 -1
805 805 5
806 47 -1
806 803 -1
806 804 -1
806 805 -1
806 806 7
807 805 -1
807 806 -1
807 807 5
808 539 -1
808 805 -1
808 806 -1
808 807 -1
808 808 6
809 665 -1
809 806 -1
809 807 -1
809 808 -1
809 809 6
810 78 -1
810 807 -1
810 808 -1
810 810 6
811 606 -1
811 809 -1
811 810 -1
811 811 6
812 809 -1
812 810 -1
812 811 -1
812 812 6
813 811 -1
813 812 -1
813 813 5
814 207 -1
814 811 -1
814 812 -1
814 813 -1
814 814 8
815 812 -1
815 813 -1
815 814 -1
815 815 6
816 719 -1
816 813 -1
816 814 -1
816 815 -1
816 816 7
817 359 -1
817 814 -1
817 815 -1
817 816 -1
817 817 6
818 784 -1
818 815 -1
818 817 -1
818 818 5
819 816 -1
819 817 -1
819 819 6
820 818 -1
820 819 -1
820 820 5
821 818 -1
821 819 -1
821 820 -1
821 821 6
822 819 -1
822 820 -1
822 821 -1
822 822 6
823 820 -1
823 821 -1
823 822 -1
823 823 6
824 821 -1
824 822 -1
824 823 -1
824 824 6
825 174 -1
825 822 -1
825 823 -1
825 824 -1
825 825 7
826 823 -1
826 824 -1
826 825 -1
826 826 6
827 825 -1
827 827 4
828 825 -1
828 826 -1
828 827 -1
828 828 6
829 826 -1
829 827 -1
829 828 -1
829 829 7
830 568 -1
830 827 -1
830 828 -1
830 829 -1
830 830 6
831 828 -1
831 829 -1
831 830 -1
831 831 6
832 497 -1
832 566 -1
832 829 -1
832 831 -1
832 832 6
833 830 -1
833 831 -1
833 832 -1
833 833 6
834 831 -1
834 832 -1
834 833 -1
834 834 6
835 441 -1
835 833 -1
835 834 -1
835 835 6
836 833 -1
836 834 -1
836 835 -1
836 836 6
837 834 -1
837 835 -1
837 836 -1
837 837 6
838 835 -1
838 836 -1
838 837 -1
838 838 6
839 185 -1
839 836 -1
839 837 -1
839 838 -1
839 839 6
840 837 -1
840 838 -1
840 839 -1
840 840 6
841 838 -1
841 839 -1
841 840 -1
841 841 6
842 840 -1
842 841 -1
842 842 5
843 840 -1
843 841 -1
843 842 -1
843 843 6
844 841 -1
844 842 -1
844 843 -1
844 844 6
845 842 -1
845 843 -1
845 844 -1
845 845 6
846 843 -1
846 844 -1
846 845 -1
846 846 6
847 844 -1
847 845 -1
847 846 -1
847 847 6
848 584 -1
848 845 -1
848 847 -1
848 848 6
849 846 -1
849 847 -1
849 848 -1
849 849 6
850 359 -1
850 847 -1
850 848 -1
850 849 -1
850 850 6
851 848 -1
851 849 -1
851 850 -1
851 851 6
852 849 -1
852 850 -1
852 852 5
853 603 -1
853 851 -1
853 852 -1
853 853 5
854 851 -1
854 852 -1
854 853 -1
854 854 6
855 852 -1
855 853 -1
855 854 -1
855 855 6
856 854 -1
856 855 -1
856 856 5
857 854 -1
857 856 -1
857 857 5
858 855 -1
858 856 -1
858 857 -1
858 858 6
859 856 -1
859 857 -1
859 858 -1
859 859 6
860 857 -1
860 858 -1
860 859 -1
860 860 7
861 444 -1
861 858 -1
861 859 -1
861 860 -1
861 861 7
862 149 -1
862 859 -1
862 860 -1
862 861 -1
862 862 7
863 860 -1
863 861 -1
863 862 -1
863 863 7
864 861 -1
864 862 -1
864 863 -1
864 864 7
865 862 -1
865 863 -1
865 864 -1
865 865 6
866 863 -1
866 864 -1
866 866 5
867 864 -1
867 865 -1
867 866 -1
867 867 6
868 270 -1
868 865 -1
868 866 -1
868 867 -1
868 868 7
869 866 -1
869 867 -1
869 868 -1
869 869 6
870 867 -1
870 868 -1
870 869 -1
870 870 6
871 605 -1
871 868 -1
871 869 -1
871 870 -1
871 871 6
872 869 -1
872 870 -1
872 872 5
873 870 -1
873 871 -1
873 872 -1
873 873 6
874 871 -1
874 873 -1
874 874 5
875 872 -1
875 873 -1
875 874 -1
875 875 6
876 873 -1
876 874 -1
876 875 -1
876 876 6
877 874 -1
877 875 -1
877 876 -1
877 877 6
878 415 -1
878 473 -1
878 875 -1
878 876 -1
878 877 -1
878 878 7
879 876 -1
879 877 -1
879 878 -1
879 879 6
880 877 -1
880 879 -1
880 880 6
881 878 -1
881 879 -1
881 880 -1
881 881 6
882 879 -1
882 880 -1
882 881 -1
882 882 8
883 575 -1
883 880 -1
883 881 -1
883 882 -1
883 883 7
884 881 -1
884 882 -1
884 883 -1
884 884 6
885 739 -1
885 882 -1
885 883 -1
885 884 -1
885 885 7
886 883 -1
886 884 -1
886 885 -1
886 886 6
887 326 -1
887 884 -1
887 886 -1
887 887 6
888 463 -1
888 885 -1
888 886 -1
888 887 -1
888 888 6
889 510 -1
889 886 -1
889 887 -1
889 889 6
890 887 -1
890 888 -1
890 889 -1
890 890 6
891 595 -1
891 888 -1
891 889 -1
891 890 -1
891 891 7
892 889 -1
892 890 -1
892 891 -1
892 892 6
893 890 -1
893 891 -1
893 892 -1
893 893 6
894 891 -1
894 892 -1
894 893 -1
894 894 6
895 892 -1
895 893 -1
895 894 -1
895 895 6
896 545 -1
896 893 -1
896 894 -1
896 895 -1
896 896 7
897 523 -1
897 894 -1
897 895 -1
897 897 6
898 895 -1
898 897 -1
898 898 6
899 354 -1
899 896 -1
899 898 -1
899 899 6
900 897 -1
900 898 -1
900 899 -1
900 900 6
901 898 -1
901 899 -1
901 900 -1
901 901 7
902 899 -1
902 901 -1
902 902 5
903 900 -1
903 901 -1
903 902 -1
903 903 6
904 901 -1
904 902 -1
904 903 -1
904 904 6
905 902 -1
905 903 -1
905 904 -1
905 905 7
906 169 -1
906 903 -1
906 904 -1
906 905 -1
906 906 8
907 210 -1
907 904 -1
907 905 -1
907 906 -1
907 907 6
908 906 -1
908 907 -1
908 908 5
909 906 -1
909 908 -1
909 909 5
910 265 -1
910 908 -1
910 909 -1
910 910 6
911 908 -1
911 909 -1
911 910 -1
911 911 6
912 909 -1
912 910 -1
912 911 -1
912 912 6
913 910 -1
913 911 -1
913 912 -1
913 913 6
914 911 -1
914 912 -1
914 913 -1
914 914 6
915 912 -1
915 913 -1
915 914 -1
915 915 6
916 77 -1
916 913 -1
916 914 -1
916 915 -1
916 916 6
917 914 -1
917 915 -1
917 917 5
918 915 -1
918 917 -1
918 918 5
919 916 -1
919 918 -1
919 919 5
920 917 -1
920 918 -1
920 920 5
921 918 -1
921 919 -1
921 920 -1
921 921 6
922 919 -1
922 920 -1
922 921 -1
922 922 6
923 920 -1
923 921 -1
923 922 -1
923 923 6
924 547 -1
924 921 -1
924 922 -1
924 923 -1
924 924 7
925 712 -1
925 922 -1
925 923 -1
925 924 -1
925 925 6
926 923 -1
926 924 -1
926 925 -1
926 926 6
927 391 -1
927 924 -1
927 925 -1
927 926 -1
927 927 7
928 926 -1
928 927 -1
928 928 5
929 926 -1
929 927 -1
929 928 -1
929 929 6
930 927 -1
930 928 -1
930 930 5
931 928 -1
931 929 -1
931 930 -1
931 931 6
932 929 -1
932 930 -1
932 931 -1
932 932 6
933 432 -1
933 930 -1
933 931 -1
933 932 -1
933 933 6
934 931 -1
934 932 -1
934 933 -1
934 934 6
935 932 -1
935 933 -1
935 934 -1
935 935 6
936 780 -1
936 934 -1
936 935 -1
936 936 7
937 934 -1
937 935 -1
937 936 -1
937 937 6
938 935 -1
938 936 -1
938 937 -1
938 938 6
939 237 -1
939 855 -1
939 936 -1
939 937 -1
939 938 -1
939 939 8
940 937 -1
940 938 -1
940 939 -1
940 940 6
941 30 -1
941 938 -1
941 939 -1
941 940 -1
941 941 7
942 566 -1
942 939 -1
942 941 -1
942 942 5
943 940 -1
943 941 -1
943 943 6
944 941 -1
944 942 -1
944 943 -1
944 944 7
945 942 -1
945 943 -1
945 944 -1
945 945 6
946 943 -1
946 944 -1
946 945 -1
946 946 7
947 298 -1
947 944 -1
947 945 -1
947 946 -1
947 947 7
948 945 -1
948 946 -1
948 947 -1
948 948 6
949 946 -1
949 947 -1
949 948 -1
949 949 6
950 684 -1
950 947 -1
950 948 -1
950 949 -1
950 950 6
951 948 -1
951 949 -1
951 951 5
952 949 -1
952 950 -1
952 951 -1
952 952 6
953 25 -1
953 826 -1
953 950 -1
953 951 -1
953 952 -1
953 953 8
954 951 -1
954 952 -1
954 953 -1
954 954 6
955 952 -1
955 955 4
956 953 -1
956 954 -1
956 955 -1
956 956 6
957 954 -1
957 955 -1
957 956 -1
957 957 6
958 955 -1
958 956 -1
958 957 -1
958 958 6
959 956 -1
959 957 -1
959 958 -1
959 959 6
960 957 -1
960 958 -1
960 959 -1
960 960 6
961 297 -1
961 958 -1
961 959 -1
961 960 -1
961 961 6
962 864 -1
962 959 -1
962 960 -1
962 962 5
963 960 -1
963 961 -1
963 962 -1
963 963 8
964 139 -1
964 314 -1
964 961 -1
964 962 -1
964 963 -1
964 964 7
965 442 -1
965 963 -1
965 964 -1
965 965 5
966 124 -1
966 963 -1
966 965 -1
966 966 5
967 964 -1
967 966 -1
967 967 6
968 965 -1
968 967 -1
968 968 5
969 767 -1
969 966 -1
969 967 -1
969 968 -1
969 969 7
970 967 -1
970 968 -1
970 969 -1
970 970 7
971 544 -1
971 968 -1
971 969 -1
971 970 -1
971 971 6
972 107 -1
972 863 -1
972 969 -1
972 970 -1
972 972 6
973 970 -1
973 971 -1
973 973 5
974 521 -1
974 971 -1
974 972 -1
974 973 -1
974 974 7
975 730 -1
975 972 -1
975 973 -1
975 974 -1
975 975 7
976 973 -1
976 974 -1
976 975 -1
976 976 6
977 162 -1
977 896 -1
977 975 -1
977 976 -1
977 977 6
978 975 -1
978 976 -1
978 977 -1
978 978 6
979 610 -1
979 976 -1
979 978 -1
979 979 6
980 977 -1
980 978 -1
980 979 -1
980 980 6
981 978 -1
981 979 -1
981 980 -1
981 981 7
982 979 -1
982 980 -1
982 982 5
983 249 -1
983 980 -1
983 981 -1
983 982 -1
983 983 6
984 113 -1
984 981 -1
984 982 -1
984 983 -1
984 984 7
985 981 -1
985 982 -1
985 983 -1
985 984 -1
985 985 6
986 984 -1
986 986 4
987 984 -1
987 985 -1
987 986 -1
987 987 6
988 985 -1
988 987 -1
988 988 5
989 986 -1
989 987 -1
989 988 -1
989 989 6
990 987 -1
990 988 -1
990 989 -1
990 990 6
991 988 -1
991 989 -1
991 990 -1
991 991 6
992 989 -1
992 990 -1
992 991 -1
992 992 6
993 990 -1
993 991 -1
993 992 -1
993 993 6
994 991 -1
994 992 -1
994 993 -1
994 994 6
995 992 -1
995 993 -1
995 994 -1
995 995 6
996 993 -1
996 995 -1
996 996 5
997 994 -1
997 995 -1
997 996 -1
997 997 6
998 995 -1
998 996 -1
998 997 -1
998 998 6
999 997 -1
999 998 -1
999 999 5
1000 997 -1
1000 998 -1
1000 999 -1
1000 1000 6
1001 998 -1
1001 999 -1
1001 1000 -1
1001 1001 6
1002 999 -1
1002 1000 -1
1002 1001 -1
1002 1002 6
1003 929 -1
1003 1000 -1
1003 1001 -1
1003 1002 -1
1003 1003 7
1004 1001 -1
1004 1002 -1
1004 1003 -1
1004 1004 6
1005 1002 -1
1005 1003 -1
1005 1004 -1
1005 1005 6
1006 332 -1
1006 1003 -1
1006 1004 -1
1006 1005 -1
1006 1006 6
1007 1004 -1
1007 1005 -1
1007 1006 -1
1007 1007 6
1008 612 -1
1008 1005 -1
1008 1006 -1
1008 1007 -1
1008 1008 8
1009 1007 -1
1009 1008 -1
1009 1009 5
1010 1007 -1
1010 1008 -1
1010 1009 -1
1010 1010 6
1011 880 -1
1011 1008 -1
1011 1009 -1
1011 1010 -1
1011 1011 6
1012 1009 -1
1012 1010 -1
1012 1011 -1
1012 1012 6
1013 1010 -1
1013 1012 -1
1013 1013 5
1014 52 -1
1014 1011 -1
1014 1012 -1
1014 1013 -1
1014 1014 7
1015 1012 -1
1015 1014 -1
1015 1015 5
1016 1013 -1
1016 1014 -1
1016 1015 -1
1016 1016 6
1017 168 -1
1017 1014 -1
1017 1015 -1
1017 1016 -1
1017 1017 7
1018 1015 -1
1018 1016 -1
1018 1017 -1
1018 1018 6
1019 26 -1
1019 1016 -1
1019 1017 -1
1019 1018 -1
1019 1019 7
1020 1017 -1
1020 1019 -1
1020 1020 5
1021 175 -1
1021 1018 -1
1021 1019 -1
1021 1020 -1
1021 1021 6
1022 198 -1
1022 1019 -1
1022 1020 -1
1022 1022 5
1023 1020 -1
1023 1021 -1
1023 1023 5
1024 1021 -1
1024 1022 -1
1024 1023 -1
1024 1024 7
1025 1022 -1
1025 1023 -1
1025 1024 -1
1025 1025 6
1026 26 -1
1026 1023 -1
1026 1024 -1
1026 1025 -1
1026 1026 6
1027 1024 -1
1027 1025 -1
1027 1027 5
1028 970 -1
1028 1025 -1
1028 1027 -1
1028 1028 5
1029 775 -1
1029 1026 -1
1029 1027 -1
1029 1028 -1
1029 1029 7
1030 519 -1
1030 814 -1
1030 1027 -1
1030 1028 -1
1030 1029 -1
1030 1030 7
1031 1029 -1
1031 1030 -1
1031 1031 5
1032 358 -1
1032 1029 -1
1032 1030 -1
1032 1031 -1
1032 1032 7
1033 67 -1
1033 1031 -1
1033 1032 -1
1033 1033 6
1034 590 -1
1034 1031 -1
1034 1032 -1
1034 1033 -1
1034 1034 6
1035 448 -1
1035 799 -1
1035 1032 -1
1035 1033 -1
1035 1035 6
1036 474 -1
1036 1033 -1
1036 1034 -1
1036 1035 -1
1036 1036 7
1037 1034 -1
1037 1035 -1
1037 1036 -1
1037 1037 6
1038 1036 -1
1038 1037 -1
1038 1038 5
1039 1036 -1
1039 1037 -1
1039 1038 -1
1039 1039 6
1040 1037 -1
1040 1038 -1
1040 1039 -1
1040 1040 6
1041 215 -1
1041 764 -1
1041 1038 -1
1041 1039 -1
1041 1040 -1
1041 1041 7
1042 1039 -1
1042 1040 -1
1042 1041 -1
1042 1042 6
1043 1040 -1
1043 1042 -1
1043 1043 5
1044 458 -1
1044 1041 -1
1044 1042 -1
1044 1043 -1
1044 1044 6
1045 1043 -1
1045 1044 -1
1045 1045 5
1046 1043 -1
1046 1045 -1
1046 1046 5
1047 1044 -1
1047 1045 -1
1047 1046 -1
1047 1047 6
1048 178 -1
1048 953 -1
1048 1045 -1
1048 1046 -1
1048 1047 -1
1048 1048 7
1049 1046 -1
1049 1047 -1
1049 1048 -1
1049 1049 6
1050 1047 -1
1050 1049 -1
1050 1050 5
1051 1048 -1
1051 1049 -1
1051 1050 -1
1051 1051 6
1052 936 -1
1052 1049 -1
1052 1050 -1
1052 1051 -1
1052 1052 6
1053 411 -1
1053 1050 -1
1053 1051 -1
1053 1053 5
1054 1051 -1
1054 1053 -1
1054 1054 5
1055 1052 -1
1055 1054 -1
1055 1055 5
1056 846 -1
1056 1053 -1
1056 1054 -1
1056 1055 -1
1056 1056 8
1057 1054 -1
1057 1055 -1
1057 1056 -1
1057 1057 6
1058 1055 -1
1058 1056 -1
1058 1057 -1
1058 1058 6
1059 294 -1
1059 475 -1
1059 1056 -1
1059 1057 -1
1059 1058 -1
1059 1059 7
1060 1057 -1
1060 1058 -1
1060 1060 5
1061 1058 -1
1061 1059 -1
1061 1060 -1
1061 1061 6
1062 1059 -1
1062 1060 -1
1062 1061 -1
1062 1062 6
1063 631 -1
1063 1060 -1
1063 1061 -1
1063 1062 -1
1063 1063 6
1064 1061 -1
1064 1062 -1
1064 1063 -1
1064 1064 6
1065 1062 -1
1065 1063 -1
1065 1065 5
1066 1064 -1
1066 1065 -1
1066 1066 5
1067 280 -1
1067 1064 -1
1067 1065 -1
1067 1066 -1
1067 1067 6
1068 1065 -1
1068 1066 -1
1068 1067 -1
1068 1068 6
1069 1066 -1
1069 1068 -1
1069 1069 5
1070 1008 -1
1070 1068 -1
1070 1069 -1
1070 1070 5
1071 1068 -1
1071 1069 -1
1071 1070 -1
1071 1071 6
1072 108 -1
1072 1069 -1
1072 1070 -1
1072 1071 -1
1072 1072 6
1073 882 -1
1073 1071 -1
1073 1073 4
1074 1071 -1
1074 1073 -1
1074 1074 6
1075 168 -1
1075 1072 -1
1075 1073 -1
1075 1074 -1
1075 1075 6
1076 1074 -1
1076 1076 4
1077 1074 -1
1077 1075 -1
1077 1076 -1
1077 1077 6
1078 1075 -1
1078 1076 -1
1078 1077 -1
1078 1078 7
1079 1076 -1
1079 1077 -1
1079 1078 -1
1079 1079 6
1080 1077 -1
1080 1078 -1
1080 1079 -1
1080 1080 6
1081 1078 -1
1081 1079 -1
1081 1080 -1
1081 1081 6
1082 1079 -1
1082 1080 -1
1082 1081 -1
1082 1082 6
1083 475 -1
1083 1080 -1
1083 1081 -1
1083 1082 -1
1083 1083 6
1084 1081 -1
1084 1082 -1
1084 1083 -1
1084 1084 6
1085 1082 -1
1085 1084 -1
1085 1085 5
1086 745 -1
1086 1083 -1
1086 1084 -1
1086 1085 -1
1086 1086 7
1087 1064 -1
1087 1084 -1
1087 1085 -1
1087 1086 -1
1087 1087 7
1088 180 -1
1088 810 -1
1088 1085 -1
1088 1086 -1
1088 1087 -1
1088 1088 7
1089 196 -1
1089 1087 -1
1089 1089 4
1090 419 -1
1090 1087 -1
1090 1088 -1
1090 1089 -1
1090 1090 6
1091 130 -1
1091 1088 -1
1091 1091 5
1092 523 -1
1092 1089 -1
1092 1090 -1
1092 1091 -1
1092 1092 8
1093 1090 -1
1093 1091 -1
1093 1092 -1
1093 1093 6
1094 97 -1
1094 597 -1
1094 1091 -1
1094 1092 -1
1094 1093 -1
1094 1094 8
1095 1092 -1
1095 1093 -1
1095 1094 -1
1095 1095 6
1096 882 -1
1096 1093 -1
1096 1095 -1
1096 1096 5
1097 1094 -1
1097 1095 -1
1097 1097 5
1098 1095 -1
1098 1096 -1
1098 1097 -1
1098 1098 6
1099 896 -1
1099 1096 -1
1099 1097 -1
1099 1098 -1
1099 1099 7
1100 1097 -1
1100 1098 -1
1100 1099 -1
1100 1100 6
1101 919 -1
1101 1098 -1
1101 1099 -1
1101 1100 -1
1101 1101 7
1102 240 -1
1102 1099 -1
1102 1100 -1
1102 1101 -1
1102 1102 7
1103 87 -1
1103 344 -1
1103 1100 -1
1103 1101 -1
1103 1102 -1
1103 1103 7
1104 102 -1
1104 416 -1
1104 1101 -1
1104 1102 -1
1104 1104 6
1105 1102 -1
1105 1103 -1
1105 1104 -1
1105 1105 6
1106 210 -1
1106 642 -1
1106 1103 -1
1106 1105 -1
1106 1106 6
1107 1105 -1
1107 1107 4
1108 1105 -1
1108 1106 -1
1108 1107 -1
1108 1108 6
1109 907 -1
1109 1107 -1
1109 1108 -1
1109 1109 6
1110 185 -1
1110 1067 -1
1110 1107 -1
1110 1108 -1
1110 1109 -1
1110 1110 7
1111 1108 -1
1111 1109 -1
1111 1110 -1
1111 1111 6
1112 666 -1
1112 1109 -1
1112 1110 -1
1112 1111 -1
1112 1112 6
1113 1111 -1
1113 1113 4
1114 1111 -1
1114 1112 -1
1114 1113 -1
1114 1114 6
1115 1112 -1
1115 1113 -1
1115 1114 -1
1115 1115 6
1116 1113 -1
1116 1114 -1
1116 1115 -1
1116 1116 6
1117 1114 -1
1117 1115 -1
1117 1116 -1
1117 1117 6
1118 1115 -1
1118 1116 -1
1118 1117 -1
1118 1118 6
1119 1116 -1
1119 1118 -1
1119 1119 6
1120 1117 -1
1120 1118 -1
1120 1119 -1
1120 1120 6
1121 1118 -1
1121 1119 -1
1121 1120 -1
1121 1121 6
1122 636 -1
1122 804 -1
1122 1119 -1
1122 1120 -1
1122 1121 -1
1122 1122 6
1123 963 -1
1123 1120 -1
1123 1121 -1
1123 1123 5
1124 1121 -1
1124 1122 -1
1124 1123 -1
1124 1124 6
1125 1123 -1
1125 1124 -1
1125 1125 5
1126 1124 -1
1126 1125 -1
1126 1126 6
1127 613 -1
1127 1124 -1
1127 1125 -1
1127 1127 5
1128 184 -1
1128 1125 -1
1128 1126 -1
1128 1127 -1
1128 1128 7
1129 1126 -1
1129 1128 -1
1129 1129 5
1130 481 -1
1130 829 -1
1130 1127 -1
1130 1128 -1
1130 1129 -1
1130 1130 7
1131 1129 -1
1131 1130 -1
1131 1131 5
1132 1129 -1
1132 1131 -1
1132 1132 5
1133 944 -1
1133 1130 -1
1133 1131 -1
1133 1132 -1
1133 1133 6
1134 209 -1
1134 1131 -1
1134 1132 -1
1134 1133 -1
1134 1134 6
1135 1132 -1
1135 1133 -1
1135 1134 -1
1135 1135 6
1136 253 -1
1136 954 -1
1136 1135 -1
1136 1136 6
1137 456 -1
1137 1134 -1
1137 1135 -1
1137 1136 -1
1137 1137 7
1138 1136 -1
1138 1137 -1
1138 1138 5
1139 1136 -1
1139 1138 -1
1139 1139 5
1140 1137 -1
1140 1138 -1
1140 1139 -1
1140 1140 6
1141 1138 -1
1141 1139 -1
1141 1140 -1
1141 1141 6
1142 1126 -1
1142 1139 -1
1142 1140 -1
1142 1141 -1
1142 1142 6
1143 1140 -1
1143 1141 -1
1143 1142 -1
1143 1143 6
1144 1141 -1
1144 1142 -1
1144 1143 -1
1144 1144 6
1145 1143 -1
1145 1144 -1
1145 1145 5
1146 133 -1
1146 586 -1
1146 1143 -1
1146 1144 -1
1146 1145 -1
1146 1146 7
1147 1144 -1
1147 1145 -1
1147 1146 -1
1147 1147 6
1148 1145 -1
1148 1147 -1
1148 1148 5
1149 1146 -1
1149 1147 -1
1149 1148 -1
1149 1149 6
1150 680 -1
1150 1147 -1
1150 1148 -1
1150 1149 -1
1150 1150 6
1151 1026 -1
1151 1148 -1
1151 1149 -1
1151 1150 -1
1151 1151 7
1152 1149 -1
1152 1151 -1
1152 1152 5
1153 906 -1
1153 1150 -1
1153 1151 -1
1153 1152 -1
1153 1153 6
1154 916 -1
1154 1151 -1
1154 1152 -1
1154 1154 6
1155 1152 -1
1155 1154 -1
1155 1155 5
1156 1153 -1
1156 1154 -1
1156 1155 -1
1156 1156 6
1157 87 -1
1157 1154 -1
1157 1155 -1
1157 1156 -1
1157 1157 6
1158 946 -1
1158 1155 -1
1158 1156 -1
1158 1157 -1
1158 1158 6
1159 1156 -1
1159 1157 -1
1159 1159 5
1160 588 -1
1160 1158 -1
1160 1159 -1
1160 1160 5
1161 185 -1
1161 1018 -1
1161 1158 -1
1161 1159 -1
1161 1161 6
1162 67 -1
1162 1159 -1
1162 1160 -1
1162 1162 6
1163 1160 -1
1163 1161 -1
1163 1162 -1
1163 1163 6
1164 1161 -1
1164 1162 -1
1164 1163 -1
1164 1164 6
1165 1162 -1
1165 1163 -1
1165 1164 -1
1165 1165 6
1166 1163 -1
1166 1164 -1
1166 1165 -1
1166 1166 6
1167 1164 -1
1167 1165 -1
1167 1166 -1
1167 1167 6
1168 1165 -1
1168 1166 -1
1168 1167 -1
1168 1168 6
1169 729 -1
1169 1166 -1
1169 1167 -1
1169 1168 -1
1169 1169 6
1170 785 -1
1170 1167 -1
1170 1168 -1
1170 1169 -1
1170 1170 8
1171 1168 -1
1171 1169 -1
1171 1170 -1
1171 1171 8
1172 1171 -1
1172 1172 4
1173 1170 -1
1173 1171 -1
1173 1172 -1
1173 1173 6
1174 212 -1
1174 1171 -1
1174 1172 -1
1174 1173 -1
1174 1174 6
1175 1172 -1
1175 1173 -1
1175 1175 5
1176 1153 -1
1176 1173 -1
1176 1174 -1
1176 1175 -1
1176 1176 7
1177 1174 -1
1177 1175 -1
1177 1176 -1
1177 1177 6
1178 1175 -1
1178 1176 -1
1178 1177 -1
1178 1178 6
1179 1176 -1
1179 1177 -1
1179 1179 5
1180 448 -1
1180 1177 -1
1180 1178 -1
1180 1179 -1
1180 1180 7
1181 1178 -1
1181 1179 -1
1181 1180 -1
1181 1181 6
1182 1179 -1
1182 1180 -1
1182 1181 -1
1182 1182 6
1183 1180 -1
1183 1181 -1
1183 1182 -1
1183 1183 6
1184 1181 -1
1184 1182 -1
1184 1183 -1
1184 1184 6
1185 1182 -1
1185 1183 -1
1185 1184 -1
1185 1185 6
1186 1183 -1
1186 1184 -1
1186 1185 -1
1186 1186 6
1187 1184 -1
1187 1185 -1
1187 1186 -1
1187 1187 6
1188 1185 -1
1188 1186 -1
1188 1187 -1
1188 1188 6
1189 1186 -1
1189 1187 -1
1189 1188 -1
1189 1189 6
1190 1187 -1
1190 1188 -1
1190 1189 -1
1190 1190 6
1191 967 -1
1191 1188 -1
1191 1189 -1
1191 1190 -1
1191 1191 6
1192 194 -1
1192 1189 -1
1192 1190 -1
1192 1191 -1
1192 1192 6
1193 1190 -1
1193 1193 4
1194 1191 -1
1194 1192 -1
1194 1193 -1
1194 1194 6
1195 1192 -1
1195 1193 -1
1195 1194 -1
1195 1195 6
1196 1193 -1
1196 1194 -1
1196 1195 -1
1196 1196 6
1197 211 -1
1197 318 -1
1197 1194 -1
1197 1195 -1
1197 1196 -1
1197 1197 7
1198 1195 -1
1198 1196 -1
1198 1197 -1
1198 1198 6
1199 1196 -1
1199 1197 -1
1199 1198 -1
1199 1199 6
1200 1198 -1
1200 1199 -1
1200 1200 5
1201 450 -1
1201 1198 -1
1201 1199 -1
1201 1201 5
1202 1199 -1
1202 1200 -1
1202 1201 -1
1202 1202 7
1203 1200 -1
1203 1202 -1
1203 1203 5
1204 1201 -1
1204 1202 -1
1204 1203 -1
1204 1204 6
1205 1202 -1
1205 1203 -1
1205 1204 -1
1205 1205 6
1206 1203 -1
1206 1204 -1
1206 1205 -1
1206 1206 6
1207 1204 -1
1207 1205 -1
1207 1206 -1
1207 1207 6
1208 1205 -1
1208 1206 -1
1208 1207 -1
1208 1208 6
1209 1206 -1
1209 1207 -1
1209 1208 -1
1209 1209 6
1210 1104 -1
1210 1207 -1
1210 1208 -1
1210 1209 -1
1210 1210 6
1211 1208 -1
1211 1209 -1
1211 1210 -1
1211 1211 6
1212 1209 -1
1212 1210 -1
1212 1211 -1
1212 1212 6
1213 1211 -1
1213 1212 -1
1213 1213 5
1214 1211 -1
1214 1212 -1
1214 1213 -1
1214 1214 6
1215 1212 -1
1215 1213 -1
1215 1214 -1
1215 1215 6
1216 897 -1
1216 1213 -1
1216 1214 -1
1216 1215 -1
1216 1216 7
1217 349 -1
1217 1214 -1
1217 1215 -1
1217 1216 -1
1217 1217 7
1218 1215 -1
1218 1216 -1
1218 1217 -1
1218 1218 6
1219 1216 -1
1219 1217 -1
1219 1218 -1
1219 1219 6
1220 266 -1
1220 1217 -1
1220 1218 -1
1220 1219 -1
1220 1220 6
1221 1218 -1
1221 1219 -1
1221 1220 -1
1221 1221 6
1222 220 -1
1222 543 -1
1222 1220 -1
1222 1221 -1
1222 1222 6
1223 116 -1
1223 1221 -1
1223 1222 -1
1223 1223 5
1224 1170 -1
1224 1221 -1
1224 1222 -1
1224 1223 -1
1224 1224 6
1225 350 -1
1225 651 -1
1225 1224 -1
1225 1225 6
1226 759 -1
1226 1223 -1
1226 1224 -1
1226 1225 -1
1226 1226 7
1227 208 -1
1227 1225 -1
1227 1226 -1
1227 1227 5
1228 824 -1
1228 1225 -1
1228 1226 -1
1228 1228 6
1229 22 -1
1229 1226 -1
1229 1228 -1
1229 1229 6
1230 453 -1
1230 1227 -1
1230 1228 -1
1230 1229 -1
1230 1230 6
1231 1228 -1
1231 1229 -1
1231 1230 -1
1231 1231 6
1232 428 -1
1232 1229 -1
1232 1230 -1
1232 1231 -1
1232 1232 6
1233 1231 -1
1233 1232 -1
1233 1233 5
1234 1202 -1
1234 1231 -1
1234 1232 -1
1234 1233 -1
1234 1234 8
1235 1233 -1
1235 1234 -1
1235 1235 5
1236 1233 -1
1236 1235 -1
1236 1236 5
1237 1234 -1
1237 1235 -1
1237 1236 -1
1237 1237 6
1238 1235 -1
1238 1236 -1
1238 1237 -1
1238 1238 6
1239 1236 -1
1239 1237 -1
1239 1238 -1
1239 1239 6
1240 547 -1
1240 1237 -1
1240 1238 -1
1240 1239 -1
1240 1240 7
1241 1238 -1
1241 1239 -1
1241 1240 -1
1241 1241 6
1242 747 -1
1242 851 -1
1242 1239 -1
1242 1241 -1
1242 1242 6
1243 1240 -1
1243 1241 -1
1243 1243 5
1244 1241 -1
1244 1242 -1
1244 1243 -1
1244 1244 6
1245 145 -1
1245 1242 -1
1245 1243 -1
1245 1244 -1
1245 1245 6
1246 1244 -1
1246 1245 -1
1246 1246 5
1247 443 -1
1247 1244 -1
1247 1245 -1
1247 1246 -1
1247 1247 6
1248 1246 -1
1248 1247 -1
1248 1248 5
1249 1246 -1
1249 1247 -1
1249 1248 -1
1249 1249 6
1250 1248 -1
1250 1249 -1
1250 1250 5
1251 1248 -1
1251 1249 -1
1251 1250 -1
1251 1251 6
1252 1250 -1
1252 1251 -1
1252 1252 5
1253 1250 -1
1253 1251 -1
1253 1252 -1
1253 1253 6
1254 1251 -1
1254 1252 -1
1254 1253 -1
1254 1254 6
1255 1252 -1
1255 1253 -1
1255 1254 -1
1255 1255 6
1256 1253 -1
1256 1254 -1
1256 1255 -1
1256 1256 6
1257 996 -1
1257 1254 -1
1257 1255 -1
1257 1256 -1
1257 1257 7
1258 716 -1
1258 1227 -1
1258 1255 -1
1258 1256 -1
1258 1257 -1
1258 1258 8
1259 1256 -1
1259 1257 -1
1259 1258 -1
1259 1259 6
1260 1257 -1
1260 1258 -1
1260 1259 -1
1260 1260 6
1261 1258 -1
1261 1259 -1
1261 1260 -1
1261 1261 6
1262 1259 -1
1262 1260 -1
1262 1261 -1
1262 1262 6
1263 1260 -1
1263 1261 -1
1263 1262 -1
1263 1263 6
1264 1243 -1
1264 1261 -1
1264 1262 -1
1264 1263 -1
1264 1264 7
1265 1262 -1
1265 1263 -1
1265 1264 -1
1265 1265 6
1266 1263 -1
1266 1264 -1
1266 1265 -1
1266 1266 6
1267 1264 -1
1267 1265 -1
1267 1266 -1
1267 1267 6
1268 1234 -1
1268 1265 -1
1268 1266 -1
1268 1267 -1
1268 1268 6
1269 1266 -1
1269 1267 -1
1269 1268 -1
1269 1269 6
1270 1267 -1
1270 1269 -1
1270 1270 5
1271 1268 -1
1271 1269 -1
1271 1270 -1
1271 1271 6
1272 1269 -1
1272 1270 -1
1272 1271 -1
1272 1272 6
1273 1270 -1
1273 1271 -1
1273 1272 -1
1273 1273 6
1274 1271 -1
1274 1272 -1
1274 1273 -1
1274 1274 6
1275 1272 -1
1275 1273 -1
1275 1274 -1
1275 1275 6
1276 711 -1
1276 1273 -1
1276 1274 -1
1276 1275 -1
1276 1276 6
1277 1274 -1
1277 1275 -1
1277 1276 -1
1277 1277 6
1278 1275 -1
1278 1277 -1
1278 1278 5
1279 1276 -1
1279 1277 -1
1279 1278 -1
1279 1279 6
1280 1277 -1
1280 1278 -1
1280 1279 -1
1280 1280 6
1281 438 -1
1281 1086 -1
1281 1278 -1
1281 1279 -1
1281 1280 -1
1281 1281 8
1282 110 -1
1282 1279 -1
1282 1281 -1
1282 1282 5
1283 872 -1
1283 1280 -1
1283 1281 -1
1283 1283 6
1284 430 -1
1284 1281 -1
1284 1282 -1
1284 1283 -1
1284 1284 6
1285 7 -1
1285 1282 -1
1285 1283 -1
1285 1284 -1
1285 1285 7
1286 460 -1
1286 526 -1
1286 865 -1
1286 1283 -1
1286 1285 -1
1286 1286 6
1287 203 -1
1287 1284 -1
1287 1285 -1
1287 1287 5
1288 71 -1
1288 1285 -1
1288 1288 4
1289 898 -1
1289 1286 -1
1289 1287 -1
1289 1288 -1
1289 1289 6
1290 613 -1
1290 1287 -1
1290 1288 -1
1290 1289 -1
1290 1290 7
1291 1290 -1
1291 1291 4
1292 1289 -1
1292 1290 -1
1292 1291 -1
1292 1292 6
1293 153 -1
1293 1290 -1
1293 1291 -1
1293 1292 -1
1293 1293 7
1294 1291 -1
1294 1292 -1
1294 1293 -1
1294 1294 6
1295 1292 -1
1295 1293 -1
1295 1294 -1
1295 1295 6
1296 1293 -1
1296 1294 -1
1296 1295 -1
1296 1296 6
1297 316 -1
1297 1126 -1
1297 1294 -1
1297 1295 -1
1297 1296 -1
1297 1297 8
1298 163 -1
1298 1295 -1
1298 1296 -1
1298 1297 -1
1298 1298 6
1299 442 -1
1299 1296 -1
1299 1297 -1
1299 1299 5
1300 63 -1
1300 1298 -1
1300 1300 5
1301 53 -1
1301 1298 -1
1301 1299 -1
1301 1300 -1
1301 1301 7
1302 69 -1
1302 1299 -1
1302 1300 -1
1302 1301 -1
1302 1302 6
1303 943 -1
1303 1300 -1
1303 1301 -1
1303 1302 -1
1303 1303 6
1304 1301 -1
1304 1303 -1
1304 1304 5
1305 1302 -1
1305 1303 -1
1305 1304 -1
1305 1305 6
1306 349 -1
1306 1304 -1
1306 1305 -1
1306 1306 5
1307 476 -1
1307 860 -1
1307 1304 -1
1307 1305 -1
1307 1306 -1
1307 1307 7
1308 1305 -1
1308 1308 4
1309 191 -1
1309 1306 -1
1309 1307 -1
1309 1308 -1
1309 1309 6
1310 819 -1
1310 1024 -1
1310 1307 -1
1310 1308 -1
1310 1309 -1
1310 1310 6
1311 1308 -1
1311 1311 4
1312 135 -1
1312 1056 -1
1312 1309 -1
1312 1310 -1
1312 1311 -1
1312 1312 7
1313 665 -1
1313 1311 -1
1313 1313 4
1314 1311 -1
1314 1312 -1
1314 1313 -1
1314 1314 6
1315 1312 -1
1315 1313 -1
1315 1314 -1
1315 1315 6
1316 723 -1
1316 1314 -1
1316 1315 -1
1316 1316 5
1317 1314 -1
1317 1315 -1
1317 1317 5
1318 675 -1
1318 679 -1
1318 1315 -1
1318 1316 -1
1318 1317 -1
1318 1318 7
1319 1316 -1
1319 1317 -1
1319 1318 -1
1319 1319 6
1320 739 -1
1320 1317 -1
1320 1319 -1
1320 1320 5
1321 1078 -1
1321 1318 -1
1321 1319 -1
1321 1321 5
1322 667 -1
1322 1319 -1
1322 1320 -1
1322 1322 6
1323 1320 -1
1323 1321 -1
1323 1322 -1
1323 1323 6
1324 115 -1
1324 1178 -1
1324 1321 -1
1324 1322 -1
1324 1323 -1
1324 1324 7
1325 963 -1
1325 1322 -1
1325 1323 -1
1325 1324 -1
1325 1325 7
1326 793 -1
1326 1323 -1
1326 1324 -1
1326 1326 5
1327 1171 -1
1327 1325 -1
1327 1327 4
1328 1325 -1
1328 1326 -1
1328 1327 -1
1328 1328 6
1329 139 -1
1329 650 -1
1329 1326 -1
1329 1328 -1
1329 1329 6
1330 8 -1
1330 1327 -1
1330 1328 -1
1330 1330 6
1331 503 -1
1331 1328 -1
1331 1329 -1
1331 1330 -1
1331 1331 7
1332 917 -1
1332 1329 -1
1332 1331 -1
1332 1332 6
1333 1330 -1
1333 1331 -1
1333 1332 -1
1333 1333 6
1334 1331 -1
1334 1332 -1
1334 1333 -1
1334 1334 6
1335 480 -1
1335 489 -1
1335 1332 -1
1335 1333 -1
1335 1334 -1
1335 1335 8
1336 185 -1
1336 350 -1
1336 1119 -1
1336 1333 -1
1336 1334 -1
1336 1335 -1
1336 1336 7
1337 1074 -1
1337 1334 -1
1337 1335 -1
1337 1337 5
1338 1106 -1
1338 1335 -1
1338 1337 -1
1338 1338 5
1339 249 -1
1339 1336 -1
1339 1337 -1
1339 1338 -1
1339 1339 7
1340 1338 -1
1340 1339 -1
1340 1340 5
1341 767 -1
1341 1339 -1
1341 1340 -1
1341 1341 7
1342 231 -1
1342 1339 -1
1342 1340 -1
1342 1341 -1
1342 1342 7
1343 1340 -1
1343 1341 -1
1343 1342 -1
1343 1343 6
1344 1341 -1
1344 1342 -1
1344 1343 -1
1344 1344 6
1345 1342 -1
1345 1343 -1
1345 1344 -1
1345 1345 6
1346 1343 -1
1346 1344 -1
1346 1345 -1
1346 1346 6
1347 413 -1
1347 1072 -1
1347 1344 -1
1347 1345 -1
1347 1346 -1
1347 1347 7
1348 409 -1
1348 885 -1
1348 1052 -1
1348 1345 -1
1348 1346 -1
1348 1348 6
1349 940 -1
1349 1346 -1
1349 1347 -1
1349 1349 6
1350 167 -1
1350 294 -1
1350 901 -1
1350 981 -1
1350 1219 -1
1350 1347 -1
1350 1348 -1
1350 1349 -1
1350 1350 10
1351 736 -1
1351 1349 -1
1351 1350 -1
1351 1351 6
1352 1171 -1
1352 1349 -1
1352 1351 -1
1352 1352 5
1353 344 -1
1353 1350 -1
1353 1351 -1
1353 1352 -1
1353 1353 8
1354 1351 -1
1354 1352 -1
1354 1353 -1
1354 1354 6
1355 1325 -1
1355 1353 -1
1355 1354 -1
1355 1355 5
1356 243 -1
1356 322 -1
1356 705 -1
1356 1353 -1
1356 1356 6
1357 4 -1
1357 1094 -1
1357 1354 -1
1357 1355 -1
1357 1356 -1
1357 1357 8
1358 1355 -1
1358 1357 -1
1358 1358 5
1359 905 -1
1359 1042 -1
1359 1356 -1
1359 1357 -1
1359 1358 -1
1359 1359 8
1360 1200 -1
1360 1357 -1
1360 1358 -1
1360 1359 -1
1360 1360 7
1361 793 -1
1361 1358 -1
1361 1359 -1
1361 1360 -1
1361 1361 6
1362 1359 -1
1362 1360 -1
1362 1361 -1
1362 1362 6
1363 1360 -1
1363 1362 -1
1363 1363 5
1364 1135 -1
1364 1361 -1
1364 1362 -1
1364 1363 -1
1364 1364 7
1365 994 -1
1365 1362 -1
1365 1363 -1
1365 1364 -1
1365 1365 7
1366 1363 -1
1366 1364 -1
1366 1365 -1
1366 1366 6
1367 1364 -1
1367 1365 -1
1367 1366 -1
1367 1367 6
1368 1365 -1
1368 1366 -1
1368 1367 -1
1368 1368 6
1369 468 -1
1369 1366 -1
1369 1367 -1
1369 1368 -1
1369 1369 7
1370 1170 -1
1370 1367 -1
1370 1368 -1
1370 1369 -1
1370 1370 6
1371 239 -1
1371 1368 -1
1371 1370 -1
1371 1371 6
1372 1369 -1
1372 1371 -1
1372 1372 5
1373 1370 -1
1373 1371 -1
1373 1372 -1
1373 1373 6
1374 1234 -1
1374 1371 -1
1374 1372 -1
1374 1373 -1
1374 1374 6
1375 1372 -1
1375 1373 -1
1375 1375 6
1376 1373 -1
1376 1374 -1
1376 1375 -1
1376 1376 6
1377 1374 -1
1377 1375 -1
1377 1376 -1
1377 1377 6
1378 1375 -1
1378 1376 -1
1378 1377 -1
1378 1378 6
1379 1376 -1
1379 1377 -1
1379 1378 -1
1379 1379 6
1380 1377 -1
1380 1378 -1
1380 1379 -1
1380 1380 6
1381 1378 -1
1381 1379 -1
1381 1380 -1
1381 1381 6
1382 1379 -1
1382 1380 -1
1382 1381 -1
1382 1382 6
1383 1380 -1
1383 1381 -1
1383 1382 -1
1383 1383 6
1384 1381 -1
1384 1382 -1
1384 1383 -1
1384 1384 6
1385 1382 -1
1385 1383 -1
1385 1384 -1
1385 1385 6
1386 1383 -1
1386 1384 -1
1386 1385 -1
1386 1386 6
1387 1384 -1
1387 1385 -1
1387 1386 -1
1387 1387 6
1388 1385 -1
1388 1386 -1
1388 1387 -1
1388 1388 6
1389 1386 -1
1389 1387 -1
1389 1388 -1
1389 1389 6
1390 112 -1
1390 1387 -1
1390 1388 -1
1390 1389 -1
1390 1390 6
1391 795 -1
1391 1388 -1
1391 1389 -1
1391 1390 -1
1391 1391 6
1392 1375 -1
1392 1389 -1
1392 1390 -1
1392 1391 -1
1392 1392 6
1393 1393 3
1394 1391 -1
1394 1392 -1
1394 1393 -1
1394 1394 6
1395 1392 -1
1395 1393 -1
1395 1394 -1
1395 1395 6
1396 1393 -1
1396 1394 -1
1396 1395 -1
1396 1396 6
1397 1394 -1
1397 1395 -1
1397 1396 -1
1397 1397 7
1398 1395 -1
1398 1396 -1
1398 1397 -1
1398 1398 7
1399 1396 -1
1399 1398 -1
1399 1399 5
1400 1397 -1
1400 1398 -1
1400 1399 -1
1400 1400 6
1401 138 -1
1401 1398 -1
1401 1399 -1
1401 1400 -1
1401 1401 6
1402 1399 -1
1402 1400 -1
1402 1402 6
1403 1400 -1
1403 1401 -1
1403 1402 -1
1403 1403 6
1404 1401 -1
1404 1402 -1
1404 1403 -1
1404 1404 6
1405 1402 -1
1405 1403 -1
1405 1404 -1
1405 1405 6
1406 315 -1
1406 499 -1
1406 1117 -1
1406 1403 -1
1406 1404 -1
1406 1405 -1
1406 1406 8
1407 1404 -1
1407 1405 -1
1407 1407 5
1408 1405 -1
1408 1406 -1
1408 1407 -1
1408 1408 6
1409 1406 -1
1409 1407 -1
1409 1408 -1
1409 1409 6
1410 1407 -1
1410 1408 -1
1410 1409 -1
1410 1410 6
1411 1408 -1
1411 1409 -1
1411 1410 -1
1411 1411 6
1412 1409 -1
1412 1410 -1
1412 1411 -1
1412 1412 6
1413 141 -1
1413 1297 -1
1413 1410 -1
1413 1411 -1
1413 1412 -1
1413 1413 8
1414 412 -1
1414 1411 -1
1414 1412 -1
1414 1413 -1
1414 1414 6
1415 1412 -1
1415 1413 -1
1415 1414 -1
1415 1415 6
1416 565 -1
1416 1413 -1
1416 1414 -1
1416 1415 -1
1416 1416 6
1417 1341 -1
1417 1415 -1
1417 1416 -1
1417 1417 5
1418 1415 -1
1418 1417 -1
1418 1418 5
1419 1353 -1
1419 1416 -1
1419 1417 -1
1419 1418 -1
1419 1419 6
1420 1418 -1
1420 1419 -1
1420 1420 5
1421 1418 -1
1421 1419 -1
1421 1420 -1
1421 1421 6
1422 1420 -1
1422 1421 -1
1422 1422 5
1423 1420 -1
1423 1421 -1
1423 1422 -1
1423 1423 6
1424 974 -1
1424 1330 -1
1424 1421 -1
1424 1422 -1
1424 1423 -1
1424 1424 6
1425 900 -1
1425 1422 -1
1425 1423 -1
1425 1424 -1
1425 1425 7
1426 1423 -1
1426 1425 -1
1426 1426 5
1427 621 -1
1427 1354 -1
1427 1425 -1
1427 1426 -1
1427 1427 6
1428 1425 -1
1428 1426 -1
1428 1427 -1
1428 1428 6
1429 1426 -1
1429 1428 -1
1429 1429 5
1430 486 -1
1430 1427 -1
1430 1428 -1
1430 1429 -1
1430 1430 7
1431 986 -1
1431 1428 -1
1431 1429 -1
1431 1430 -1
1431 1431 7
1432 408 -1
1432 1429 -1
1432 1430 -1
1432 1431 -1
1432 1432 6
1433 1397 -1
1433 1430 -1
1433 1431 -1
1433 1432 -1
1433 1433 6
1434 1431 -1
1434 1432 -1
1434 1434 5
1435 120 -1
1435 1397 -1
1435 1433 -1
1435 1434 -1
1435 1435 7
1436 507 -1
1436 1433 -1
1436 1434 -1
1436 1435 -1
1436 1436 6
1437 1434 -1
1437 1435 -1
1437 1436 -1
1437 1437 6
1438 1435 -1
1438 1436 -1
1438 1437 -1
1438 1438 6
1439 1437 -1
1439 1438 -1
1439 1439 5
1440 905 -1
1440 1437 -1
1440 1438 -1
1440 1439 -1
1440 1440 6
1441 1402 -1
1441 1438 -1
1441 1439 -1
1441 1440 -1
1441 1441 6
1442 1439 -1
1442 1441 -1
1442 1442 5
1443 1240 -1
1443 1440 -1
1443 1441 -1
1443 1442 -1
1443 1443 7
1444 1442 -1
1444 1443 -1
1444 1444 5
1445 1442 -1
1445 1443 -1
1445 1444 -1
1445 1445 6
1446 1443 -1
1446 1444 -1
1446 1445 -1
1446 1446 6
1447 1444 -1
1447 1445 -1
1447 1446 -1
1447 1447 6
1448 1445 -1
1448 1446 -1
1448 1447 -1
1448 1448 6
1449 1446 -1
1449 1447 -1
1449 1448 -1
1449 1449 6
1450 1447 -1
1450 1448 -1
1450 1449 -1
1450 1450 6
1451 31 -1
1451 1448 -1
1451 1449 -1
1451 1450 -1
1451 1451 7
1452 1137 -1
1452 1280 -1
1452 1449 -1
1452 1450 -1
1452 1451 -1
1452 1452 7
1453 1450 -1
1453 1451 -1
1453 1452 -1
1453 1453 6
1454 395 -1
1454 1451 -1
1454 1452 -1
1454 1453 -1
1454 1454 6
1455 1453 -1
1455 1454 -1
1455 1455 5
1456 1453 -1
1456 1455 -1
1456 1456 5
1457 68 -1
1457 816 -1
1457 1454 -1
1457 1455 -1
1457 1456 -1
1457 1457 6
1458 1455 -1
1458 1456 -1
1458 1458 5
1459 1013 -1
1459 1456 -1
1459 1458 -1
1459 1459 6
1460 1457 -1
1460 1458 -1
1460 1459 -1
1460 1460 6
1461 1458 -1
1461 1459 -1
1461 1460 -1
1461 1461 6
1462 1459 -1
1462 1460 -1
1462 1461 -1
1462 1462 6
1463 168 -1
1463 650 -1
1463 1369 -1
1463 1460 -1
1463 1461 -1
1463 1462 -1
1463 1463 8
1464 1128 -1
1464 1461 -1
1464 1462 -1
1464 1464 6
1465 1462 -1
1465 1463 -1
1465 1464 -1
1465 1465 6
1466 763 -1
1466 1463 -1
1466 1464 -1
1466 1465 -1
1466 1466 6
1467 1464 -1
1467 1465 -1
1467 1466 -1
1467 1467 6
1468 1465 -1
1468 1467 -1
1468 1468 5
1469 1466 -1
1469 1467 -1
1469 1468 -1
1469 1469 6
1470 1467 -1
1470 1468 -1
1470 1469 -1
1470 1470 6
1471 1468 -1
1471 1469 -1
1471 1470 -1
1471 1471 6
1472 1469 -1
1472 1470 -1
1472 1471 -1
1472 1472 6
1473 792 -1
1473 1470 -1
1473 1471 -1
1473 1472 -1
1473 1473 7
1474 1471 -1
1474 1472 -1
1474 1473 -1
1474 1474 6
1475 255 -1
1475 561 -1
1475 1472 -1
1475 1473 -1
1475 1474 -1
1475 1475 7
1476 57 -1
1476 514 -1
1476 1473 -1
1476 1474 -1
1476 1476 6
1477 1474 -1
1477 1475 -1
1477 1476 -1
1477 1477 6
1478 1475 -1
1478 1477 -1
1478 1478 5
1479 104 -1
1479 1476 -1
1479 1477 -1
1479 1478 -1
1479 1479 7
1480 433 -1
1480 483 -1
1480 1477 -1
1480 1478 -1
1480 1479 -1
1480 1480 8
1481 1478 -1
1481 1479 -1
1481 1480 -1
1481 1481 6
1482 179 -1
1482 1479 -1
1482 1480 -1
1482 1481 -1
1482 1482 7
1483 1480 -1
1483 1481 -1
1483 1482 -1
1483 1483 6
1484 402 -1
1484 403 -1
1484 1092 -1
1484 1481 -1
1484 1482 -1
1484 1483 -1
1484 1484 7
1485 1482 -1
1485 1483 -1
1485 1485 5
1486 1249 -1
1486 1398 -1
1486 1483 -1
1486 1484 -1
1486 1485 -1
1486 1486 7
1487 271 -1
1487 1485 -1
1487 1486 -1
1487 1487 5
1488 1485 -1
1488 1487 -1
1488 1488 5
1489 1486 -1
1489 1488 -1
1489 1489 5
1490 517 -1
1490 1487 -1
1490 1488 -1
1490 1489 -1
1490 1490 6
1491 1488 -1
1491 1489 -1
1491 1490 -1
1491 1491 6
1492 1489 -1
1492 1491 -1
1492 1492 5
1493 1490 -1
1493 1491 -1
1493 1492 -1
1493 1493 6
1494 1491 -1
1494 1492 -1
1494 1493 -1
1494 1494 6
1495 1492 -1
1495 1493 -1
1495 1494 -1
1495 1495 6
1496 688 -1
1496 1493 -1
1496 1494 -1
1496 1495 -1
1496 1496 7
1497 1494 -1
1497 1495 -1
1497 1496 -1
1497 1497 6
1498 1 -1
1498 1495 -1
1498 1496 -1
1498 1497 -1
1498 1498 6
1499 1 -1
1499 2 -1
1499 128 -1
1499 1496 -1
1499 1497 -1
1499 1498 -1
1499 1499 7
1500 2 -1
1500 3 -1
1500 94 -1
1500 1497 -1
1500 1498 -1
1500 1499 -1
1500 1500 6
