105 2708 2708
3 1 1.000000
48 2 1.000000
22 3 1.000000
22 4 1.000000
13 5 1.000000
58 6 1.000000
90 7 1.000000
3 8 1.000000
3 9 1.000000
75 10 1.000000
104 11 1.000000
63 12 1.000000
18 13 1.000000
34 14 1.000000
3 15 1.000000
77 16 1.000000
22 17 1.000000
78 18 1.000000
89 19 1.000000
60 20 1.000000
75 21 1.000000
74 22 1.000000
69 23 1.000000
91 24 1.000000
22 25 1.000000
100 26 1.000000
78 27 1.000000
18 28 1.000000
64 29 1.000000
8 30 1.000000
27 31 1.000000
13 32 1.000000
27 33 1.000000
53 34 1.000000
32 35 1.000000
32 36 1.000000
53 37 1.000000
67 38 1.000000
67 39 1.000000
22 40 1.000000
100 41 1.000000
36 42 1.000000
44 43 1.000000
84 44 1.000000
82 45 1.000000
58 46 1.000000
77 47 1.000000
87 48 1.000000
71 49 1.000000
23 50 1.000000
23 51 1.000000
86 52 1.000000
34 53 1.000000
30 54 1.000000
46 55 1.000000
44 56 1.000000
26 57 1.000000
22 58 1.000000
85 59 1.000000
84 60 1.000000
74 61 1.000000
5 62 1.000000
58 63 1.000000
22 64 1.000000
27 65 1.000000
102 66 1.000000
88 67 1.000000
56 68 1.000000
42 69 1.000000
88 70 1.000000
28 71 1.000000
8 72 1.000000
78 73 1.000000
78 74 1.000000
60 75 1.000000
101 76 1.000000
92 77 1.000000
16 78 1.000000
42 79 1.000000
47 80 1.000000
77 81 1.000000
5 82 1.000000
22 83 1.000000
78 84 1.000000
18 85 1.000000
22 86 1.000000
99 87 1.000000
87 88 1.000000
82 89 1.000000
96 90 1.000000
60 91 1.000000
89 92 1.000000
66 93 1.000000
71 94 1.000000
36 95 1.000000
91 96 1.000000
7 97 1.000000
104 98 1.000000
70 99 1.000000
91 100 1.000000
24 101 1.000000
64 102 1.000000
83 103 1.000000
22 104 1.000000
78 105 1.000000
79 106 1.000000
48 107 1.000000
13 108 1.000000
13 109 1.000000
100 110 1.000000
89 111 1.000000
16 112 1.000000
63 113 1.000000
78 114 1.000000
100 115 1.000000
36 116 1.000000
82 117 1.000000
18 118 1.000000
74 119 1.000000
34 120 1.000000
44 121 1.000000
37 122 1.000000
89 123 1.000000
78 124 1.000000
89 125 1.000000
42 126 1.000000
36 127 1.000000
89 128 1.000000
22 129 1.000000
69 130 1.000000
75 131 1.000000
92 132 1.000000
16 133 1.000000
92 134 1.000000
14 135 1.000000
7 136 1.000000
97 137 1.000000
36 138 1.000000
36 139 1.000000
44 140 1.000000
90 141 1.000000
44 142 1.000000
77 143 1.000000
16 144 1.000000
43 145 1.000000
67 146 1.000000
78 147 1.000000
7 148 1.000000
32 149 1.000000
88 150 1.000000
23 151 1.000000
96 152 1.000000
77 153 1.000000
74 154 1.000000
60 155 1.000000
18 156 1.000000
96 157 1.000000
42 158 1.000000
99 159 1.000000
97 160 1.000000
42 161 1.000000
18 162 1.000000
22 163 1.000000
24 164 1.000000
95 165 1.000000
99 166 1.000000
7 167 1.000000
22 168 1.000000
45 169 1.000000
84 170 1.000000
13 171 1.000000
100 172 1.000000
96 173 1.000000
22 174 1.000000
61 175 1.000000
78 176 1.000000
5 177 1.000000
96 178 1.000000
21 179 1.000000
92 180 1.000000
16 181 1.000000
42 182 1.000000
36 183 1.000000
101 184 1.000000
99 185 1.000000
58 186 1.000000
74 187 1.000000
85 188 1.000000
44 189 1.000000
46 190 1.000000
104 191 1.000000
46 192 1.000000
104 193 1.000000
104 194 1.000000
5 195 1.000000
99 196 1.000000
99 197 1.000000
22 198 1.000000
78 199 1.000000
75 200 1.000000
85 201 1.000000
16 202 1.000000
78 203 1.000000
76 204 1.000000
77 205 1.000000
78 206 1.000000
85 207 1.000000
78 208 1.000000
82 209 1.000000
69 210 1.000000
22 211 1.000000
79 212 1.000000
84 213 1.000000
58 214 1.000000
42 215 1.000000
77 216 1.000000
99 217 1.000000
78 218 1.000000
21 219 1.000000
67 220 1.000000
58 221 1.000000
23 222 1.000000
23 223 1.000000
96 224 1.000000
48 225 1.000000
82 226 1.000000
5 227 1.000000
7 228 1.000000
34 229 1.000000
74 230 1.000000
77 231 1.000000
27 232 1.000000
3 233 1.000000
37 234 1.000000
78 235 1.000000
78 236 1.000000
96 237 1.000000
24 238 1.000000
77 239 1.000000
22 240 1.000000
5 241 1.000000
78 242 1.000000
70 243 1.000000
30 244 1.000000
97 245 1.000000
82 246 1.000000
42 247 1.000000
67 248 1.000000
79 249 1.000000
99 250 1.000000
13 251 1.000000
90 252 1.000000
74 253 1.000000
77 254 1.000000
77 255 1.000000
28 256 1.000000
96 257 1.000000
53 258 1.000000
3 259 1.000000
68 260 1.000000
79 261 1.000000
60 262 1.000000
24 263 1.000000
60 264 1.000000
96 265 1.000000
24 266 1.000000
24 267 1.000000
75 268 1.000000
3 269 1.000000
22 270 1.000000
56 271 1.000000
42 272 1.000000
5 273 1.000000
67 274 1.000000
77 275 1.000000
56 276 1.000000
56 277 1.000000
22 278 1.000000
58 279 1.000000
56 280 1.000000
104 281 1.000000
39 282 1.000000
5 283 1.000000
7 284 1.000000
27 285 1.000000
27 286 1.000000
21 287 1.000000
75 288 1.000000
88 289 1.000000
23 290 1.000000
44 291 1.000000
46 292 1.000000
91 293 1.000000
84 294 1.000000
74 295 1.000000
22 296 1.000000
47 297 1.000000
57 298 1.000000
22 299 1.000000
49 300 1.000000
101 301 1.000000
77 302 1.000000
99 303 1.000000
34 304 1.000000
13 305 1.000000
22 306 1.000000
22 307 1.000000
99 308 1.000000
75 309 1.000000
24 310 1.000000
92 311 1.000000
77 312 1.000000
86 313 1.000000
88 314 1.000000
82 315 1.000000
78 316 1.000000
48 317 1.000000
65 318 1.000000
83 319 1.000000
8 320 1.000000
68 321 1.000000
11 322 1.000000
26 323 1.000000
90 324 1.000000
58 325 1.000000
79 326 1.000000
58 327 1.000000
58 328 1.000000
85 329 1.000000
24 330 1.000000
76 331 1.000000
60 332 1.000000
58 333 1.000000
22 334 1.000000
75 335 1.000000
48 336 1.000000
78 337 1.000000
16 338 1.000000
1 339 1.000000
56 340 1.000000
5 341 1.000000
5 342 1.000000
56 343 1.000000
24 344 1.000000
48 345 1.000000
60 346 1.000000
16 347 1.000000
18 348 1.000000
82 349 1.000000
78 350 1.000000
16 351 1.000000
16 352 1.000000
36 353 1.000000
78 354 1.000000
84 355 1.000000
50 356 1.000000
104 357 1.000000
30 358 1.000000
91 359 1.000000
76 360 1.000000
96 361 1.000000
44 362 1.000000
78 363 1.000000
16 364 1.000000
5 365 1.000000
5 366 1.000000
5 367 1.000000
22 368 1.000000
78 369 1.000000
78 370 1.000000
22 371 1.000000
42 372 1.000000
67 373 1.000000
99 374 1.000000
22 375 1.000000
21 376 1.000000
31 377 1.000000
60 378 1.000000
21 379 1.000000
5 380 1.000000
44 381 1.000000
96 382 1.000000
15 383 1.000000
87 384 1.000000
3 385 1.000000
74 386 1.000000
89 387 1.000000
84 388 1.000000
104 389 1.000000
58 390 1.000000
24 391 1.000000
77 392 1.000000
60 393 1.000000
42 394 1.000000
92 395 1.000000
46 396 1.000000
7 397 1.000000
2 398 1.000000
79 399 1.000000
77 400 1.000000
70 401 1.000000
96 402 1.000000
67 403 1.000000
67 404 1.000000
83 405 1.000000
16 406 1.000000
77 407 1.000000
85 408 1.000000
85 409 1.000000
85 410 1.000000
22 411 1.000000
85 412 1.000000
22 413 1.000000
92 414 1.000000
48 415 1.000000
69 416 1.000000
36 417 1.000000
65 418 1.000000
7 419 1.000000
79 420 1.000000
104 421 1.000000
28 422 1.000000
30 423 1.000000
8 424 1.000000
60 425 1.000000
22 426 1.000000
21 427 1.000000
77 428 1.000000
99 429 1.000000
8 430 1.000000
96 431 1.000000
96 432 1.000000
99 433 1.000000
99 434 1.000000
34 435 1.000000
3 436 1.000000
96 437 1.000000
3 438 1.000000
47 439 1.000000
104 440 1.000000
74 441 1.000000
83 442 1.000000
96 443 1.000000
3 444 1.000000
16 445 1.000000
83 446 1.000000
22 447 1.000000
85 448 1.000000
24 449 1.000000
7 450 1.000000
87 451 1.000000
105 452 1.000000
18 453 1.000000
70 454 1.000000
101 455 1.000000
22 456 1.000000
100 457 1.000000
7 458 1.000000
89 459 1.000000
75 460 1.000000
32 461 1.000000
77 462 1.000000
85 463 1.000000
22 464 1.000000
56 465 1.000000
74 466 1.000000
22 467 1.000000
56 468 1.000000
36 469 1.000000
42 470 1.000000
7 471 1.000000
22 472 1.000000
22 473 1.000000
22 474 1.000000
96 475 1.000000
45 476 1.000000
84 477 1.000000
74 478 1.000000
7 479 1.000000
7 480 1.000000
53 481 1.000000
75 482 1.000000
34 483 1.000000
22 484 1.000000
12 485 1.000000
87 486 1.000000
27 487 1.000000
46 488 1.000000
75 489 1.000000
77 490 1.000000
58 491 1.000000
36 492 1.000000
58 493 1.000000
77 494 1.000000
78 495 1.000000
56 496 1.000000
61 497 1.000000
7 498 1.000000
13 499 1.000000
13 500 1.000000
67 501 1.000000
61 502 1.000000
74 503 1.000000
61 504 1.000000
5 505 1.000000
14 506 1.000000
4 507 1.000000
100 508 1.000000
65 509 1.000000
82 510 1.000000
104 511 1.000000
60 512 1.000000
85 513 1.000000
18 514 1.000000
4 515 1.000000
58 516 1.000000
5 517 1.000000
95 518 1.000000
42 519 1.000000
104 520 1.000000
77 521 1.000000
34 522 1.000000
18 523 1.000000
7 524 1.000000
77 525 1.000000
18 526 1.000000
78 527 1.000000
78 528 1.000000
5 529 1.000000
5 530 1.000000
24 531 1.000000
85 532 1.000000
18 533 1.000000
36 534 1.000000
88 535 1.000000
100 536 1.000000
85 537 1.000000
46 538 1.000000
46 539 1.000000
101 540 1.000000
23 541 1.000000
101 542 1.000000
63 543 1.000000
23 544 1.000000
3 545 1.000000
78 546 1.000000
24 547 1.000000
60 548 1.000000
22 549 1.000000
75 550 1.000000
28 551 1.000000
34 552 1.000000
22 553 1.000000
78 554 1.000000
22 555 1.000000
70 556 1.000000
70 557 1.000000
8 558 1.000000
8 559 1.000000
22 560 1.000000
42 561 1.000000
78 562 1.000000
74 563 1.000000
67 564 1.000000
22 565 1.000000
22 566 1.000000
32 567 1.000000
74 568 1.000000
32 569 1.000000
28 570 1.000000
84 571 1.000000
60 572 1.000000
63 573 1.000000
56 574 1.000000
70 575 1.000000
22 576 1.000000
84 577 1.000000
72 578 1.000000
34 579 1.000000
77 580 1.000000
101 581 1.000000
23 582 1.000000
68 583 1.000000
23 584 1.000000
13 585 1.000000
21 586 1.000000
64 587 1.000000
42 588 1.000000
74 589 1.000000
5 590 1.000000
5 591 1.000000
75 592 1.000000
5 593 1.000000
101 594 1.000000
101 595 1.000000
37 596 1.000000
49 597 1.000000
48 598 1.000000
99 599 1.000000
78 600 1.000000
78 601 1.000000
22 602 1.000000
67 603 1.000000
23 604 1.000000
92 605 1.000000
84 606 1.000000
46 607 1.000000
47 608 1.000000
92 609 1.000000
78 610 1.000000
78 611 1.000000
92 612 1.000000
23 613 1.000000
3 614 1.000000
70 615 1.000000
70 616 1.000000
3 617 1.000000
5 618 1.000000
7 619 1.000000
79 620 1.000000
78 621 1.000000
22 622 1.000000
60 623 1.000000
58 624 1.000000
63 625 1.000000
63 626 1.000000
89 627 1.000000
87 628 1.000000
78 629 1.000000
23 630 1.000000
85 631 1.000000
87 632 1.000000
96 633 1.000000
22 634 1.000000
96 635 1.000000
96 636 1.000000
74 637 1.000000
58 638 1.000000
83 639 1.000000
13 640 1.000000
75 641 1.000000
31 642 1.000000
12 643 1.000000
23 644 1.000000
22 645 1.000000
86 646 1.000000
87 647 1.000000
5 648 1.000000
85 649 1.000000
7 650 1.000000
22 651 1.000000
96 652 1.000000
99 653 1.000000
22 654 1.000000
7 655 1.000000
78 656 1.000000
32 657 1.000000
32 658 1.000000
25 659 1.000000
63 660 1.000000
96 661 1.000000
8 662 1.000000
42 663 1.000000
61 664 1.000000
11 665 1.000000
77 666 1.000000
89 667 1.000000
53 668 1.000000
92 669 1.000000
82 670 1.000000
23 671 1.000000
22 672 1.000000
100 673 1.000000
5 674 1.000000
77 675 1.000000
48 676 1.000000
84 677 1.000000
8 678 1.000000
5 679 1.000000
27 680 1.000000
60 681 1.000000
67 682 1.000000
32 683 1.000000
96 684 1.000000
18 685 1.000000
78 686 1.000000
82 687 1.000000
89 688 1.000000
32 689 1.000000
25 690 1.000000
83 691 1.000000
32 692 1.000000
47 693 1.000000
85 694 1.000000
13 695 1.000000
6 696 1.000000
77 697 1.000000
12 698 1.000000
96 699 1.000000
74 700 1.000000
63 701 1.000000
83 702 1.000000
5 703 1.000000
78 704 1.000000
31 705 1.000000
104 706 1.000000
70 707 1.000000
99 708 1.000000
13 709 1.000000
5 710 1.000000
47 711 1.000000
87 712 1.000000
46 713 1.000000
18 714 1.000000
33 715 1.000000
18 716 1.000000
92 717 1.000000
44 718 1.000000
92 719 1.000000
87 720 1.000000
47 721 1.000000
44 722 1.000000
96 723 1.000000
22 724 1.000000
78 725 1.000000
71 726 1.000000
76 727 1.000000
33 728 1.000000
30 729 1.000000
56 730 1.000000
16 731 1.000000
76 732 1.000000
75 733 1.000000
32 734 1.000000
58 735 1.000000
99 736 1.000000
13 737 1.000000
78 738 1.000000
22 739 1.000000
22 740 1.000000
32 741 1.000000
89 742 1.000000
86 743 1.000000
102 744 1.000000
102 745 1.000000
89 746 1.000000
49 747 1.000000
78 748 1.000000
36 749 1.000000
22 750 1.000000
97 751 1.000000
3 752 1.000000
101 753 1.000000
16 754 1.000000
7 755 1.000000
67 756 1.000000
5 757 1.000000
67 758 1.000000
24 759 1.000000
91 760 1.000000
82 761 1.000000
100 762 1.000000
82 763 1.000000
78 764 1.000000
80 765 1.000000
24 766 1.000000
42 767 1.000000
28 768 1.000000
86 769 1.000000
80 770 1.000000
16 771 1.000000
78 772 1.000000
86 773 1.000000
32 774 1.000000
60 775 1.000000
22 776 1.000000
79 777 1.000000
36 778 1.000000
100 779 1.000000
63 780 1.000000
24 781 1.000000
55 782 1.000000
72 783 1.000000
65 784 1.000000
91 785 1.000000
65 786 1.000000
75 787 1.000000
19 788 1.000000
58 789 1.000000
69 790 1.000000
34 791 1.000000
75 792 1.000000
75 793 1.000000
30 794 1.000000
90 795 1.000000
90 796 1.000000
5 797 1.000000
77 798 1.000000
75 799 1.000000
101 800 1.000000
24 801 1.000000
88 802 1.000000
5 803 1.000000
30 804 1.000000
32 805 1.000000
85 806 1.000000
23 807 1.000000
74 808 1.000000
76 809 1.000000
57 810 1.000000
19 811 1.000000
80 812 1.000000
57 813 1.000000
24 814 1.000000
57 815 1.000000
24 816 1.000000
63 817 1.000000
101 818 1.000000
101 819 1.000000
101 820 1.000000
78 821 1.000000
60 822 1.000000
28 823 1.000000
7 824 1.000000
101 825 1.000000
101 826 1.000000
28 827 1.000000
79 828 1.000000
28 829 1.000000
78 830 1.000000
78 831 1.000000
73 832 1.000000
53 833 1.000000
33 834 1.000000
84 835 1.000000
32 836 1.000000
21 837 1.000000
48 838 1.000000
5 839 1.000000
84 840 1.000000
64 841 1.000000
86 842 1.000000
22 843 1.000000
32 844 1.000000
44 845 1.000000
91 846 1.000000
55 847 1.000000
26 848 1.000000
26 849 1.000000
5 850 1.000000
91 851 1.000000
77 852 1.000000
91 853 1.000000
65 854 1.000000
52 855 1.000000
91 856 1.000000
33 857 1.000000
68 858 1.000000
39 859 1.000000
95 860 1.000000
44 861 1.000000
28 862 1.000000
65 863 1.000000
76 864 1.000000
92 865 1.000000
90 866 1.000000
89 867 1.000000
60 868 1.000000
32 869 1.000000
92 870 1.000000
32 871 1.000000
53 872 1.000000
84 873 1.000000
84 874 1.000000
84 875 1.000000
22 876 1.000000
70 877 1.000000
82 878 1.000000
71 879 1.000000
42 880 1.000000
24 881 1.000000
63 882 1.000000
22 883 1.000000
101 884 1.000000
100 885 1.000000
96 886 1.000000
5 887 1.000000
93 888 1.000000
36 889 1.000000
36 890 1.000000
89 891 1.000000
19 892 1.000000
36 893 1.000000
34 894 1.000000
91 895 1.000000
5 896 1.000000
36 897 1.000000
86 898 1.000000
13 899 1.000000
77 900 1.000000
24 901 1.000000
94 902 1.000000
80 903 1.000000
77 904 1.000000
36 905 1.000000
19 906 1.000000
8 907 1.000000
78 908 1.000000
57 909 1.000000
79 910 1.000000
80 911 1.000000
96 912 1.000000
85 913 1.000000
79 914 1.000000
5 915 1.000000
58 916 1.000000
64 917 1.000000
91 918 1.000000
78 919 1.000000
57 920 1.000000
84 921 1.000000
92 922 1.000000
101 923 1.000000
101 924 1.000000
20 925 1.000000
72 926 1.000000
81 927 1.000000
65 928 1.000000
9 929 1.000000
32 930 1.000000
85 931 1.000000
28 932 1.000000
90 933 1.000000
22 934 1.000000
44 935 1.000000
24 936 1.000000
32 937 1.000000
34 938 1.000000
10 939 1.000000
5 940 1.000000
44 941 1.000000
33 942 1.000000
33 943 1.000000
30 944 1.000000
96 945 1.000000
58 946 1.000000
85 947 1.000000
65 948 1.000000
85 949 1.000000
81 950 1.000000
86 951 1.000000
94 952 1.000000
58 953 1.000000
5 954 1.000000
87 955 1.000000
100 956 1.000000
52 957 1.000000
26 958 1.000000
69 959 1.000000
30 960 1.000000
21 961 1.000000
7 962 1.000000
89 963 1.000000
48 964 1.000000
80 965 1.000000
80 966 1.000000
80 967 1.000000
26 968 1.000000
16 969 1.000000
87 970 1.000000
74 971 1.000000
79 972 1.000000
5 973 1.000000
5 974 1.000000
44 975 1.000000
92 976 1.000000
19 977 1.000000
34 978 1.000000
11 979 1.000000
42 980 1.000000
85 981 1.000000
80 982 1.000000
24 983 1.000000
93 984 1.000000
5 985 1.000000
97 986 1.000000
83 987 1.000000
60 988 1.000000
32 989 1.000000
76 990 1.000000
85 991 1.000000
39 992 1.000000
101 993 1.000000
5 994 1.000000
101 995 1.000000
52 996 1.000000
91 997 1.000000
96 998 1.000000
18 999 1.000000
81 1000 1.000000
28 1001 1.000000
101 1002 1.000000
93 1003 1.000000
75 1004 1.000000
75 1005 1.000000
16 1006 1.000000
70 1007 1.000000
48 1008 1.000000
82 1009 1.000000
44 1010 1.000000
82 1011 1.000000
82 1012 1.000000
22 1013 1.000000
5 1014 1.000000
84 1015 1.000000
91 1016 1.000000
33 1017 1.000000
12 1018 1.000000
24 1019 1.000000
8 1020 1.000000
96 1021 1.000000
85 1022 1.000000
85 1023 1.000000
71 1024 1.000000
65 1025 1.000000
70 1026 1.000000
75 1027 1.000000
26 1028 1.000000
85 1029 1.000000
71 1030 1.000000
24 1031 1.000000
3 1032 1.000000
26 1033 1.000000
34 1034 1.000000
52 1035 1.000000
33 1036 1.000000
46 1037 1.000000
85 1038 1.000000
64 1039 1.000000
101 1040 1.000000
101 1041 1.000000
57 1042 1.000000
85 1043 1.000000
85 1044 1.000000
57 1045 1.000000
22 1046 1.000000
23 1047 1.000000
23 1048 1.000000
5 1049 1.000000
96 1050 1.000000
92 1051 1.000000
53 1052 1.000000
53 1053 1.000000
65 1054 1.000000
44 1055 1.000000
47 1056 1.000000
84 1057 1.000000
87 1058 1.000000
84 1059 1.000000
47 1060 1.000000
24 1061 1.000000
82 1062 1.000000
85 1063 1.000000
24 1064 1.000000
58 1065 1.000000
24 1066 1.000000
53 1067 1.000000
84 1068 1.000000
76 1069 1.000000
30 1070 1.000000
33 1071 1.000000
96 1072 1.000000
84 1073 1.000000
82 1074 1.000000
100 1075 1.000000
42 1076 1.000000
72 1077 1.000000
33 1078 1.000000
72 1079 1.000000
92 1080 1.000000
57 1081 1.000000
34 1082 1.000000
34 1083 1.000000
58 1084 1.000000
39 1085 1.000000
96 1086 1.000000
72 1087 1.000000
81 1088 1.000000
77 1089 1.000000
101 1090 1.000000
71 1091 1.000000
84 1092 1.000000
28 1093 1.000000
50 1094 1.000000
50 1095 1.000000
75 1096 1.000000
30 1097 1.000000
19 1098 1.000000
24 1099 1.000000
52 1100 1.000000
85 1101 1.000000
65 1102 1.000000
97 1103 1.000000
92 1104 1.000000
48 1105 1.000000
75 1106 1.000000
24 1107 1.000000
65 1108 1.000000
5 1109 1.000000
65 1110 1.000000
45 1111 1.000000
65 1112 1.000000
81 1113 1.000000
33 1114 1.000000
67 1115 1.000000
78 1116 1.000000
13 1117 1.000000
67 1118 1.000000
14 1119 1.000000
63 1120 1.000000
78 1121 1.000000
23 1122 1.000000
101 1123 1.000000
101 1124 1.000000
70 1125 1.000000
68 1126 1.000000
101 1127 1.000000
33 1128 1.000000
13 1129 1.000000
57 1130 1.000000
30 1131 1.000000
80 1132 1.000000
20 1133 1.000000
87 1134 1.000000
46 1135 1.000000
48 1136 1.000000
24 1137 1.000000
22 1138 1.000000
23 1139 1.000000
24 1140 1.000000
80 1141 1.000000
86 1142 1.000000
24 1143 1.000000
46 1144 1.000000
5 1145 1.000000
85 1146 1.000000
78 1147 1.000000
86 1148 1.000000
27 1149 1.000000
85 1150 1.000000
85 1151 1.000000
5 1152 1.000000
101 1153 1.000000
33 1154 1.000000
101 1155 1.000000
65 1156 1.000000
5 1157 1.000000
89 1158 1.000000
18 1159 1.000000
24 1160 1.000000
5 1161 1.000000
65 1162 1.000000
91 1163 1.000000
68 1164 1.000000
65 1165 1.000000
96 1166 1.000000
5 1167 1.000000
30 1168 1.000000
5 1169 1.000000
77 1170 1.000000
95 1171 1.000000
92 1172 1.000000
58 1173 1.000000
83 1174 1.000000
34 1175 1.000000
24 1176 1.000000
101 1177 1.000000
48 1178 1.000000
52 1179 1.000000
85 1180 1.000000
48 1181 1.000000
28 1182 1.000000
82 1183 1.000000
74 1184 1.000000
44 1185 1.000000
28 1186 1.000000
20 1187 1.000000
34 1188 1.000000
101 1189 1.000000
32 1190 1.000000
57 1191 1.000000
8 1192 1.000000
11 1193 1.000000
74 1194 1.000000
101 1195 1.000000
85 1196 1.000000
64 1197 1.000000
65 1198 1.000000
95 1199 1.000000
18 1200 1.000000
84 1201 1.000000
79 1202 1.000000
74 1203 1.000000
63 1204 1.000000
46 1205 1.000000
33 1206 1.000000
69 1207 1.000000
24 1208 1.000000
48 1209 1.000000
101 1210 1.000000
101 1211 1.000000
84 1212 1.000000
101 1213 1.000000
22 1214 1.000000
7 1215 1.000000
101 1216 1.000000
33 1217 1.000000
5 1218 1.000000
33 1219 1.000000
24 1220 1.000000
81 1221 1.000000
69 1222 1.000000
57 1223 1.000000
96 1224 1.000000
24 1225 1.000000
24 1226 1.000000
34 1227 1.000000
15 1228 1.000000
32 1229 1.000000
57 1230 1.000000
52 1231 1.000000
52 1232 1.000000
52 1233 1.000000
101 1234 1.000000
34 1235 1.000000
81 1236 1.000000
15 1237 1.000000
28 1238 1.000000
81 1239 1.000000
5 1240 1.000000
86 1241 1.000000
86 1242 1.000000
5 1243 1.000000
84 1244 1.000000
82 1245 1.000000
84 1246 1.000000
84 1247 1.000000
84 1248 1.000000
32 1249 1.000000
44 1250 1.000000
77 1251 1.000000
77 1252 1.000000
78 1253 1.000000
80 1254 1.000000
85 1255 1.000000
91 1256 1.000000
83 1257 1.000000
52 1258 1.000000
84 1259 1.000000
34 1260 1.000000
48 1261 1.000000
67 1262 1.000000
48 1263 1.000000
34 1264 1.000000
46 1265 1.000000
92 1266 1.000000
21 1267 1.000000
81 1268 1.000000
58 1269 1.000000
90 1270 1.000000
96 1271 1.000000
96 1272 1.000000
85 1273 1.000000
28 1274 1.000000
24 1275 1.000000
21 1276 1.000000
5 1277 1.000000
55 1278 1.000000
23 1279 1.000000
24 1280 1.000000
100 1281 1.000000
85 1282 1.000000
85 1283 1.000000
77 1284 1.000000
77 1285 1.000000
16 1286 1.000000
24 1287 1.000000
19 1288 1.000000
13 1289 1.000000
42 1290 1.000000
8 1291 1.000000
92 1292 1.000000
96 1293 1.000000
85 1294 1.000000
58 1295 1.000000
5 1296 1.000000
100 1297 1.000000
34 1298 1.000000
16 1299 1.000000
33 1300 1.000000
76 1301 1.000000
21 1302 1.000000
93 1303 1.000000
24 1304 1.000000
101 1305 1.000000
24 1306 1.000000
92 1307 1.000000
28 1308 1.000000
5 1309 1.000000
20 1310 1.000000
92 1311 1.000000
80 1312 1.000000
90 1313 1.000000
16 1314 1.000000
22 1315 1.000000
92 1316 1.000000
22 1317 1.000000
101 1318 1.000000
77 1319 1.000000
5 1320 1.000000
76 1321 1.000000
57 1322 1.000000
90 1323 1.000000
85 1324 1.000000
79 1325 1.000000
24 1326 1.000000
79 1327 1.000000
17 1328 1.000000
65 1329 1.000000
96 1330 1.000000
30 1331 1.000000
30 1332 1.000000
30 1333 1.000000
24 1334 1.000000
30 1335 1.000000
96 1336 1.000000
26 1337 1.000000
81 1338 1.000000
91 1339 1.000000
81 1340 1.000000
42 1341 1.000000
57 1342 1.000000
76 1343 1.000000
75 1344 1.000000
23 1345 1.000000
23 1346 1.000000
85 1347 1.000000
86 1348 1.000000
23 1349 1.000000
5 1350 1.000000
5 1351 1.000000
68 1352 1.000000
77 1353 1.000000
44 1354 1.000000
101 1355 1.000000
23 1356 1.000000
53 1357 1.000000
13 1358 1.000000
75 1359 1.000000
87 1360 1.000000
75 1361 1.000000
81 1362 1.000000
44 1363 1.000000
75 1364 1.000000
75 1365 1.000000
57 1366 1.000000
64 1367 1.000000
101 1368 1.000000
101 1369 1.000000
24 1370 1.000000
97 1371 1.000000
67 1372 1.000000
36 1373 1.000000
64 1374 1.000000
92 1375 1.000000
42 1376 1.000000
22 1377 1.000000
88 1378 1.000000
22 1379 1.000000
24 1380 1.000000
33 1381 1.000000
84 1382 1.000000
16 1383 1.000000
77 1384 1.000000
77 1385 1.000000
101 1386 1.000000
70 1387 1.000000
5 1388 1.000000
26 1389 1.000000
60 1390 1.000000
77 1391 1.000000
5 1392 1.000000
33 1393 1.000000
19 1394 1.000000
26 1395 1.000000
5 1396 1.000000
74 1397 1.000000
19 1398 1.000000
77 1399 1.000000
81 1400 1.000000
26 1401 1.000000
94 1402 1.000000
26 1403 1.000000
81 1404 1.000000
24 1405 1.000000
81 1406 1.000000
81 1407 1.000000
65 1408 1.000000
55 1409 1.000000
69 1410 1.000000
24 1411 1.000000
63 1412 1.000000
65 1413 1.000000
97 1414 1.000000
19 1415 1.000000
5 1416 1.000000
101 1417 1.000000
60 1418 1.000000
76 1419 1.000000
18 1420 1.000000
23 1421 1.000000
60 1422 1.000000
28 1423 1.000000
65 1424 1.000000
33 1425 1.000000
18 1426 1.000000
101 1427 1.000000
18 1428 1.000000
90 1429 1.000000
48 1430 1.000000
28 1431 1.000000
28 1432 1.000000
80 1433 1.000000
75 1434 1.000000
48 1435 1.000000
85 1436 1.000000
5 1437 1.000000
19 1438 1.000000
74 1439 1.000000
30 1440 1.000000
22 1441 1.000000
33 1442 1.000000
48 1443 1.000000
22 1444 1.000000
48 1445 1.000000
48 1446 1.000000
85 1447 1.000000
32 1448 1.000000
101 1449 1.000000
70 1450 1.000000
76 1451 1.000000
85 1452 1.000000
42 1453 1.000000
101 1454 1.000000
77 1455 1.000000
30 1456 1.000000
75 1457 1.000000
28 1458 1.000000
5 1459 1.000000
22 1460 1.000000
20 1461 1.000000
13 1462 1.000000
28 1463 1.000000
81 1464 1.000000
85 1465 1.000000
101 1466 1.000000
30 1467 1.000000
24 1468 1.000000
26 1469 1.000000
75 1470 1.000000
85 1471 1.000000
85 1472 1.000000
71 1473 1.000000
44 1474 1.000000
44 1475 1.000000
88 1476 1.000000
52 1477 1.000000
78 1478 1.000000
26 1479 1.000000
97 1480 1.000000
72 1481 1.000000
80 1482 1.000000
28 1483 1.000000
68 1484 1.000000
28 1485 1.000000
78 1486 1.000000
82 1487 1.000000
72 1488 1.000000
85 1489 1.000000
48 1490 1.000000
85 1491 1.000000
77 1492 1.000000
92 1493 1.000000
60 1494 1.000000
85 1495 1.000000
52 1496 1.000000
68 1497 1.000000
101 1498 1.000000
68 1499 1.000000
92 1500 1.000000
81 1501 1.000000
85 1502 1.000000
72 1503 1.000000
5 1504 1.000000
5 1505 1.000000
90 1506 1.000000
5 1507 1.000000
5 1508 1.000000
92 1509 1.000000
5 1510 1.000000
34 1511 1.000000
13 1512 1.000000
81 1513 1.000000
65 1514 1.000000
8 1515 1.000000
32 1516 1.000000
33 1517 1.000000
5 1518 1.000000
45 1519 1.000000
48 1520 1.000000
84 1521 1.000000
28 1522 1.000000
28 1523 1.000000
24 1524 1.000000
84 1525 1.000000
5 1526 1.000000
84 1527 1.000000
79 1528 1.000000
96 1529 1.000000
22 1530 1.000000
67 1531 1.000000
93 1532 1.000000
72 1533 1.000000
55 1534 1.000000
23 1535 1.000000
23 1536 1.000000
45 1537 1.000000
23 1538 1.000000
92 1539 1.000000
21 1540 1.000000
22 1541 1.000000
5 1542 1.000000
88 1543 1.000000
79 1544 1.000000
69 1545 1.000000
72 1546 1.000000
22 1547 1.000000
77 1548 1.000000
92 1549 1.000000
79 1550 1.000000
18 1551 1.000000
5 1552 1.000000
94 1553 1.000000
94 1554 1.000000
94 1555 1.000000
18 1556 1.000000
23 1557 1.000000
32 1558 1.000000
24 1559 1.000000
32 1560 1.000000
100 1561 1.000000
26 1562 1.000000
87 1563 1.000000
30 1564 1.000000
77 1565 1.000000
77 1566 1.000000
70 1567 1.000000
70 1568 1.000000
65 1569 1.000000
82 1570 1.000000
65 1571 1.000000
24 1572 1.000000
24 1573 1.000000
80 1574 1.000000
12 1575 1.000000
24 1576 1.000000
21 1577 1.000000
25 1578 1.000000
82 1579 1.000000
92 1580 1.000000
25 1581 1.000000
32 1582 1.000000
81 1583 1.000000
24 1584 1.000000
65 1585 1.000000
22 1586 1.000000
26 1587 1.000000
82 1588 1.000000
67 1589 1.000000
80 1590 1.000000
80 1591 1.000000
53 1592 1.000000
16 1593 1.000000
13 1594 1.000000
24 1595 1.000000
21 1596 1.000000
82 1597 1.000000
27 1598 1.000000
24 1599 1.000000
32 1600 1.000000
85 1601 1.000000
48 1602 1.000000
79 1603 1.000000
67 1604 1.000000
85 1605 1.000000
77 1606 1.000000
85 1607 1.000000
96 1608 1.000000
81 1609 1.000000
82 1610 1.000000
85 1611 1.000000
24 1612 1.000000
5 1613 1.000000
91 1614 1.000000
91 1615 1.000000
57 1616 1.000000
22 1617 1.000000
96 1618 1.000000
81 1619 1.000000
91 1620 1.000000
48 1621 1.000000
101 1622 1.000000
90 1623 1.000000
16 1624 1.000000
18 1625 1.000000
25 1626 1.000000
93 1627 1.000000
7 1628 1.000000
24 1629 1.000000
5 1630 1.000000
85 1631 1.000000
44 1632 1.000000
32 1633 1.000000
85 1634 1.000000
78 1635 1.000000
101 1636 1.000000
82 1637 1.000000
96 1638 1.000000
33 1639 1.000000
57 1640 1.000000
23 1641 1.000000
8 1642 1.000000
88 1643 1.000000
32 1644 1.000000
83 1645 1.000000
77 1646 1.000000
67 1647 1.000000
82 1648 1.000000
23 1649 1.000000
32 1650 1.000000
30 1651 1.000000
82 1652 1.000000
50 1653 1.000000
101 1654 1.000000
91 1655 1.000000
16 1656 1.000000
76 1657 1.000000
28 1658 1.000000
100 1659 1.000000
50 1660 1.000000
58 1661 1.000000
75 1662 1.000000
46 1663 1.000000
63 1664 1.000000
32 1665 1.000000
101 1666 1.000000
87 1667 1.000000
32 1668 1.000000
77 1669 1.000000
15 1670 1.000000
33 1671 1.000000
81 1672 1.000000
77 1673 1.000000
80 1674 1.000000
101 1675 1.000000
24 1676 1.000000
78 1677 1.000000
78 1678 1.000000
28 1679 1.000000
82 1680 1.000000
101 1681 1.000000
5 1682 1.000000
5 1683 1.000000
32 1684 1.000000
82 1685 1.000000
30 1686 1.000000
48 1687 1.000000
32 1688 1.000000
29 1689 1.000000
67 1690 1.000000
52 1691 1.000000
30 1692 1.000000
28 1693 1.000000
32 1694 1.000000
30 1695 1.000000
101 1696 1.000000
52 1697 1.000000
32 1698 1.000000
93 1699 1.000000
101 1700 1.000000
89 1701 1.000000
53 1702 1.000000
18 1703 1.000000
32 1704 1.000000
89 1705 1.000000
75 1706 1.000000
101 1707 1.000000
101 1708 1.000000
24 1709 1.000000
84 1710 1.000000
76 1711 1.000000
32 1712 1.000000
70 1713 1.000000
36 1714 1.000000
5 1715 1.000000
16 1716 1.000000
36 1717 1.000000
33 1718 1.000000
64 1719 1.000000
52 1720 1.000000
5 1721 1.000000
82 1722 1.000000
91 1723 1.000000
91 1724 1.000000
92 1725 1.000000
92 1726 1.000000
82 1727 1.000000
22 1728 1.000000
45 1729 1.000000
45 1730 1.000000
55 1731 1.000000
36 1732 1.000000
65 1733 1.000000
36 1734 1.000000
16 1735 1.000000
93 1736 1.000000
52 1737 1.000000
52 1738 1.000000
67 1739 1.000000
31 1740 1.000000
24 1741 1.000000
22 1742 1.000000
71 1743 1.000000
96 1744 1.000000
5 1745 1.000000
44 1746 1.000000
5 1747 1.000000
79 1748 1.000000
75 1749 1.000000
58 1750 1.000000
99 1751 1.000000
5 1752 1.000000
23 1753 1.000000
78 1754 1.000000
64 1755 1.000000
92 1756 1.000000
63 1757 1.000000
58 1758 1.000000
77 1759 1.000000
5 1760 1.000000
78 1761 1.000000
36 1762 1.000000
60 1763 1.000000
78 1764 1.000000
5 1765 1.000000
5 1766 1.000000
74 1767 1.000000
67 1768 1.000000
67 1769 1.000000
44 1770 1.000000
5 1771 1.000000
52 1772 1.000000
77 1773 1.000000
45 1774 1.000000
85 1775 1.000000
45 1776 1.000000
97 1777 1.000000
5 1778 1.000000
76 1779 1.000000
42 1780 1.000000
42 1781 1.000000
34 1782 1.000000
22 1783 1.000000
71 1784 1.000000
44 1785 1.000000
24 1786 1.000000
47 1787 1.000000
76 1788 1.000000
45 1789 1.000000
5 1790 1.000000
69 1791 1.000000
32 1792 1.000000
40 1793 1.000000
45 1794 1.000000
45 1795 1.000000
45 1796 1.000000
24 1797 1.000000
69 1798 1.000000
5 1799 1.000000
33 1800 1.000000
56 1801 1.000000
84 1802 1.000000
5 1803 1.000000
91 1804 1.000000
5 1805 1.000000
5 1806 1.000000
89 1807 1.000000
24 1808 1.000000
83 1809 1.000000
34 1810 1.000000
74 1811 1.000000
77 1812 1.000000
65 1813 1.000000
61 1814 1.000000
84 1815 1.000000
77 1816 1.000000
22 1817 1.000000
5 1818 1.000000
61 1819 1.000000
34 1820 1.000000
77 1821 1.000000
84 1822 1.000000
78 1823 1.000000
34 1824 1.000000
83 1825 1.000000
42 1826 1.000000
25 1827 1.000000
49 1828 1.000000
74 1829 1.000000
60 1830 1.000000
34 1831 1.000000
69 1832 1.000000
69 1833 1.000000
96 1834 1.000000
44 1835 1.000000
75 1836 1.000000
69 1837 1.000000
15 1838 1.000000
87 1839 1.000000
44 1840 1.000000
44 1841 1.000000
22 1842 1.000000
58 1843 1.000000
101 1844 1.000000
42 1845 1.000000
42 1846 1.000000
105 1847 1.000000
105 1848 1.000000
75 1849 1.000000
5 1850 1.000000
24 1851 1.000000
61 1852 1.000000
91 1853 1.000000
49 1854 1.000000
41 1855 1.000000
41 1856 1.000000
60 1857 1.000000
42 1858 1.000000
5 1859 1.000000
22 1860 1.000000
32 1861 1.000000
49 1862 1.000000
21 1863 1.000000
21 1864 1.000000
41 1865 1.000000
3 1866 1.000000
101 1867 1.000000
64 1868 1.000000
60 1869 1.000000
83 1870 1.000000
36 1871 1.000000
76 1872 1.000000
52 1873 1.000000
5 1874 1.000000
5 1875 1.000000
85 1876 1.000000
65 1877 1.000000
34 1878 1.000000
3 1879 1.000000
78 1880 1.000000
67 1881 1.000000
68 1882 1.000000
5 1883 1.000000
24 1884 1.000000
89 1885 1.000000
89 1886 1.000000
89 1887 1.000000
89 1888 1.000000
100 1889 1.000000
98 1890 1.000000
24 1891 1.000000
85 1892 1.000000
102 1893 1.000000
83 1894 1.000000
79 1895 1.000000
83 1896 1.000000
61 1897 1.000000
75 1898 1.000000
58 1899 1.000000
58 1900 1.000000
72 1901 1.000000
56 1902 1.000000
89 1903 1.000000
78 1904 1.000000
39 1905 1.000000
44 1906 1.000000
60 1907 1.000000
56 1908 1.000000
96 1909 1.000000
81 1910 1.000000
104 1911 1.000000
52 1912 1.000000
13 1913 1.000000
36 1914 1.000000
77 1915 1.000000
5 1916 1.000000
89 1917 1.000000
69 1918 1.000000
90 1919 1.000000
90 1920 1.000000
5 1921 1.000000
55 1922 1.000000
84 1923 1.000000
53 1924 1.000000
35 1925 1.000000
52 1926 1.000000
36 1927 1.000000
105 1928 1.000000
53 1929 1.000000
5 1930 1.000000
5 1931 1.000000
55 1932 1.000000
89 1933 1.000000
103 1934 1.000000
8 1935 1.000000
92 1936 1.000000
24 1937 1.000000
58 1938 1.000000
5 1939 1.000000
77 1940 1.000000
54 1941 1.000000
36 1942 1.000000
5 1943 1.000000
24 1944 1.000000
34 1945 1.000000
56 1946 1.000000
24 1947 1.000000
82 1948 1.000000
5 1949 1.000000
5 1950 1.000000
54 1951 1.000000
39 1952 1.000000
61 1953 1.000000
3 1954 1.000000
11 1955 1.000000
5 1956 1.000000
99 1957 1.000000
74 1958 1.000000
54 1959 1.000000
44 1960 1.000000
5 1961 1.000000
99 1962 1.000000
95 1963 1.000000
21 1964 1.000000
83 1965 1.000000
46 1966 1.000000
42 1967 1.000000
21 1968 1.000000
85 1969 1.000000
67 1970 1.000000
98 1971 1.000000
52 1972 1.000000
5 1973 1.000000
69 1974 1.000000
53 1975 1.000000
7 1976 1.000000
41 1977 1.000000
36 1978 1.000000
36 1979 1.000000
42 1980 1.000000
24 1981 1.000000
5 1982 1.000000
36 1983 1.000000
22 1984 1.000000
52 1985 1.000000
52 1986 1.000000
96 1987 1.000000
96 1988 1.000000
5 1989 1.000000
5 1990 1.000000
37 1991 1.000000
36 1992 1.000000
36 1993 1.000000
56 1994 1.000000
56 1995 1.000000
56 1996 1.000000
5 1997 1.000000
5 1998 1.000000
5 1999 1.000000
77 2000 1.000000
56 2001 1.000000
24 2002 1.000000
36 2003 1.000000
77 2004 1.000000
70 2005 1.000000
49 2006 1.000000
83 2007 1.000000
42 2008 1.000000
36 2009 1.000000
5 2010 1.000000
21 2011 1.000000
75 2012 1.000000
83 2013 1.000000
60 2014 1.000000
74 2015 1.000000
72 2016 1.000000
56 2017 1.000000
38 2018 1.000000
74 2019 1.000000
76 2020 1.000000
42 2021 1.000000
87 2022 1.000000
36 2023 1.000000
83 2024 1.000000
89 2025 1.000000
36 2026 1.000000
84 2027 1.000000
74 2028 1.000000
75 2029 1.000000
61 2030 1.000000
102 2031 1.000000
48 2032 1.000000
48 2033 1.000000
96 2034 1.000000
72 2035 1.000000
39 2036 1.000000
100 2037 1.000000
65 2038 1.000000
97 2039 1.000000
24 2040 1.000000
70 2041 1.000000
5 2042 1.000000
82 2043 1.000000
53 2044 1.000000
77 2045 1.000000
83 2046 1.000000
3 2047 1.000000
67 2048 1.000000
41 2049 1.000000
77 2050 1.000000
92 2051 1.000000
67 2052 1.000000
68 2053 1.000000
75 2054 1.000000
75 2055 1.000000
92 2056 1.000000
42 2057 1.000000
34 2058 1.000000
67 2059 1.000000
85 2060 1.000000
68 2061 1.000000
68 2062 1.000000
68 2063 1.000000
5 2064 1.000000
5 2065 1.000000
52 2066 1.000000
97 2067 1.000000
40 2068 1.000000
50 2069 1.000000
79 2070 1.000000
5 2071 1.000000
34 2072 1.000000
53 2073 1.000000
61 2074 1.000000
82 2075 1.000000
41 2076 1.000000
79 2077 1.000000
102 2078 1.000000
22 2079 1.000000
90 2080 1.000000
90 2081 1.000000
104 2082 1.000000
45 2083 1.000000
49 2084 1.000000
82 2085 1.000000
50 2086 1.000000
52 2087 1.000000
52 2088 1.000000
79 2089 1.000000
67 2090 1.000000
81 2091 1.000000
34 2092 1.000000
72 2093 1.000000
37 2094 1.000000
58 2095 1.000000
42 2096 1.000000
5 2097 1.000000
56 2098 1.000000
70 2099 1.000000
70 2100 1.000000
99 2101 1.000000
55 2102 1.000000
43 2103 1.000000
69 2104 1.000000
67 2105 1.000000
5 2106 1.000000
99 2107 1.000000
3 2108 1.000000
58 2109 1.000000
5 2110 1.000000
49 2111 1.000000
67 2112 1.000000
5 2113 1.000000
98 2114 1.000000
53 2115 1.000000
56 2116 1.000000
24 2117 1.000000
5 2118 1.000000
22 2119 1.000000
5 2120 1.000000
5 2121 1.000000
5 2122 1.000000
41 2123 1.000000
41 2124 1.000000
53 2125 1.000000
24 2126 1.000000
90 2127 1.000000
96 2128 1.000000
102 2129 1.000000
76 2130 1.000000
102 2131 1.000000
102 2132 1.000000
15 2133 1.000000
52 2134 1.000000
5 2135 1.000000
83 2136 1.000000
5 2137 1.000000
96 2138 1.000000
64 2139 1.000000
54 2140 1.000000
58 2141 1.000000
49 2142 1.000000
5 2143 1.000000
45 2144 1.000000
79 2145 1.000000
7 2146 1.000000
75 2147 1.000000
76 2148 1.000000
5 2149 1.000000
5 2150 1.000000
11 2151 1.000000
65 2152 1.000000
46 2153 1.000000
36 2154 1.000000
5 2155 1.000000
90 2156 1.000000
70 2157 1.000000
88 2158 1.000000
68 2159 1.000000
104 2160 1.000000
79 2161 1.000000
79 2162 1.000000
98 2163 1.000000
5 2164 1.000000
58 2165 1.000000
46 2166 1.000000
79 2167 1.000000
79 2168 1.000000
75 2169 1.000000
79 2170 1.000000
24 2171 1.000000
48 2172 1.000000
97 2173 1.000000
55 2174 1.000000
74 2175 1.000000
44 2176 1.000000
77 2177 1.000000
24 2178 1.000000
45 2179 1.000000
11 2180 1.000000
96 2181 1.000000
45 2182 1.000000
75 2183 1.000000
11 2184 1.000000
62 2185 1.000000
5 2186 1.000000
85 2187 1.000000
85 2188 1.000000
5 2189 1.000000
5 2190 1.000000
5 2191 1.000000
78 2192 1.000000
96 2193 1.000000
46 2194 1.000000
5 2195 1.000000
21 2196 1.000000
44 2197 1.000000
96 2198 1.000000
100 2199 1.000000
44 2200 1.000000
69 2201 1.000000
78 2202 1.000000
24 2203 1.000000
63 2204 1.000000
55 2205 1.000000
33 2206 1.000000
52 2207 1.000000
47 2208 1.000000
36 2209 1.000000
7 2210 1.000000
83 2211 1.000000
52 2212 1.000000
5 2213 1.000000
90 2214 1.000000
104 2215 1.000000
34 2216 1.000000
44 2217 1.000000
48 2218 1.000000
87 2219 1.000000
36 2220 1.000000
54 2221 1.000000
22 2222 1.000000
11 2223 1.000000
104 2224 1.000000
49 2225 1.000000
65 2226 1.000000
54 2227 1.000000
53 2228 1.000000
50 2229 1.000000
48 2230 1.000000
92 2231 1.000000
97 2232 1.000000
51 2233 1.000000
78 2234 1.000000
36 2235 1.000000
36 2236 1.000000
5 2237 1.000000
24 2238 1.000000
54 2239 1.000000
64 2240 1.000000
34 2241 1.000000
56 2242 1.000000
104 2243 1.000000
73 2244 1.000000
73 2245 1.000000
73 2246 1.000000
75 2247 1.000000
5 2248 1.000000
24 2249 1.000000
54 2250 1.000000
54 2251 1.000000
24 2252 1.000000
54 2253 1.000000
90 2254 1.000000
24 2255 1.000000
77 2256 1.000000
93 2257 1.000000
67 2258 1.000000
77 2259 1.000000
52 2260 1.000000
92 2261 1.000000
52 2262 1.000000
5 2263 1.000000
5 2264 1.000000
5 2265 1.000000
24 2266 1.000000
60 2267 1.000000
44 2268 1.000000
78 2269 1.000000
55 2270 1.000000
53 2271 1.000000
54 2272 1.000000
101 2273 1.000000
70 2274 1.000000
24 2275 1.000000
78 2276 1.000000
27 2277 1.000000
55 2278 1.000000
85 2279 1.000000
89 2280 1.000000
67 2281 1.000000
46 2282 1.000000
48 2283 1.000000
85 2284 1.000000
85 2285 1.000000
64 2286 1.000000
67 2287 1.000000
100 2288 1.000000
5 2289 1.000000
5 2290 1.000000
21 2291 1.000000
21 2292 1.000000
58 2293 1.000000
58 2294 1.000000
80 2295 1.000000
63 2296 1.000000
24 2297 1.000000
57 2298 1.000000
24 2299 1.000000
101 2300 1.000000
7 2301 1.000000
56 2302 1.000000
67 2303 1.000000
39 2304 1.000000
57 2305 1.000000
11 2306 1.000000
77 2307 1.000000
77 2308 1.000000
5 2309 1.000000
67 2310 1.000000
83 2311 1.000000
64 2312 1.000000
34 2313 1.000000
36 2314 1.000000
85 2315 1.000000
100 2316 1.000000
102 2317 1.000000
46 2318 1.000000
36 2319 1.000000
102 2320 1.000000
49 2321 1.000000
85 2322 1.000000
76 2323 1.000000
58 2324 1.000000
65 2325 1.000000
92 2326 1.000000
65 2327 1.000000
72 2328 1.000000
22 2329 1.000000
90 2330 1.000000
44 2331 1.000000
60 2332 1.000000
69 2333 1.000000
83 2334 1.000000
69 2335 1.000000
60 2336 1.000000
89 2337 1.000000
78 2338 1.000000
96 2339 1.000000
48 2340 1.000000
92 2341 1.000000
58 2342 1.000000
96 2343 1.000000
81 2344 1.000000
60 2345 1.000000
49 2346 1.000000
21 2347 1.000000
24 2348 1.000000
71 2349 1.000000
5 2350 1.000000
75 2351 1.000000
77 2352 1.000000
92 2353 1.000000
69 2354 1.000000
70 2355 1.000000
78 2356 1.000000
75 2357 1.000000
76 2358 1.000000
5 2359 1.000000
88 2360 1.000000
70 2361 1.000000
44 2362 1.000000
36 2363 1.000000
67 2364 1.000000
65 2365 1.000000
5 2366 1.000000
104 2367 1.000000
96 2368 1.000000
74 2369 1.000000
96 2370 1.000000
85 2371 1.000000
101 2372 1.000000
101 2373 1.000000
64 2374 1.000000
64 2375 1.000000
104 2376 1.000000
76 2377 1.000000
36 2378 1.000000
92 2379 1.000000
52 2380 1.000000
87 2381 1.000000
59 2382 1.000000
60 2383 1.000000
77 2384 1.000000
5 2385 1.000000
76 2386 1.000000
5 2387 1.000000
5 2388 1.000000
104 2389 1.000000
60 2390 1.000000
53 2391 1.000000
100 2392 1.000000
52 2393 1.000000
61 2394 1.000000
100 2395 1.000000
5 2396 1.000000
61 2397 1.000000
63 2398 1.000000
62 2399 1.000000
101 2400 1.000000
89 2401 1.000000
5 2402 1.000000
55 2403 1.000000
7 2404 1.000000
22 2405 1.000000
63 2406 1.000000
22 2407 1.000000
44 2408 1.000000
7 2409 1.000000
83 2410 1.000000
77 2411 1.000000
105 2412 1.000000
77 2413 1.000000
64 2414 1.000000
64 2415 1.000000
81 2416 1.000000
104 2417 1.000000
42 2418 1.000000
49 2419 1.000000
58 2420 1.000000
79 2421 1.000000
60 2422 1.000000
76 2423 1.000000
65 2424 1.000000
90 2425 1.000000
58 2426 1.000000
90 2427 1.000000
100 2428 1.000000
82 2429 1.000000
46 2430 1.000000
32 2431 1.000000
90 2432 1.000000
92 2433 1.000000
89 2434 1.000000
79 2435 1.000000
5 2436 1.000000
99 2437 1.000000
89 2438 1.000000
66 2439 1.000000
85 2440 1.000000
97 2441 1.000000
34 2442 1.000000
22 2443 1.000000
81 2444 1.000000
67 2445 1.000000
78 2446 1.000000
69 2447 1.000000
21 2448 1.000000
64 2449 1.000000
68 2450 1.000000
68 2451 1.000000
69 2452 1.000000
92 2453 1.000000
105 2454 1.000000
76 2455 1.000000
70 2456 1.000000
71 2457 1.000000
24 2458 1.000000
104 2459 1.000000
78 2460 1.000000
5 2461 1.000000
72 2462 1.000000
96 2463 1.000000
8 2464 1.000000
5 2465 1.000000
34 2466 1.000000
34 2467 1.000000
90 2468 1.000000
90 2469 1.000000
5 2470 1.000000
55 2471 1.000000
73 2472 1.000000
22 2473 1.000000
34 2474 1.000000
58 2475 1.000000
75 2476 1.000000
74 2477 1.000000
53 2478 1.000000
54 2479 1.000000
102 2480 1.000000
22 2481 1.000000
5 2482 1.000000
41 2483 1.000000
75 2484 1.000000
83 2485 1.000000
22 2486 1.000000
98 2487 1.000000
34 2488 1.000000
104 2489 1.000000
101 2490 1.000000
24 2491 1.000000
5 2492 1.000000
72 2493 1.000000
90 2494 1.000000
5 2495 1.000000
60 2496 1.000000
3 2497 1.000000
5 2498 1.000000
76 2499 1.000000
76 2500 1.000000
76 2501 1.000000
92 2502 1.000000
94 2503 1.000000
5 2504 1.000000
63 2505 1.000000
76 2506 1.000000
104 2507 1.000000
64 2508 1.000000
96 2509 1.000000
95 2510 1.000000
36 2511 1.000000
49 2512 1.000000
5 2513 1.000000
64 2514 1.000000
87 2515 1.000000
77 2516 1.000000
24 2517 1.000000
5 2518 1.000000
24 2519 1.000000
5 2520 1.000000
88 2521 1.000000
80 2522 1.000000
78 2523 1.000000
5 2524 1.000000
79 2525 1.000000
79 2526 1.000000
64 2527 1.000000
99 2528 1.000000
5 2529 1.000000
80 2530 1.000000
81 2531 1.000000
58 2532 1.000000
42 2533 1.000000
5 2534 1.000000
5 2535 1.000000
77 2536 1.000000
74 2537 1.000000
105 2538 1.000000
92 2539 1.000000
90 2540 1.000000
42 2541 1.000000
82 2542 1.000000
5 2543 1.000000
97 2544 1.000000
23 2545 1.000000
45 2546 1.000000
56 2547 1.000000
72 2548 1.000000
100 2549 1.000000
104 2550 1.000000
83 2551 1.000000
34 2552 1.000000
84 2553 1.000000
85 2554 1.000000
24 2555 1.000000
90 2556 1.000000
39 2557 1.000000
82 2558 1.000000
87 2559 1.000000
86 2560 1.000000
90 2561 1.000000
87 2562 1.000000
92 2563 1.000000
24 2564 1.000000
24 2565 1.000000
88 2566 1.000000
58 2567 1.000000
76 2568 1.000000
23 2569 1.000000
77 2570 1.000000
53 2571 1.000000
3 2572 1.000000
5 2573 1.000000
5 2574 1.000000
3 2575 1.000000
104 2576 1.000000
53 2577 1.000000
96 2578 1.000000
91 2579 1.000000
89 2580 1.000000
34 2581 1.000000
7 2582 1.000000
85 2583 1.000000
83 2584 1.000000
5 2585 1.000000
34 2586 1.000000
98 2587 1.000000
34 2588 1.000000
56 2589 1.000000
90 2590 1.000000
104 2591 1.000000
90 2592 1.000000
91 2593 1.000000
96 2594 1.000000
77 2595 1.000000
92 2596 1.000000
64 2597 1.000000
93 2598 1.000000
52 2599 1.000000
98 2600 1.000000
69 2601 1.000000
5 2602 1.000000
5 2603 1.000000
63 2604 1.000000
44 2605 1.000000
94 2606 1.000000
78 2607 1.000000
96 2608 1.000000
104 2609 1.000000
90 2610 1.000000
78 2611 1.000000
78 2612 1.000000
78 2613 1.000000
63 2614 1.000000
83 2615 1.000000
82 2616 1.000000
83 2617 1.000000
34 2618 1.000000
95 2619 1.000000
85 2620 1.000000
5 2621 1.000000
5 2622 1.000000
96 2623 1.000000
98 2624 1.000000
46 2625 1.000000
78 2626 1.000000
101 2627 1.000000
65 2628 1.000000
22 2629 1.000000
22 2630 1.000000
25 2631 1.000000
5 2632 1.000000
5 2633 1.000000
75 2634 1.000000
65 2635 1.000000
97 2636 1.000000
7 2637 1.000000
5 2638 1.000000
24 2639 1.000000
5 2640 1.000000
5 2641 1.000000
44 2642 1.000000
74 2643 1.000000
55 2644 1.000000
5 2645 1.000000
41 2646 1.000000
55 2647 1.000000
32 2648 1.000000
98 2649 1.000000
99 2650 1.000000
77 2651 1.000000
85 2652 1.000000
5 2653 1.000000
100 2654 1.000000
60 2655 1.000000
7 2656 1.000000
101 2657 1.000000
65 2658 1.000000
32 2659 1.000000
102 2660 1.000000
103 2661 1.000000
104 2662 1.000000
78 2663 1.000000
34 2664 1.000000
46 2665 1.000000
5 2666 1.000000
105 2667 1.000000
63 2668 1.000000
5 2669 1.000000
64 2670 1.000000
77 2671 1.000000
77 2672 1.000000
74 2673 1.000000
24 2674 1.000000
97 2675 1.000000
83 2676 1.000000
76 2677 1.000000
81 2678 1.000000
53 2679 1.000000
91 2680 1.000000
64 2681 1.000000
42 2682 1.000000
71 2683 1.000000
77 2684 1.000000
5 2685 1.000000
75 2686 1.000000
64 2687 1.000000
74 2688 1.000000
44 2689 1.000000
7 2690 1.000000
75 2691 1.000000
5 2692 1.000000
97 2693 1.000000
36 2694 1.000000
60 2695 1.000000
100 2696 1.000000
100 2697 1.000000
5 2698 1.000000
5 2699 1.000000
36 2700 1.000000
5 2701 1.000000
5 2702 1.000000
63 2703 1.000000
69 2704 1.000000
44 2705 1.000000
44 2706 1.000000
23 2707 1.000000
60 2708 1.000000
